<?xml version="1.0"?>
<VTKFile type="UnstructuredGrid" version="0.1">
<UnstructuredGrid>
<Piece NumberOfPoints="      1156" NumberOfCells="      1024">
<Points>
<DataArray type="Float64"                                    Name="coordinates"                                                      NumberOfComponents=" 3" format="ascii">
              0.133000000               0.000000000               0.000000000               0.155937500               0.000000000               0.000000000               0.178875000               0.000000000               0.000000000               0.201812500               0.000000000               0.000000000               0.224750000               0.000000000               0.000000000               0.247687500               0.000000000               0.000000000               0.270625000               0.000000000               0.000000000               0.293562500               0.000000000               0.000000000               0.316500000               0.000000000               0.000000000               0.339437500               0.000000000               0.000000000               0.362375000               0.000000000               0.000000000               0.385312500               0.000000000               0.000000000               0.408250000               0.000000000               0.000000000               0.431187500               0.000000000               0.000000000               0.454125000               0.000000000               0.000000000               0.477062500               0.000000000               0.000000000               0.500000000               0.000000000               0.000000000               0.132359569               0.013036280               0.000000000               0.155337096               0.016127762               0.000000000               0.178314623               0.019219245               0.000000000               0.201292150               0.022310727               0.000000000               0.224269676               0.025402210               0.000000000               0.247247203               0.028493692               0.000000000               0.270224730               0.031585175               0.000000000               0.293202257               0.034676657               0.000000000               0.316179784               0.037768140               0.000000000               0.339157311               0.040859622               0.000000000               0.362134838               0.043951105               0.000000000               0.385112365               0.047042587               0.000000000               0.408089892               0.050134070               0.000000000               0.431067419               0.053225552               0.000000000               0.454044946               0.056317035               0.000000000               0.477022473               0.059408517               0.000000000               0.500000000               0.062500000               0.000000000               0.130444442               0.025947013               0.000000000               0.153541665               0.032137825               0.000000000               0.176638887               0.038328636               0.000000000               0.199736109               0.044519448               0.000000000               0.222833332               0.050710260               0.000000000               0.245930554               0.056901071               0.000000000               0.269027776               0.063091883               0.000000000               0.292124999               0.069282695               0.000000000               0.315222221               0.075473506               0.000000000               0.338319444               0.081664318               0.000000000               0.361416666               0.087855130               0.000000000               0.384513888               0.094045942               0.000000000               0.407611111               0.100236753               0.000000000               0.430708333               0.106427565               0.000000000               0.453805555               0.112618377               0.000000000               0.476902778               0.118809188               0.000000000               0.500000000               0.125000000               0.000000000               0.127273065               0.038607862               0.000000000               0.150568498               0.047913621               0.000000000               0.173863932               0.057219379               0.000000000               0.197159365               0.066525138               0.000000000               0.220454798               0.075830897               0.000000000               0.243750232               0.085136655               0.000000000               0.267045665               0.094442414               0.000000000               0.290341099               0.103748172               0.000000000               0.313636532               0.113053931               0.000000000               0.336931966               0.122359690               0.000000000               0.360227399               0.131665448               0.000000000               0.383522833               0.140971207               0.000000000               0.406818266               0.150276966               0.000000000               0.430113700               0.159582724               0.000000000               0.453409133               0.168888483               0.000000000               0.476704567               0.178194241               0.000000000               0.500000000               0.187500000               0.000000000               0.122875978               0.050896897               0.000000000               0.146446229               0.063340840               0.000000000               0.170016481               0.075784784               0.000000000               0.193586732               0.088228728               0.000000000               0.217156983               0.100672672               0.000000000               0.240727235               0.113116616               0.000000000               0.264297486               0.125560560               0.000000000               0.287867738               0.138004504               0.000000000               0.311437989               0.150448448               0.000000000               0.335008240               0.162892392               0.000000000               0.358578492               0.175336336               0.000000000               0.382148743               0.187780280               0.000000000               0.405718994               0.200224224               0.000000000               0.429289246               0.212668168               0.000000000               0.452859497               0.225112112               0.000000000               0.476429749               0.237556056               0.000000000               0.500000000               0.250000000               0.000000000               0.117295528               0.062695766               0.000000000               0.141214558               0.078308531               0.000000000               0.165133587               0.093921295               0.000000000               0.189052617               0.109534060               0.000000000               0.212971646               0.125146824               0.000000000               0.236890676               0.140759589               0.000000000               0.260809705               0.156372354               0.000000000               0.284728735               0.171985118               0.000000000               0.308647764               0.187597883               0.000000000               0.332566794               0.203210648               0.000000000               0.356485823               0.218823412               0.000000000               0.380404853               0.234436177               0.000000000               0.404323882               0.250048941               0.000000000               0.428242912               0.265661706               0.000000000               0.452161941               0.281274471               0.000000000               0.476080971               0.296887235               0.000000000               0.500000000               0.312500000               0.000000000               0.110585458               0.073890841               0.000000000               0.134923867               0.092710163               0.000000000               0.159262276               0.111529486               0.000000000               0.183600685               0.130348808               0.000000000               0.207939094               0.149168131               0.000000000               0.232277503               0.167987453               0.000000000               0.256615912               0.186806776               0.000000000               0.280954320               0.205626098               0.000000000               0.305292729               0.224445420               0.000000000               0.329631138               0.243264743               0.000000000               0.353969547               0.262084065               0.000000000               0.378307956               0.280903388               0.000000000               0.402646365               0.299722710               0.000000000               0.426984773               0.318542033               0.000000000               0.451323182               0.337361355               0.000000000               0.475661591               0.356180678               0.000000000               0.500000000               0.375000000               0.000000000               0.102810390               0.084374307               0.000000000               0.127634741               0.106444663               0.000000000               0.152459092               0.128515018               0.000000000               0.177283442               0.150585374               0.000000000               0.202107793               0.172655730               0.000000000               0.226932143               0.194726086               0.000000000               0.251756494               0.216796442               0.000000000               0.276580845               0.238866798               0.000000000               0.301405195               0.260937153               0.000000000               0.326229546               0.283007509               0.000000000               0.351053896               0.305077865               0.000000000               0.375878247               0.327148221               0.000000000               0.400702598               0.349218577               0.000000000               0.425526948               0.371288933               0.000000000               0.450351299               0.393359288               0.000000000               0.475175649               0.415429644               0.000000000               0.500000000               0.437500000               0.000000000               0.094045202               0.094045202               0.000000000               0.119417377               0.119417377               0.000000000               0.144789552               0.144789552               0.000000000               0.170161727               0.170161727               0.000000000               0.195533901               0.195533901               0.000000000               0.220906076               0.220906076               0.000000000               0.246278251               0.246278251               0.000000000               0.271650426               0.271650426               0.000000000               0.297022601               0.297022601               0.000000000               0.322394776               0.322394776               0.000000000               0.347766951               0.347766951               0.000000000               0.373139126               0.373139126               0.000000000               0.398511300               0.398511300               0.000000000               0.423883475               0.423883475               0.000000000               0.449255650               0.449255650               0.000000000               0.474627825               0.474627825               0.000000000               0.500000000               0.500000000               0.000000000               0.084374307               0.102810390               0.000000000               0.106444663               0.127634741               0.000000000               0.128515018               0.152459092               0.000000000               0.150585374               0.177283442               0.000000000               0.172655730               0.202107793               0.000000000               0.194726086               0.226932143               0.000000000               0.216796442               0.251756494               0.000000000               0.238866798               0.276580845               0.000000000               0.260937153               0.301405195               0.000000000               0.283007509               0.326229546               0.000000000               0.305077865               0.351053896               0.000000000               0.327148221               0.375878247               0.000000000               0.349218577               0.400702598               0.000000000               0.371288933               0.425526948               0.000000000               0.393359288               0.450351299               0.000000000               0.415429644               0.475175649               0.000000000               0.437500000               0.500000000               0.000000000               0.073890841               0.110585458               0.000000000               0.092710163               0.134923867               0.000000000               0.111529486               0.159262276               0.000000000               0.130348808               0.183600685               0.000000000               0.149168131               0.207939094               0.000000000               0.167987453               0.232277503               0.000000000               0.186806776               0.256615912               0.000000000               0.205626098               0.280954320               0.000000000               0.224445420               0.305292729               0.000000000               0.243264743               0.329631138               0.000000000               0.262084065               0.353969547               0.000000000               0.280903388               0.378307956               0.000000000               0.299722710               0.402646365               0.000000000               0.318542033               0.426984773               0.000000000               0.337361355               0.451323182               0.000000000               0.356180678               0.475661591               0.000000000               0.375000000               0.500000000               0.000000000               0.062695766               0.117295528               0.000000000               0.078308531               0.141214558               0.000000000               0.093921295               0.165133587               0.000000000               0.109534060               0.189052617               0.000000000               0.125146824               0.212971646               0.000000000               0.140759589               0.236890676               0.000000000               0.156372354               0.260809705               0.000000000               0.171985118               0.284728735               0.000000000               0.187597883               0.308647764               0.000000000               0.203210648               0.332566794               0.000000000               0.218823412               0.356485823               0.000000000               0.234436177               0.380404853               0.000000000               0.250048941               0.404323882               0.000000000               0.265661706               0.428242912               0.000000000               0.281274471               0.452161941               0.000000000               0.296887235               0.476080971               0.000000000               0.312500000               0.500000000               0.000000000               0.050896897               0.122875978               0.000000000               0.063340840               0.146446229               0.000000000               0.075784784               0.170016481               0.000000000               0.088228728               0.193586732               0.000000000               0.100672672               0.217156983               0.000000000               0.113116616               0.240727235               0.000000000               0.125560560               0.264297486               0.000000000               0.138004504               0.287867738               0.000000000               0.150448448               0.311437989               0.000000000               0.162892392               0.335008240               0.000000000               0.175336336               0.358578492               0.000000000               0.187780280               0.382148743               0.000000000               0.200224224               0.405718994               0.000000000               0.212668168               0.429289246               0.000000000               0.225112112               0.452859497               0.000000000               0.237556056               0.476429749               0.000000000               0.250000000               0.500000000               0.000000000               0.038607862               0.127273065               0.000000000               0.047913621               0.150568498               0.000000000               0.057219379               0.173863932               0.000000000               0.066525138               0.197159365               0.000000000               0.075830897               0.220454798               0.000000000               0.085136655               0.243750232               0.000000000               0.094442414               0.267045665               0.000000000               0.103748172               0.290341099               0.000000000               0.113053931               0.313636532               0.000000000               0.122359690               0.336931966               0.000000000               0.131665448               0.360227399               0.000000000               0.140971207               0.383522833               0.000000000               0.150276966               0.406818266               0.000000000               0.159582724               0.430113700               0.000000000               0.168888483               0.453409133               0.000000000               0.178194241               0.476704567               0.000000000               0.187500000               0.500000000               0.000000000               0.025947013               0.130444442               0.000000000               0.032137825               0.153541665               0.000000000               0.038328636               0.176638887               0.000000000               0.044519448               0.199736109               0.000000000               0.050710260               0.222833332               0.000000000               0.056901071               0.245930554               0.000000000               0.063091883               0.269027776               0.000000000               0.069282695               0.292124999               0.000000000               0.075473506               0.315222221               0.000000000               0.081664318               0.338319444               0.000000000               0.087855130               0.361416666               0.000000000               0.094045942               0.384513888               0.000000000               0.100236753               0.407611111               0.000000000               0.106427565               0.430708333               0.000000000               0.112618377               0.453805555               0.000000000               0.118809188               0.476902778               0.000000000               0.125000000               0.500000000               0.000000000               0.013036280               0.132359569               0.000000000               0.016127762               0.155337096               0.000000000               0.019219245               0.178314623               0.000000000               0.022310727               0.201292150               0.000000000               0.025402210               0.224269676               0.000000000               0.028493692               0.247247203               0.000000000               0.031585175               0.270224730               0.000000000               0.034676657               0.293202257               0.000000000               0.037768140               0.316179784               0.000000000               0.040859622               0.339157311               0.000000000               0.043951105               0.362134838               0.000000000               0.047042587               0.385112365               0.000000000               0.050134070               0.408089892               0.000000000               0.053225552               0.431067419               0.000000000               0.056317035               0.454044946               0.000000000               0.059408517               0.477022473               0.000000000               0.062500000               0.500000000               0.000000000               0.000000000               0.133000000               0.000000000               0.000000000               0.155937500               0.000000000               0.000000000               0.178875000               0.000000000               0.000000000               0.201812500               0.000000000               0.000000000               0.224750000               0.000000000               0.000000000               0.247687500               0.000000000               0.000000000               0.270625000               0.000000000               0.000000000               0.293562500               0.000000000               0.000000000               0.316500000               0.000000000               0.000000000               0.339437500               0.000000000               0.000000000               0.362375000               0.000000000               0.000000000               0.385312500               0.000000000               0.000000000               0.408250000               0.000000000               0.000000000               0.431187500               0.000000000               0.000000000               0.454125000               0.000000000               0.000000000               0.477062500               0.000000000               0.000000000               0.500000000               0.000000000               0.133000000               0.000000000               0.000000000               0.155937500               0.000000000               0.000000000               0.178875000               0.000000000               0.000000000               0.201812500               0.000000000               0.000000000               0.224750000               0.000000000               0.000000000               0.247687500               0.000000000               0.000000000               0.270625000               0.000000000               0.000000000               0.293562500               0.000000000               0.000000000               0.316500000               0.000000000               0.000000000               0.339437500               0.000000000               0.000000000               0.362375000               0.000000000               0.000000000               0.385312500               0.000000000               0.000000000               0.408250000               0.000000000               0.000000000               0.431187500               0.000000000               0.000000000               0.454125000               0.000000000               0.000000000               0.477062500               0.000000000               0.000000000               0.500000000               0.000000000               0.000000000               0.132359569              -0.013036280               0.000000000               0.155337096              -0.016127762               0.000000000               0.178314623              -0.019219245               0.000000000               0.201292150              -0.022310727               0.000000000               0.224269676              -0.025402210               0.000000000               0.247247203              -0.028493692               0.000000000               0.270224730              -0.031585175               0.000000000               0.293202257              -0.034676657               0.000000000               0.316179784              -0.037768140               0.000000000               0.339157311              -0.040859622               0.000000000               0.362134838              -0.043951105               0.000000000               0.385112365              -0.047042587               0.000000000               0.408089892              -0.050134070               0.000000000               0.431067419              -0.053225552               0.000000000               0.454044946              -0.056317035               0.000000000               0.477022473              -0.059408517               0.000000000               0.500000000              -0.062500000               0.000000000               0.130444442              -0.025947013               0.000000000               0.153541665              -0.032137825               0.000000000               0.176638887              -0.038328636               0.000000000               0.199736109              -0.044519448               0.000000000               0.222833332              -0.050710260               0.000000000               0.245930554              -0.056901071               0.000000000               0.269027776              -0.063091883               0.000000000               0.292124999              -0.069282695               0.000000000               0.315222221              -0.075473506               0.000000000               0.338319444              -0.081664318               0.000000000               0.361416666              -0.087855130               0.000000000               0.384513888              -0.094045942               0.000000000               0.407611111              -0.100236753               0.000000000               0.430708333              -0.106427565               0.000000000               0.453805555              -0.112618377               0.000000000               0.476902778              -0.118809188               0.000000000               0.500000000              -0.125000000               0.000000000               0.127273065              -0.038607862               0.000000000               0.150568498              -0.047913621               0.000000000               0.173863932              -0.057219379               0.000000000               0.197159365              -0.066525138               0.000000000               0.220454798              -0.075830897               0.000000000               0.243750232              -0.085136655               0.000000000               0.267045665              -0.094442414               0.000000000               0.290341099              -0.103748172               0.000000000               0.313636532              -0.113053931               0.000000000               0.336931966              -0.122359690               0.000000000               0.360227399              -0.131665448               0.000000000               0.383522833              -0.140971207               0.000000000               0.406818266              -0.150276966               0.000000000               0.430113700              -0.159582724               0.000000000               0.453409133              -0.168888483               0.000000000               0.476704567              -0.178194241               0.000000000               0.500000000              -0.187500000               0.000000000               0.122875978              -0.050896897               0.000000000               0.146446229              -0.063340840               0.000000000               0.170016481              -0.075784784               0.000000000               0.193586732              -0.088228728               0.000000000               0.217156983              -0.100672672               0.000000000               0.240727235              -0.113116616               0.000000000               0.264297486              -0.125560560               0.000000000               0.287867738              -0.138004504               0.000000000               0.311437989              -0.150448448               0.000000000               0.335008240              -0.162892392               0.000000000               0.358578492              -0.175336336               0.000000000               0.382148743              -0.187780280               0.000000000               0.405718994              -0.200224224               0.000000000               0.429289246              -0.212668168               0.000000000               0.452859497              -0.225112112               0.000000000               0.476429749              -0.237556056               0.000000000               0.500000000              -0.250000000               0.000000000               0.117295528              -0.062695766               0.000000000               0.141214558              -0.078308531               0.000000000               0.165133587              -0.093921295               0.000000000               0.189052617              -0.109534060               0.000000000               0.212971646              -0.125146824               0.000000000               0.236890676              -0.140759589               0.000000000               0.260809705              -0.156372354               0.000000000               0.284728735              -0.171985118               0.000000000               0.308647764              -0.187597883               0.000000000               0.332566794              -0.203210648               0.000000000               0.356485823              -0.218823412               0.000000000               0.380404853              -0.234436177               0.000000000               0.404323882              -0.250048941               0.000000000               0.428242912              -0.265661706               0.000000000               0.452161941              -0.281274471               0.000000000               0.476080971              -0.296887235               0.000000000               0.500000000              -0.312500000               0.000000000               0.110585458              -0.073890841               0.000000000               0.134923867              -0.092710163               0.000000000               0.159262276              -0.111529486               0.000000000               0.183600685              -0.130348808               0.000000000               0.207939094              -0.149168131               0.000000000               0.232277503              -0.167987453               0.000000000               0.256615912              -0.186806776               0.000000000               0.280954320              -0.205626098               0.000000000               0.305292729              -0.224445420               0.000000000               0.329631138              -0.243264743               0.000000000               0.353969547              -0.262084065               0.000000000               0.378307956              -0.280903388               0.000000000               0.402646365              -0.299722710               0.000000000               0.426984773              -0.318542033               0.000000000               0.451323182              -0.337361355               0.000000000               0.475661591              -0.356180678               0.000000000               0.500000000              -0.375000000               0.000000000               0.102810390              -0.084374307               0.000000000               0.127634741              -0.106444663               0.000000000               0.152459092              -0.128515018               0.000000000               0.177283442              -0.150585374               0.000000000               0.202107793              -0.172655730               0.000000000               0.226932143              -0.194726086               0.000000000               0.251756494              -0.216796442               0.000000000               0.276580845              -0.238866798               0.000000000               0.301405195              -0.260937153               0.000000000               0.326229546              -0.283007509               0.000000000               0.351053896              -0.305077865               0.000000000               0.375878247              -0.327148221               0.000000000               0.400702598              -0.349218577               0.000000000               0.425526948              -0.371288933               0.000000000               0.450351299              -0.393359288               0.000000000               0.475175649              -0.415429644               0.000000000               0.500000000              -0.437500000               0.000000000               0.094045202              -0.094045202               0.000000000               0.119417377              -0.119417377               0.000000000               0.144789552              -0.144789552               0.000000000               0.170161727              -0.170161727               0.000000000               0.195533901              -0.195533901               0.000000000               0.220906076              -0.220906076               0.000000000               0.246278251              -0.246278251               0.000000000               0.271650426              -0.271650426               0.000000000               0.297022601              -0.297022601               0.000000000               0.322394776              -0.322394776               0.000000000               0.347766951              -0.347766951               0.000000000               0.373139126              -0.373139126               0.000000000               0.398511300              -0.398511300               0.000000000               0.423883475              -0.423883475               0.000000000               0.449255650              -0.449255650               0.000000000               0.474627825              -0.474627825               0.000000000               0.500000000              -0.500000000               0.000000000               0.084374307              -0.102810390               0.000000000               0.106444663              -0.127634741               0.000000000               0.128515018              -0.152459092               0.000000000               0.150585374              -0.177283442               0.000000000               0.172655730              -0.202107793               0.000000000               0.194726086              -0.226932143               0.000000000               0.216796442              -0.251756494               0.000000000               0.238866798              -0.276580845               0.000000000               0.260937153              -0.301405195               0.000000000               0.283007509              -0.326229546               0.000000000               0.305077865              -0.351053896               0.000000000               0.327148221              -0.375878247               0.000000000               0.349218577              -0.400702598               0.000000000               0.371288933              -0.425526948               0.000000000               0.393359288              -0.450351299               0.000000000               0.415429644              -0.475175649               0.000000000               0.437500000              -0.500000000               0.000000000               0.073890841              -0.110585458               0.000000000               0.092710163              -0.134923867               0.000000000               0.111529486              -0.159262276               0.000000000               0.130348808              -0.183600685               0.000000000               0.149168131              -0.207939094               0.000000000               0.167987453              -0.232277503               0.000000000               0.186806776              -0.256615912               0.000000000               0.205626098              -0.280954320               0.000000000               0.224445420              -0.305292729               0.000000000               0.243264743              -0.329631138               0.000000000               0.262084065              -0.353969547               0.000000000               0.280903388              -0.378307956               0.000000000               0.299722710              -0.402646365               0.000000000               0.318542033              -0.426984773               0.000000000               0.337361355              -0.451323182               0.000000000               0.356180678              -0.475661591               0.000000000               0.375000000              -0.500000000               0.000000000               0.062695766              -0.117295528               0.000000000               0.078308531              -0.141214558               0.000000000               0.093921295              -0.165133587               0.000000000               0.109534060              -0.189052617               0.000000000               0.125146824              -0.212971646               0.000000000               0.140759589              -0.236890676               0.000000000               0.156372354              -0.260809705               0.000000000               0.171985118              -0.284728735               0.000000000               0.187597883              -0.308647764               0.000000000               0.203210648              -0.332566794               0.000000000               0.218823412              -0.356485823               0.000000000               0.234436177              -0.380404853               0.000000000               0.250048941              -0.404323882               0.000000000               0.265661706              -0.428242912               0.000000000               0.281274471              -0.452161941               0.000000000               0.296887235              -0.476080971               0.000000000               0.312500000              -0.500000000               0.000000000               0.050896897              -0.122875978               0.000000000               0.063340840              -0.146446229               0.000000000               0.075784784              -0.170016481               0.000000000               0.088228728              -0.193586732               0.000000000               0.100672672              -0.217156983               0.000000000               0.113116616              -0.240727235               0.000000000               0.125560560              -0.264297486               0.000000000               0.138004504              -0.287867738               0.000000000               0.150448448              -0.311437989               0.000000000               0.162892392              -0.335008240               0.000000000               0.175336336              -0.358578492               0.000000000               0.187780280              -0.382148743               0.000000000               0.200224224              -0.405718994               0.000000000               0.212668168              -0.429289246               0.000000000               0.225112112              -0.452859497               0.000000000               0.237556056              -0.476429749               0.000000000               0.250000000              -0.500000000               0.000000000               0.038607862              -0.127273065               0.000000000               0.047913621              -0.150568498               0.000000000               0.057219379              -0.173863932               0.000000000               0.066525138              -0.197159365               0.000000000               0.075830897              -0.220454798               0.000000000               0.085136655              -0.243750232               0.000000000               0.094442414              -0.267045665               0.000000000               0.103748172              -0.290341099               0.000000000               0.113053931              -0.313636532               0.000000000               0.122359690              -0.336931966               0.000000000               0.131665448              -0.360227399               0.000000000               0.140971207              -0.383522833               0.000000000               0.150276966              -0.406818266               0.000000000               0.159582724              -0.430113700               0.000000000               0.168888483              -0.453409133               0.000000000               0.178194241              -0.476704567               0.000000000               0.187500000              -0.500000000               0.000000000               0.025947013              -0.130444442               0.000000000               0.032137825              -0.153541665               0.000000000               0.038328636              -0.176638887               0.000000000               0.044519448              -0.199736109               0.000000000               0.050710260              -0.222833332               0.000000000               0.056901071              -0.245930554               0.000000000               0.063091883              -0.269027776               0.000000000               0.069282695              -0.292124999               0.000000000               0.075473506              -0.315222221               0.000000000               0.081664318              -0.338319444               0.000000000               0.087855130              -0.361416666               0.000000000               0.094045942              -0.384513888               0.000000000               0.100236753              -0.407611111               0.000000000               0.106427565              -0.430708333               0.000000000               0.112618377              -0.453805555               0.000000000               0.118809188              -0.476902778               0.000000000               0.125000000              -0.500000000               0.000000000               0.013036280              -0.132359569               0.000000000               0.016127762              -0.155337096               0.000000000               0.019219245              -0.178314623               0.000000000               0.022310727              -0.201292150               0.000000000               0.025402210              -0.224269676               0.000000000               0.028493692              -0.247247203               0.000000000               0.031585175              -0.270224730               0.000000000               0.034676657              -0.293202257               0.000000000               0.037768140              -0.316179784               0.000000000               0.040859622              -0.339157311               0.000000000               0.043951105              -0.362134838               0.000000000               0.047042587              -0.385112365               0.000000000               0.050134070              -0.408089892               0.000000000               0.053225552              -0.431067419               0.000000000               0.056317035              -0.454044946               0.000000000               0.059408517              -0.477022473               0.000000000               0.062500000              -0.500000000               0.000000000               0.000000000              -0.133000000               0.000000000               0.000000000              -0.155937500               0.000000000               0.000000000              -0.178875000               0.000000000               0.000000000              -0.201812500               0.000000000               0.000000000              -0.224750000               0.000000000               0.000000000              -0.247687500               0.000000000               0.000000000              -0.270625000               0.000000000               0.000000000              -0.293562500               0.000000000               0.000000000              -0.316500000               0.000000000               0.000000000              -0.339437500               0.000000000               0.000000000              -0.362375000               0.000000000               0.000000000              -0.385312500               0.000000000               0.000000000              -0.408250000               0.000000000               0.000000000              -0.431187500               0.000000000               0.000000000              -0.454125000               0.000000000               0.000000000              -0.477062500               0.000000000               0.000000000              -0.500000000               0.000000000              -0.133000000               0.000000000               0.000000000              -0.155937500               0.000000000               0.000000000              -0.178875000               0.000000000               0.000000000              -0.201812500               0.000000000               0.000000000              -0.224750000               0.000000000               0.000000000              -0.247687500               0.000000000               0.000000000              -0.270625000               0.000000000               0.000000000              -0.293562500               0.000000000               0.000000000              -0.316500000               0.000000000               0.000000000              -0.339437500               0.000000000               0.000000000              -0.362375000               0.000000000               0.000000000              -0.385312500               0.000000000               0.000000000              -0.408250000               0.000000000               0.000000000              -0.431187500               0.000000000               0.000000000              -0.454125000               0.000000000               0.000000000              -0.477062500               0.000000000               0.000000000              -0.500000000               0.000000000               0.000000000              -0.132359569              -0.013036280               0.000000000              -0.155337096              -0.016127762               0.000000000              -0.178314623              -0.019219245               0.000000000              -0.201292150              -0.022310727               0.000000000              -0.224269676              -0.025402210               0.000000000              -0.247247203              -0.028493692               0.000000000              -0.270224730              -0.031585175               0.000000000              -0.293202257              -0.034676657               0.000000000              -0.316179784              -0.037768140               0.000000000              -0.339157311              -0.040859622               0.000000000              -0.362134838              -0.043951105               0.000000000              -0.385112365              -0.047042587               0.000000000              -0.408089892              -0.050134070               0.000000000              -0.431067419              -0.053225552               0.000000000              -0.454044946              -0.056317035               0.000000000              -0.477022473              -0.059408517               0.000000000              -0.500000000              -0.062500000               0.000000000              -0.130444442              -0.025947013               0.000000000              -0.153541665              -0.032137825               0.000000000              -0.176638887              -0.038328636               0.000000000              -0.199736109              -0.044519448               0.000000000              -0.222833332              -0.050710260               0.000000000              -0.245930554              -0.056901071               0.000000000              -0.269027776              -0.063091883               0.000000000              -0.292124999              -0.069282695               0.000000000              -0.315222221              -0.075473506               0.000000000              -0.338319444              -0.081664318               0.000000000              -0.361416666              -0.087855130               0.000000000              -0.384513888              -0.094045942               0.000000000              -0.407611111              -0.100236753               0.000000000              -0.430708333              -0.106427565               0.000000000              -0.453805555              -0.112618377               0.000000000              -0.476902778              -0.118809188               0.000000000              -0.500000000              -0.125000000               0.000000000              -0.127273065              -0.038607862               0.000000000              -0.150568498              -0.047913621               0.000000000              -0.173863932              -0.057219379               0.000000000              -0.197159365              -0.066525138               0.000000000              -0.220454798              -0.075830897               0.000000000              -0.243750232              -0.085136655               0.000000000              -0.267045665              -0.094442414               0.000000000              -0.290341099              -0.103748172               0.000000000              -0.313636532              -0.113053931               0.000000000              -0.336931966              -0.122359690               0.000000000              -0.360227399              -0.131665448               0.000000000              -0.383522833              -0.140971207               0.000000000              -0.406818266              -0.150276966               0.000000000              -0.430113700              -0.159582724               0.000000000              -0.453409133              -0.168888483               0.000000000              -0.476704567              -0.178194241               0.000000000              -0.500000000              -0.187500000               0.000000000              -0.122875978              -0.050896897               0.000000000              -0.146446229              -0.063340840               0.000000000              -0.170016481              -0.075784784               0.000000000              -0.193586732              -0.088228728               0.000000000              -0.217156983              -0.100672672               0.000000000              -0.240727235              -0.113116616               0.000000000              -0.264297486              -0.125560560               0.000000000              -0.287867738              -0.138004504               0.000000000              -0.311437989              -0.150448448               0.000000000              -0.335008240              -0.162892392               0.000000000              -0.358578492              -0.175336336               0.000000000              -0.382148743              -0.187780280               0.000000000              -0.405718994              -0.200224224               0.000000000              -0.429289246              -0.212668168               0.000000000              -0.452859497              -0.225112112               0.000000000              -0.476429749              -0.237556056               0.000000000              -0.500000000              -0.250000000               0.000000000              -0.117295528              -0.062695766               0.000000000              -0.141214558              -0.078308531               0.000000000              -0.165133587              -0.093921295               0.000000000              -0.189052617              -0.109534060               0.000000000              -0.212971646              -0.125146824               0.000000000              -0.236890676              -0.140759589               0.000000000              -0.260809705              -0.156372354               0.000000000              -0.284728735              -0.171985118               0.000000000              -0.308647764              -0.187597883               0.000000000              -0.332566794              -0.203210648               0.000000000              -0.356485823              -0.218823412               0.000000000              -0.380404853              -0.234436177               0.000000000              -0.404323882              -0.250048941               0.000000000              -0.428242912              -0.265661706               0.000000000              -0.452161941              -0.281274471               0.000000000              -0.476080971              -0.296887235               0.000000000              -0.500000000              -0.312500000               0.000000000              -0.110585458              -0.073890841               0.000000000              -0.134923867              -0.092710163               0.000000000              -0.159262276              -0.111529486               0.000000000              -0.183600685              -0.130348808               0.000000000              -0.207939094              -0.149168131               0.000000000              -0.232277503              -0.167987453               0.000000000              -0.256615912              -0.186806776               0.000000000              -0.280954320              -0.205626098               0.000000000              -0.305292729              -0.224445420               0.000000000              -0.329631138              -0.243264743               0.000000000              -0.353969547              -0.262084065               0.000000000              -0.378307956              -0.280903388               0.000000000              -0.402646365              -0.299722710               0.000000000              -0.426984773              -0.318542033               0.000000000              -0.451323182              -0.337361355               0.000000000              -0.475661591              -0.356180678               0.000000000              -0.500000000              -0.375000000               0.000000000              -0.102810390              -0.084374307               0.000000000              -0.127634741              -0.106444663               0.000000000              -0.152459092              -0.128515018               0.000000000              -0.177283442              -0.150585374               0.000000000              -0.202107793              -0.172655730               0.000000000              -0.226932143              -0.194726086               0.000000000              -0.251756494              -0.216796442               0.000000000              -0.276580845              -0.238866798               0.000000000              -0.301405195              -0.260937153               0.000000000              -0.326229546              -0.283007509               0.000000000              -0.351053896              -0.305077865               0.000000000              -0.375878247              -0.327148221               0.000000000              -0.400702598              -0.349218577               0.000000000              -0.425526948              -0.371288933               0.000000000              -0.450351299              -0.393359288               0.000000000              -0.475175649              -0.415429644               0.000000000              -0.500000000              -0.437500000               0.000000000              -0.094045202              -0.094045202               0.000000000              -0.119417377              -0.119417377               0.000000000              -0.144789552              -0.144789552               0.000000000              -0.170161727              -0.170161727               0.000000000              -0.195533901              -0.195533901               0.000000000              -0.220906076              -0.220906076               0.000000000              -0.246278251              -0.246278251               0.000000000              -0.271650426              -0.271650426               0.000000000              -0.297022601              -0.297022601               0.000000000              -0.322394776              -0.322394776               0.000000000              -0.347766951              -0.347766951               0.000000000              -0.373139126              -0.373139126               0.000000000              -0.398511300              -0.398511300               0.000000000              -0.423883475              -0.423883475               0.000000000              -0.449255650              -0.449255650               0.000000000              -0.474627825              -0.474627825               0.000000000              -0.500000000              -0.500000000               0.000000000              -0.084374307              -0.102810390               0.000000000              -0.106444663              -0.127634741               0.000000000              -0.128515018              -0.152459092               0.000000000              -0.150585374              -0.177283442               0.000000000              -0.172655730              -0.202107793               0.000000000              -0.194726086              -0.226932143               0.000000000              -0.216796442              -0.251756494               0.000000000              -0.238866798              -0.276580845               0.000000000              -0.260937153              -0.301405195               0.000000000              -0.283007509              -0.326229546               0.000000000              -0.305077865              -0.351053896               0.000000000              -0.327148221              -0.375878247               0.000000000              -0.349218577              -0.400702598               0.000000000              -0.371288933              -0.425526948               0.000000000              -0.393359288              -0.450351299               0.000000000              -0.415429644              -0.475175649               0.000000000              -0.437500000              -0.500000000               0.000000000              -0.073890841              -0.110585458               0.000000000              -0.092710163              -0.134923867               0.000000000              -0.111529486              -0.159262276               0.000000000              -0.130348808              -0.183600685               0.000000000              -0.149168131              -0.207939094               0.000000000              -0.167987453              -0.232277503               0.000000000              -0.186806776              -0.256615912               0.000000000              -0.205626098              -0.280954320               0.000000000              -0.224445420              -0.305292729               0.000000000              -0.243264743              -0.329631138               0.000000000              -0.262084065              -0.353969547               0.000000000              -0.280903388              -0.378307956               0.000000000              -0.299722710              -0.402646365               0.000000000              -0.318542033              -0.426984773               0.000000000              -0.337361355              -0.451323182               0.000000000              -0.356180678              -0.475661591               0.000000000              -0.375000000              -0.500000000               0.000000000              -0.062695766              -0.117295528               0.000000000              -0.078308531              -0.141214558               0.000000000              -0.093921295              -0.165133587               0.000000000              -0.109534060              -0.189052617               0.000000000              -0.125146824              -0.212971646               0.000000000              -0.140759589              -0.236890676               0.000000000              -0.156372354              -0.260809705               0.000000000              -0.171985118              -0.284728735               0.000000000              -0.187597883              -0.308647764               0.000000000              -0.203210648              -0.332566794               0.000000000              -0.218823412              -0.356485823               0.000000000              -0.234436177              -0.380404853               0.000000000              -0.250048941              -0.404323882               0.000000000              -0.265661706              -0.428242912               0.000000000              -0.281274471              -0.452161941               0.000000000              -0.296887235              -0.476080971               0.000000000              -0.312500000              -0.500000000               0.000000000              -0.050896897              -0.122875978               0.000000000              -0.063340840              -0.146446229               0.000000000              -0.075784784              -0.170016481               0.000000000              -0.088228728              -0.193586732               0.000000000              -0.100672672              -0.217156983               0.000000000              -0.113116616              -0.240727235               0.000000000              -0.125560560              -0.264297486               0.000000000              -0.138004504              -0.287867738               0.000000000              -0.150448448              -0.311437989               0.000000000              -0.162892392              -0.335008240               0.000000000              -0.175336336              -0.358578492               0.000000000              -0.187780280              -0.382148743               0.000000000              -0.200224224              -0.405718994               0.000000000              -0.212668168              -0.429289246               0.000000000              -0.225112112              -0.452859497               0.000000000              -0.237556056              -0.476429749               0.000000000              -0.250000000              -0.500000000               0.000000000              -0.038607862              -0.127273065               0.000000000              -0.047913621              -0.150568498               0.000000000              -0.057219379              -0.173863932               0.000000000              -0.066525138              -0.197159365               0.000000000              -0.075830897              -0.220454798               0.000000000              -0.085136655              -0.243750232               0.000000000              -0.094442414              -0.267045665               0.000000000              -0.103748172              -0.290341099               0.000000000              -0.113053931              -0.313636532               0.000000000              -0.122359690              -0.336931966               0.000000000              -0.131665448              -0.360227399               0.000000000              -0.140971207              -0.383522833               0.000000000              -0.150276966              -0.406818266               0.000000000              -0.159582724              -0.430113700               0.000000000              -0.168888483              -0.453409133               0.000000000              -0.178194241              -0.476704567               0.000000000              -0.187500000              -0.500000000               0.000000000              -0.025947013              -0.130444442               0.000000000              -0.032137825              -0.153541665               0.000000000              -0.038328636              -0.176638887               0.000000000              -0.044519448              -0.199736109               0.000000000              -0.050710260              -0.222833332               0.000000000              -0.056901071              -0.245930554               0.000000000              -0.063091883              -0.269027776               0.000000000              -0.069282695              -0.292124999               0.000000000              -0.075473506              -0.315222221               0.000000000              -0.081664318              -0.338319444               0.000000000              -0.087855130              -0.361416666               0.000000000              -0.094045942              -0.384513888               0.000000000              -0.100236753              -0.407611111               0.000000000              -0.106427565              -0.430708333               0.000000000              -0.112618377              -0.453805555               0.000000000              -0.118809188              -0.476902778               0.000000000              -0.125000000              -0.500000000               0.000000000              -0.013036280              -0.132359569               0.000000000              -0.016127762              -0.155337096               0.000000000              -0.019219245              -0.178314623               0.000000000              -0.022310727              -0.201292150               0.000000000              -0.025402210              -0.224269676               0.000000000              -0.028493692              -0.247247203               0.000000000              -0.031585175              -0.270224730               0.000000000              -0.034676657              -0.293202257               0.000000000              -0.037768140              -0.316179784               0.000000000              -0.040859622              -0.339157311               0.000000000              -0.043951105              -0.362134838               0.000000000              -0.047042587              -0.385112365               0.000000000              -0.050134070              -0.408089892               0.000000000              -0.053225552              -0.431067419               0.000000000              -0.056317035              -0.454044946               0.000000000              -0.059408517              -0.477022473               0.000000000              -0.062500000              -0.500000000               0.000000000               0.000000000              -0.133000000               0.000000000               0.000000000              -0.155937500               0.000000000               0.000000000              -0.178875000               0.000000000               0.000000000              -0.201812500               0.000000000               0.000000000              -0.224750000               0.000000000               0.000000000              -0.247687500               0.000000000               0.000000000              -0.270625000               0.000000000               0.000000000              -0.293562500               0.000000000               0.000000000              -0.316500000               0.000000000               0.000000000              -0.339437500               0.000000000               0.000000000              -0.362375000               0.000000000               0.000000000              -0.385312500               0.000000000               0.000000000              -0.408250000               0.000000000               0.000000000              -0.431187500               0.000000000               0.000000000              -0.454125000               0.000000000               0.000000000              -0.477062500               0.000000000               0.000000000              -0.500000000               0.000000000              -0.133000000               0.000000000               0.000000000              -0.155937500               0.000000000               0.000000000              -0.178875000               0.000000000               0.000000000              -0.201812500               0.000000000               0.000000000              -0.224750000               0.000000000               0.000000000              -0.247687500               0.000000000               0.000000000              -0.270625000               0.000000000               0.000000000              -0.293562500               0.000000000               0.000000000              -0.316500000               0.000000000               0.000000000              -0.339437500               0.000000000               0.000000000              -0.362375000               0.000000000               0.000000000              -0.385312500               0.000000000               0.000000000              -0.408250000               0.000000000               0.000000000              -0.431187500               0.000000000               0.000000000              -0.454125000               0.000000000               0.000000000              -0.477062500               0.000000000               0.000000000              -0.500000000               0.000000000               0.000000000              -0.132359569               0.013036280               0.000000000              -0.155337096               0.016127762               0.000000000              -0.178314623               0.019219245               0.000000000              -0.201292150               0.022310727               0.000000000              -0.224269676               0.025402210               0.000000000              -0.247247203               0.028493692               0.000000000              -0.270224730               0.031585175               0.000000000              -0.293202257               0.034676657               0.000000000              -0.316179784               0.037768140               0.000000000              -0.339157311               0.040859622               0.000000000              -0.362134838               0.043951105               0.000000000              -0.385112365               0.047042587               0.000000000              -0.408089892               0.050134070               0.000000000              -0.431067419               0.053225552               0.000000000              -0.454044946               0.056317035               0.000000000              -0.477022473               0.059408517               0.000000000              -0.500000000               0.062500000               0.000000000              -0.130444442               0.025947013               0.000000000              -0.153541665               0.032137825               0.000000000              -0.176638887               0.038328636               0.000000000              -0.199736109               0.044519448               0.000000000              -0.222833332               0.050710260               0.000000000              -0.245930554               0.056901071               0.000000000              -0.269027776               0.063091883               0.000000000              -0.292124999               0.069282695               0.000000000              -0.315222221               0.075473506               0.000000000              -0.338319444               0.081664318               0.000000000              -0.361416666               0.087855130               0.000000000              -0.384513888               0.094045942               0.000000000              -0.407611111               0.100236753               0.000000000              -0.430708333               0.106427565               0.000000000              -0.453805555               0.112618377               0.000000000              -0.476902778               0.118809188               0.000000000              -0.500000000               0.125000000               0.000000000              -0.127273065               0.038607862               0.000000000              -0.150568498               0.047913621               0.000000000              -0.173863932               0.057219379               0.000000000              -0.197159365               0.066525138               0.000000000              -0.220454798               0.075830897               0.000000000              -0.243750232               0.085136655               0.000000000              -0.267045665               0.094442414               0.000000000              -0.290341099               0.103748172               0.000000000              -0.313636532               0.113053931               0.000000000              -0.336931966               0.122359690               0.000000000              -0.360227399               0.131665448               0.000000000              -0.383522833               0.140971207               0.000000000              -0.406818266               0.150276966               0.000000000              -0.430113700               0.159582724               0.000000000              -0.453409133               0.168888483               0.000000000              -0.476704567               0.178194241               0.000000000              -0.500000000               0.187500000               0.000000000              -0.122875978               0.050896897               0.000000000              -0.146446229               0.063340840               0.000000000              -0.170016481               0.075784784               0.000000000              -0.193586732               0.088228728               0.000000000              -0.217156983               0.100672672               0.000000000              -0.240727235               0.113116616               0.000000000              -0.264297486               0.125560560               0.000000000              -0.287867738               0.138004504               0.000000000              -0.311437989               0.150448448               0.000000000              -0.335008240               0.162892392               0.000000000              -0.358578492               0.175336336               0.000000000              -0.382148743               0.187780280               0.000000000              -0.405718994               0.200224224               0.000000000              -0.429289246               0.212668168               0.000000000              -0.452859497               0.225112112               0.000000000              -0.476429749               0.237556056               0.000000000              -0.500000000               0.250000000               0.000000000              -0.117295528               0.062695766               0.000000000              -0.141214558               0.078308531               0.000000000              -0.165133587               0.093921295               0.000000000              -0.189052617               0.109534060               0.000000000              -0.212971646               0.125146824               0.000000000              -0.236890676               0.140759589               0.000000000              -0.260809705               0.156372354               0.000000000              -0.284728735               0.171985118               0.000000000              -0.308647764               0.187597883               0.000000000              -0.332566794               0.203210648               0.000000000              -0.356485823               0.218823412               0.000000000              -0.380404853               0.234436177               0.000000000              -0.404323882               0.250048941               0.000000000              -0.428242912               0.265661706               0.000000000              -0.452161941               0.281274471               0.000000000              -0.476080971               0.296887235               0.000000000              -0.500000000               0.312500000               0.000000000              -0.110585458               0.073890841               0.000000000              -0.134923867               0.092710163               0.000000000              -0.159262276               0.111529486               0.000000000              -0.183600685               0.130348808               0.000000000              -0.207939094               0.149168131               0.000000000              -0.232277503               0.167987453               0.000000000              -0.256615912               0.186806776               0.000000000              -0.280954320               0.205626098               0.000000000              -0.305292729               0.224445420               0.000000000              -0.329631138               0.243264743               0.000000000              -0.353969547               0.262084065               0.000000000              -0.378307956               0.280903388               0.000000000              -0.402646365               0.299722710               0.000000000              -0.426984773               0.318542033               0.000000000              -0.451323182               0.337361355               0.000000000              -0.475661591               0.356180678               0.000000000              -0.500000000               0.375000000               0.000000000              -0.102810390               0.084374307               0.000000000              -0.127634741               0.106444663               0.000000000              -0.152459092               0.128515018               0.000000000              -0.177283442               0.150585374               0.000000000              -0.202107793               0.172655730               0.000000000              -0.226932143               0.194726086               0.000000000              -0.251756494               0.216796442               0.000000000              -0.276580845               0.238866798               0.000000000              -0.301405195               0.260937153               0.000000000              -0.326229546               0.283007509               0.000000000              -0.351053896               0.305077865               0.000000000              -0.375878247               0.327148221               0.000000000              -0.400702598               0.349218577               0.000000000              -0.425526948               0.371288933               0.000000000              -0.450351299               0.393359288               0.000000000              -0.475175649               0.415429644               0.000000000              -0.500000000               0.437500000               0.000000000              -0.094045202               0.094045202               0.000000000              -0.119417377               0.119417377               0.000000000              -0.144789552               0.144789552               0.000000000              -0.170161727               0.170161727               0.000000000              -0.195533901               0.195533901               0.000000000              -0.220906076               0.220906076               0.000000000              -0.246278251               0.246278251               0.000000000              -0.271650426               0.271650426               0.000000000              -0.297022601               0.297022601               0.000000000              -0.322394776               0.322394776               0.000000000              -0.347766951               0.347766951               0.000000000              -0.373139126               0.373139126               0.000000000              -0.398511300               0.398511300               0.000000000              -0.423883475               0.423883475               0.000000000              -0.449255650               0.449255650               0.000000000              -0.474627825               0.474627825               0.000000000              -0.500000000               0.500000000               0.000000000              -0.084374307               0.102810390               0.000000000              -0.106444663               0.127634741               0.000000000              -0.128515018               0.152459092               0.000000000              -0.150585374               0.177283442               0.000000000              -0.172655730               0.202107793               0.000000000              -0.194726086               0.226932143               0.000000000              -0.216796442               0.251756494               0.000000000              -0.238866798               0.276580845               0.000000000              -0.260937153               0.301405195               0.000000000              -0.283007509               0.326229546               0.000000000              -0.305077865               0.351053896               0.000000000              -0.327148221               0.375878247               0.000000000              -0.349218577               0.400702598               0.000000000              -0.371288933               0.425526948               0.000000000              -0.393359288               0.450351299               0.000000000              -0.415429644               0.475175649               0.000000000              -0.437500000               0.500000000               0.000000000              -0.073890841               0.110585458               0.000000000              -0.092710163               0.134923867               0.000000000              -0.111529486               0.159262276               0.000000000              -0.130348808               0.183600685               0.000000000              -0.149168131               0.207939094               0.000000000              -0.167987453               0.232277503               0.000000000              -0.186806776               0.256615912               0.000000000              -0.205626098               0.280954320               0.000000000              -0.224445420               0.305292729               0.000000000              -0.243264743               0.329631138               0.000000000              -0.262084065               0.353969547               0.000000000              -0.280903388               0.378307956               0.000000000              -0.299722710               0.402646365               0.000000000              -0.318542033               0.426984773               0.000000000              -0.337361355               0.451323182               0.000000000              -0.356180678               0.475661591               0.000000000              -0.375000000               0.500000000               0.000000000              -0.062695766               0.117295528               0.000000000              -0.078308531               0.141214558               0.000000000              -0.093921295               0.165133587               0.000000000              -0.109534060               0.189052617               0.000000000              -0.125146824               0.212971646               0.000000000              -0.140759589               0.236890676               0.000000000              -0.156372354               0.260809705               0.000000000              -0.171985118               0.284728735               0.000000000              -0.187597883               0.308647764               0.000000000              -0.203210648               0.332566794               0.000000000              -0.218823412               0.356485823               0.000000000              -0.234436177               0.380404853               0.000000000              -0.250048941               0.404323882               0.000000000              -0.265661706               0.428242912               0.000000000              -0.281274471               0.452161941               0.000000000              -0.296887235               0.476080971               0.000000000              -0.312500000               0.500000000               0.000000000              -0.050896897               0.122875978               0.000000000              -0.063340840               0.146446229               0.000000000              -0.075784784               0.170016481               0.000000000              -0.088228728               0.193586732               0.000000000              -0.100672672               0.217156983               0.000000000              -0.113116616               0.240727235               0.000000000              -0.125560560               0.264297486               0.000000000              -0.138004504               0.287867738               0.000000000              -0.150448448               0.311437989               0.000000000              -0.162892392               0.335008240               0.000000000              -0.175336336               0.358578492               0.000000000              -0.187780280               0.382148743               0.000000000              -0.200224224               0.405718994               0.000000000              -0.212668168               0.429289246               0.000000000              -0.225112112               0.452859497               0.000000000              -0.237556056               0.476429749               0.000000000              -0.250000000               0.500000000               0.000000000              -0.038607862               0.127273065               0.000000000              -0.047913621               0.150568498               0.000000000              -0.057219379               0.173863932               0.000000000              -0.066525138               0.197159365               0.000000000              -0.075830897               0.220454798               0.000000000              -0.085136655               0.243750232               0.000000000              -0.094442414               0.267045665               0.000000000              -0.103748172               0.290341099               0.000000000              -0.113053931               0.313636532               0.000000000              -0.122359690               0.336931966               0.000000000              -0.131665448               0.360227399               0.000000000              -0.140971207               0.383522833               0.000000000              -0.150276966               0.406818266               0.000000000              -0.159582724               0.430113700               0.000000000              -0.168888483               0.453409133               0.000000000              -0.178194241               0.476704567               0.000000000              -0.187500000               0.500000000               0.000000000              -0.025947013               0.130444442               0.000000000              -0.032137825               0.153541665               0.000000000              -0.038328636               0.176638887               0.000000000              -0.044519448               0.199736109               0.000000000              -0.050710260               0.222833332               0.000000000              -0.056901071               0.245930554               0.000000000              -0.063091883               0.269027776               0.000000000              -0.069282695               0.292124999               0.000000000              -0.075473506               0.315222221               0.000000000              -0.081664318               0.338319444               0.000000000              -0.087855130               0.361416666               0.000000000              -0.094045942               0.384513888               0.000000000              -0.100236753               0.407611111               0.000000000              -0.106427565               0.430708333               0.000000000              -0.112618377               0.453805555               0.000000000              -0.118809188               0.476902778               0.000000000              -0.125000000               0.500000000               0.000000000              -0.013036280               0.132359569               0.000000000              -0.016127762               0.155337096               0.000000000              -0.019219245               0.178314623               0.000000000              -0.022310727               0.201292150               0.000000000              -0.025402210               0.224269676               0.000000000              -0.028493692               0.247247203               0.000000000              -0.031585175               0.270224730               0.000000000              -0.034676657               0.293202257               0.000000000              -0.037768140               0.316179784               0.000000000              -0.040859622               0.339157311               0.000000000              -0.043951105               0.362134838               0.000000000              -0.047042587               0.385112365               0.000000000              -0.050134070               0.408089892               0.000000000              -0.053225552               0.431067419               0.000000000              -0.056317035               0.454044946               0.000000000              -0.059408517               0.477022473               0.000000000              -0.062500000               0.500000000               0.000000000               0.000000000               0.133000000               0.000000000               0.000000000               0.155937500               0.000000000               0.000000000               0.178875000               0.000000000               0.000000000               0.201812500               0.000000000               0.000000000               0.224750000               0.000000000               0.000000000               0.247687500               0.000000000               0.000000000               0.270625000               0.000000000               0.000000000               0.293562500               0.000000000               0.000000000               0.316500000               0.000000000               0.000000000               0.339437500               0.000000000               0.000000000               0.362375000               0.000000000               0.000000000               0.385312500               0.000000000               0.000000000               0.408250000               0.000000000               0.000000000               0.431187500               0.000000000               0.000000000               0.454125000               0.000000000               0.000000000               0.477062500               0.000000000               0.000000000               0.500000000               0.000000000 </DataArray>
</Points>
<Cells>
<DataArray type="Int32"                                    Name="connectivity"                                                      NumberOfComponents=" 1" format="ascii">
         0          1         18         17          1          2         19         18          2          3         20         19          3          4         21         20          4          5         22         21          5          6         23         22          6          7         24         23          7          8         25         24          8          9         26         25          9         10         27         26         10         11         28         27         11         12         29         28         12         13         30         29         13         14         31         30         14         15         32         31         15         16         33         32         17         18         35         34         18         19         36         35         19         20         37         36         20         21         38         37         21         22         39         38         22         23         40         39         23         24         41         40         24         25         42         41         25         26         43         42         26         27         44         43         27         28         45         44         28         29         46         45         29         30         47         46         30         31         48         47         31         32         49         48         32         33         50         49         34         35         52         51         35         36         53         52         36         37         54         53         37         38         55         54         38         39         56         55         39         40         57         56         40         41         58         57         41         42         59         58         42         43         60         59         43         44         61         60         44         45         62         61         45         46         63         62         46         47         64         63         47         48         65         64         48         49         66         65         49         50         67         66         51         52         69         68         52         53         70         69         53         54         71         70         54         55         72         71         55         56         73         72         56         57         74         73         57         58         75         74         58         59         76         75         59         60         77         76         60         61         78         77         61         62         79         78         62         63         80         79         63         64         81         80         64         65         82         81         65         66         83         82         66         67         84         83         68         69         86         85         69         70         87         86         70         71         88         87         71         72         89         88         72         73         90         89         73         74         91         90         74         75         92         91         75         76         93         92         76         77         94         93         77         78         95         94         78         79         96         95         79         80         97         96         80         81         98         97         81         82         99         98         82         83        100         99         83         84        101        100         85         86        103        102         86         87        104        103         87         88        105        104         88         89        106        105         89         90        107        106         90         91        108        107         91         92        109        108         92         93        110        109         93         94        111        110         94         95        112        111         95         96        113        112         96         97        114        113         97         98        115        114         98         99        116        115         99        100        117        116        100        101        118        117        102        103        120        119        103        104        121        120        104        105        122        121        105        106        123        122        106        107        124        123        107        108        125        124        108        109        126        125        109        110        127        126        110        111        128        127        111        112        129        128        112        113        130        129        113        114        131        130        114        115        132        131        115        116        133        132        116        117        134        133        117        118        135        134        119        120        137        136        120        121        138        137        121        122        139        138        122        123        140        139        123        124        141        140        124        125        142        141        125        126        143        142        126        127        144        143        127        128        145        144        128        129        146        145        129        130        147        146        130        131        148        147        131        132        149        148        132        133        150        149        133        134        151        150        134        135        152        151        136        137        154        153        137        138        155        154        138        139        156        155        139        140        157        156        140        141        158        157        141        142        159        158        142        143        160        159        143        144        161        160        144        145        162        161        145        146        163        162        146        147        164        163        147        148        165        164        148        149        166        165        149        150        167        166        150        151        168        167        151        152        169        168        153        154        171        170        154        155        172        171        155        156        173        172        156        157        174        173        157        158        175        174        158        159        176        175        159        160        177        176        160        161        178        177        161        162        179        178        162        163        180        179        163        164        181        180        164        165        182        181        165        166        183        182        166        167        184        183        167        168        185        184        168        169        186        185        170        171        188        187        171        172        189        188        172        173        190        189        173        174        191        190        174        175        192        191        175        176        193        192        176        177        194        193        177        178        195        194        178        179        196        195        179        180        197        196        180        181        198        197        181        182        199        198        182        183        200        199        183        184        201        200        184        185        202        201        185        186        203        202        187        188        205        204        188        189        206        205        189        190        207        206        190        191        208        207        191        192        209        208        192        193        210        209        193        194        211        210        194        195        212        211        195        196        213        212        196        197        214        213        197        198        215        214        198        199        216        215        199        200        217        216        200        201        218        217        201        202        219        218        202        203        220        219        204        205        222        221        205        206        223        222        206        207        224        223        207        208        225        224        208        209        226        225        209        210        227        226        210        211        228        227        211        212        229        228        212        213        230        229        213        214        231        230        214        215        232        231        215        216        233        232        216        217        234        233        217        218        235        234        218        219        236        235        219        220        237        236        221        222        239        238        222        223        240        239        223        224        241        240        224        225        242        241        225        226        243        242        226        227        244        243        227        228        245        244        228        229        246        245        229        230        247        246        230        231        248        247        231        232        249        248        232        233        250        249        233        234        251        250        234        235        252        251        235        236        253        252        236        237        254        253        238        239        256        255        239        240        257        256        240        241        258        257        241        242        259        258        242        243        260        259        243        244        261        260        244        245        262        261        245        246        263        262        246        247        264        263        247        248        265        264        248        249        266        265        249        250        267        266        250        251        268        267        251        252        269        268        252        253        270        269        253        254        271        270        255        256        273        272        256        257        274        273        257        258        275        274        258        259        276        275        259        260        277        276        260        261        278        277        261        262        279        278        262        263        280        279        263        264        281        280        264        265        282        281        265        266        283        282        266        267        284        283        267        268        285        284        268        269        286        285        269        270        287        286        270        271        288        287        306        307          1          0        307        308          2          1        308        309          3          2        309        310          4          3        310        311          5          4        311        312          6          5        312        313          7          6        313        314          8          7        314        315          9          8        315        316         10          9        316        317         11         10        317        318         12         11        318        319         13         12        319        320         14         13        320        321         15         14        321        322         16         15        323        324        307        306        324        325        308        307        325        326        309        308        326        327        310        309        327        328        311        310        328        329        312        311        329        330        313        312        330        331        314        313        331        332        315        314        332        333        316        315        333        334        317        316        334        335        318        317        335        336        319        318        336        337        320        319        337        338        321        320        338        339        322        321        340        341        324        323        341        342        325        324        342        343        326        325        343        344        327        326        344        345        328        327        345        346        329        328        346        347        330        329        347        348        331        330        348        349        332        331        349        350        333        332        350        351        334        333        351        352        335        334        352        353        336        335        353        354        337        336        354        355        338        337        355        356        339        338        357        358        341        340        358        359        342        341        359        360        343        342        360        361        344        343        361        362        345        344        362        363        346        345        363        364        347        346        364        365        348        347        365        366        349        348        366        367        350        349        367        368        351        350        368        369        352        351        369        370        353        352        370        371        354        353        371        372        355        354        372        373        356        355        374        375        358        357        375        376        359        358        376        377        360        359        377        378        361        360        378        379        362        361        379        380        363        362        380        381        364        363        381        382        365        364        382        383        366        365        383        384        367        366        384        385        368        367        385        386        369        368        386        387        370        369        387        388        371        370        388        389        372        371        389        390        373        372        391        392        375        374        392        393        376        375        393        394        377        376        394        395        378        377        395        396        379        378        396        397        380        379        397        398        381        380        398        399        382        381        399        400        383        382        400        401        384        383        401        402        385        384        402        403        386        385        403        404        387        386        404        405        388        387        405        406        389        388        406        407        390        389        408        409        392        391        409        410        393        392        410        411        394        393        411        412        395        394        412        413        396        395        413        414        397        396        414        415        398        397        415        416        399        398        416        417        400        399        417        418        401        400        418        419        402        401        419        420        403        402        420        421        404        403        421        422        405        404        422        423        406        405        423        424        407        406        425        426        409        408        426        427        410        409        427        428        411        410        428        429        412        411        429        430        413        412        430        431        414        413        431        432        415        414        432        433        416        415        433        434        417        416        434        435        418        417        435        436        419        418        436        437        420        419        437        438        421        420        438        439        422        421        439        440        423        422        440        441        424        423        442        443        426        425        443        444        427        426        444        445        428        427        445        446        429        428        446        447        430        429        447        448        431        430        448        449        432        431        449        450        433        432        450        451        434        433        451        452        435        434        452        453        436        435        453        454        437        436        454        455        438        437        455        456        439        438        456        457        440        439        457        458        441        440        459        460        443        442        460        461        444        443        461        462        445        444        462        463        446        445        463        464        447        446        464        465        448        447        465        466        449        448        466        467        450        449        467        468        451        450        468        469        452        451        469        470        453        452        470        471        454        453        471        472        455        454        472        473        456        455        473        474        457        456        474        475        458        457        476        477        460        459        477        478        461        460        478        479        462        461        479        480        463        462        480        481        464        463        481        482        465        464        482        483        466        465        483        484        467        466        484        485        468        467        485        486        469        468        486        487        470        469        487        488        471        470        488        489        472        471        489        490        473        472        490        491        474        473        491        492        475        474        493        494        477        476        494        495        478        477        495        496        479        478        496        497        480        479        497        498        481        480        498        499        482        481        499        500        483        482        500        501        484        483        501        502        485        484        502        503        486        485        503        504        487        486        504        505        488        487        505        506        489        488        506        507        490        489        507        508        491        490        508        509        492        491        510        511        494        493        511        512        495        494        512        513        496        495        513        514        497        496        514        515        498        497        515        516        499        498        516        517        500        499        517        518        501        500        518        519        502        501        519        520        503        502        520        521        504        503        521        522        505        504        522        523        506        505        523        524        507        506        524        525        508        507        525        526        509        508        527        528        511        510        528        529        512        511        529        530        513        512        530        531        514        513        531        532        515        514        532        533        516        515        533        534        517        516        534        535        518        517        535        536        519        518        536        537        520        519        537        538        521        520        538        539        522        521        539        540        523        522        540        541        524        523        541        542        525        524        542        543        526        525        544        545        528        527        545        546        529        528        546        547        530        529        547        548        531        530        548        549        532        531        549        550        533        532        550        551        534        533        551        552        535        534        552        553        536        535        553        554        537        536        554        555        538        537        555        556        539        538        556        557        540        539        557        558        541        540        558        559        542        541        559        560        543        542        561        562        545        544        562        563        546        545        563        564        547        546        564        565        548        547        565        566        549        548        566        567        550        549        567        568        551        550        568        569        552        551        569        570        553        552        570        571        554        553        571        572        555        554        572        573        556        555        573        574        557        556        574        575        558        557        575        576        559        558        576        577        560        559        578        579        596        595        579        580        597        596        580        581        598        597        581        582        599        598        582        583        600        599        583        584        601        600        584        585        602        601        585        586        603        602        586        587        604        603        587        588        605        604        588        589        606        605        589        590        607        606        590        591        608        607        591        592        609        608        592        593        610        609        593        594        611        610        595        596        613        612        596        597        614        613        597        598        615        614        598        599        616        615        599        600        617        616        600        601        618        617        601        602        619        618        602        603        620        619        603        604        621        620        604        605        622        621        605        606        623        622        606        607        624        623        607        608        625        624        608        609        626        625        609        610        627        626        610        611        628        627        612        613        630        629        613        614        631        630        614        615        632        631        615        616        633        632        616        617        634        633        617        618        635        634        618        619        636        635        619        620        637        636        620        621        638        637        621        622        639        638        622        623        640        639        623        624        641        640        624        625        642        641        625        626        643        642        626        627        644        643        627        628        645        644        629        630        647        646        630        631        648        647        631        632        649        648        632        633        650        649        633        634        651        650        634        635        652        651        635        636        653        652        636        637        654        653        637        638        655        654        638        639        656        655        639        640        657        656        640        641        658        657        641        642        659        658        642        643        660        659        643        644        661        660        644        645        662        661        646        647        664        663        647        648        665        664        648        649        666        665        649        650        667        666        650        651        668        667        651        652        669        668        652        653        670        669        653        654        671        670        654        655        672        671        655        656        673        672        656        657        674        673        657        658        675        674        658        659        676        675        659        660        677        676        660        661        678        677        661        662        679        678        663        664        681        680        664        665        682        681        665        666        683        682        666        667        684        683        667        668        685        684        668        669        686        685        669        670        687        686        670        671        688        687        671        672        689        688        672        673        690        689        673        674        691        690        674        675        692        691        675        676        693        692        676        677        694        693        677        678        695        694        678        679        696        695        680        681        698        697        681        682        699        698        682        683        700        699        683        684        701        700        684        685        702        701        685        686        703        702        686        687        704        703        687        688        705        704        688        689        706        705        689        690        707        706        690        691        708        707        691        692        709        708        692        693        710        709        693        694        711        710        694        695        712        711        695        696        713        712        697        698        715        714        698        699        716        715        699        700        717        716        700        701        718        717        701        702        719        718        702        703        720        719        703        704        721        720        704        705        722        721        705        706        723        722        706        707        724        723        707        708        725        724        708        709        726        725        709        710        727        726        710        711        728        727        711        712        729        728        712        713        730        729        714        715        732        731        715        716        733        732        716        717        734        733        717        718        735        734        718        719        736        735        719        720        737        736        720        721        738        737        721        722        739        738        722        723        740        739        723        724        741        740        724        725        742        741        725        726        743        742        726        727        744        743        727        728        745        744        728        729        746        745        729        730        747        746        731        732        749        748        732        733        750        749        733        734        751        750        734        735        752        751        735        736        753        752        736        737        754        753        737        738        755        754        738        739        756        755        739        740        757        756        740        741        758        757        741        742        759        758        742        743        760        759        743        744        761        760        744        745        762        761        745        746        763        762        746        747        764        763        748        749        766        765        749        750        767        766        750        751        768        767        751        752        769        768        752        753        770        769        753        754        771        770        754        755        772        771        755        756        773        772        756        757        774        773        757        758        775        774        758        759        776        775        759        760        777        776        760        761        778        777        761        762        779        778        762        763        780        779        763        764        781        780        765        766        783        782        766        767        784        783        767        768        785        784        768        769        786        785        769        770        787        786        770        771        788        787        771        772        789        788        772        773        790        789        773        774        791        790        774        775        792        791        775        776        793        792        776        777        794        793        777        778        795        794        778        779        796        795        779        780        797        796        780        781        798        797        782        783        800        799        783        784        801        800        784        785        802        801        785        786        803        802        786        787        804        803        787        788        805        804        788        789        806        805        789        790        807        806        790        791        808        807        791        792        809        808        792        793        810        809        793        794        811        810        794        795        812        811        795        796        813        812        796        797        814        813        797        798        815        814        799        800        817        816        800        801        818        817        801        802        819        818        802        803        820        819        803        804        821        820        804        805        822        821        805        806        823        822        806        807        824        823        807        808        825        824        808        809        826        825        809        810        827        826        810        811        828        827        811        812        829        828        812        813        830        829        813        814        831        830        814        815        832        831        816        817        834        833        817        818        835        834        818        819        836        835        819        820        837        836        820        821        838        837        821        822        839        838        822        823        840        839        823        824        841        840        824        825        842        841        825        826        843        842        826        827        844        843        827        828        845        844        828        829        846        845        829        830        847        846        830        831        848        847        831        832        849        848        833        834        562        561        834        835        563        562        835        836        564        563        836        837        565        564        837        838        566        565        838        839        567        566        839        840        568        567        840        841        569        568        841        842        570        569        842        843        571        570        843        844        572        571        844        845        573        572        845        846        574        573        846        847        575        574        847        848        576        575        848        849        577        576        884        885        579        578        885        886        580        579        886        887        581        580        887        888        582        581        888        889        583        582        889        890        584        583        890        891        585        584        891        892        586        585        892        893        587        586        893        894        588        587        894        895        589        588        895        896        590        589        896        897        591        590        897        898        592        591        898        899        593        592        899        900        594        593        901        902        885        884        902        903        886        885        903        904        887        886        904        905        888        887        905        906        889        888        906        907        890        889        907        908        891        890        908        909        892        891        909        910        893        892        910        911        894        893        911        912        895        894        912        913        896        895        913        914        897        896        914        915        898        897        915        916        899        898        916        917        900        899        918        919        902        901        919        920        903        902        920        921        904        903        921        922        905        904        922        923        906        905        923        924        907        906        924        925        908        907        925        926        909        908        926        927        910        909        927        928        911        910        928        929        912        911        929        930        913        912        930        931        914        913        931        932        915        914        932        933        916        915        933        934        917        916        935        936        919        918        936        937        920        919        937        938        921        920        938        939        922        921        939        940        923        922        940        941        924        923        941        942        925        924        942        943        926        925        943        944        927        926        944        945        928        927        945        946        929        928        946        947        930        929        947        948        931        930        948        949        932        931        949        950        933        932        950        951        934        933        952        953        936        935        953        954        937        936        954        955        938        937        955        956        939        938        956        957        940        939        957        958        941        940        958        959        942        941        959        960        943        942        960        961        944        943        961        962        945        944        962        963        946        945        963        964        947        946        964        965        948        947        965        966        949        948        966        967        950        949        967        968        951        950        969        970        953        952        970        971        954        953        971        972        955        954        972        973        956        955        973        974        957        956        974        975        958        957        975        976        959        958        976        977        960        959        977        978        961        960        978        979        962        961        979        980        963        962        980        981        964        963        981        982        965        964        982        983        966        965        983        984        967        966        984        985        968        967        986        987        970        969        987        988        971        970        988        989        972        971        989        990        973        972        990        991        974        973        991        992        975        974        992        993        976        975        993        994        977        976        994        995        978        977        995        996        979        978        996        997        980        979        997        998        981        980        998        999        982        981        999       1000        983        982       1000       1001        984        983       1001       1002        985        984       1003       1004        987        986       1004       1005        988        987       1005       1006        989        988       1006       1007        990        989       1007       1008        991        990       1008       1009        992        991       1009       1010        993        992       1010       1011        994        993       1011       1012        995        994       1012       1013        996        995       1013       1014        997        996       1014       1015        998        997       1015       1016        999        998       1016       1017       1000        999       1017       1018       1001       1000       1018       1019       1002       1001       1020       1021       1004       1003       1021       1022       1005       1004       1022       1023       1006       1005       1023       1024       1007       1006       1024       1025       1008       1007       1025       1026       1009       1008       1026       1027       1010       1009       1027       1028       1011       1010       1028       1029       1012       1011       1029       1030       1013       1012       1030       1031       1014       1013       1031       1032       1015       1014       1032       1033       1016       1015       1033       1034       1017       1016       1034       1035       1018       1017       1035       1036       1019       1018       1037       1038       1021       1020       1038       1039       1022       1021       1039       1040       1023       1022       1040       1041       1024       1023       1041       1042       1025       1024       1042       1043       1026       1025       1043       1044       1027       1026       1044       1045       1028       1027       1045       1046       1029       1028       1046       1047       1030       1029       1047       1048       1031       1030       1048       1049       1032       1031       1049       1050       1033       1032       1050       1051       1034       1033       1051       1052       1035       1034       1052       1053       1036       1035       1054       1055       1038       1037       1055       1056       1039       1038       1056       1057       1040       1039       1057       1058       1041       1040       1058       1059       1042       1041       1059       1060       1043       1042       1060       1061       1044       1043       1061       1062       1045       1044       1062       1063       1046       1045       1063       1064       1047       1046       1064       1065       1048       1047       1065       1066       1049       1048       1066       1067       1050       1049       1067       1068       1051       1050       1068       1069       1052       1051       1069       1070       1053       1052       1071       1072       1055       1054       1072       1073       1056       1055       1073       1074       1057       1056       1074       1075       1058       1057       1075       1076       1059       1058       1076       1077       1060       1059       1077       1078       1061       1060       1078       1079       1062       1061       1079       1080       1063       1062       1080       1081       1064       1063       1081       1082       1065       1064       1082       1083       1066       1065       1083       1084       1067       1066       1084       1085       1068       1067       1085       1086       1069       1068       1086       1087       1070       1069       1088       1089       1072       1071       1089       1090       1073       1072       1090       1091       1074       1073       1091       1092       1075       1074       1092       1093       1076       1075       1093       1094       1077       1076       1094       1095       1078       1077       1095       1096       1079       1078       1096       1097       1080       1079       1097       1098       1081       1080       1098       1099       1082       1081       1099       1100       1083       1082       1100       1101       1084       1083       1101       1102       1085       1084       1102       1103       1086       1085       1103       1104       1087       1086       1105       1106       1089       1088       1106       1107       1090       1089       1107       1108       1091       1090       1108       1109       1092       1091       1109       1110       1093       1092       1110       1111       1094       1093       1111       1112       1095       1094       1112       1113       1096       1095       1113       1114       1097       1096       1114       1115       1098       1097       1115       1116       1099       1098       1116       1117       1100       1099       1117       1118       1101       1100       1118       1119       1102       1101       1119       1120       1103       1102       1120       1121       1104       1103       1122       1123       1106       1105       1123       1124       1107       1106       1124       1125       1108       1107       1125       1126       1109       1108       1126       1127       1110       1109       1127       1128       1111       1110       1128       1129       1112       1111       1129       1130       1113       1112       1130       1131       1114       1113       1131       1132       1115       1114       1132       1133       1116       1115       1133       1134       1117       1116       1134       1135       1118       1117       1135       1136       1119       1118       1136       1137       1120       1119       1137       1138       1121       1120        272        273       1123       1122        273        274       1124       1123        274        275       1125       1124        275        276       1126       1125        276        277       1127       1126        277        278       1128       1127        278        279       1129       1128        279        280       1130       1129        280        281       1131       1130        281        282       1132       1131        282        283       1133       1132        283        284       1134       1133        284        285       1135       1134        285        286       1136       1135        286        287       1137       1136        287        288       1138       1137 </DataArray>
<DataArray type="Int32"                                    Name="offsets"                                                      NumberOfComponents=" 1" format="ascii">
         4          8         12         16         20         24         28         32         36         40         44         48         52         56         60         64         68         72         76         80         84         88         92         96        100        104        108        112        116        120        124        128        132        136        140        144        148        152        156        160        164        168        172        176        180        184        188        192        196        200        204        208        212        216        220        224        228        232        236        240        244        248        252        256        260        264        268        272        276        280        284        288        292        296        300        304        308        312        316        320        324        328        332        336        340        344        348        352        356        360        364        368        372        376        380        384        388        392        396        400        404        408        412        416        420        424        428        432        436        440        444        448        452        456        460        464        468        472        476        480        484        488        492        496        500        504        508        512        516        520        524        528        532        536        540        544        548        552        556        560        564        568        572        576        580        584        588        592        596        600        604        608        612        616        620        624        628        632        636        640        644        648        652        656        660        664        668        672        676        680        684        688        692        696        700        704        708        712        716        720        724        728        732        736        740        744        748        752        756        760        764        768        772        776        780        784        788        792        796        800        804        808        812        816        820        824        828        832        836        840        844        848        852        856        860        864        868        872        876        880        884        888        892        896        900        904        908        912        916        920        924        928        932        936        940        944        948        952        956        960        964        968        972        976        980        984        988        992        996       1000       1004       1008       1012       1016       1020       1024       1028       1032       1036       1040       1044       1048       1052       1056       1060       1064       1068       1072       1076       1080       1084       1088       1092       1096       1100       1104       1108       1112       1116       1120       1124       1128       1132       1136       1140       1144       1148       1152       1156       1160       1164       1168       1172       1176       1180       1184       1188       1192       1196       1200       1204       1208       1212       1216       1220       1224       1228       1232       1236       1240       1244       1248       1252       1256       1260       1264       1268       1272       1276       1280       1284       1288       1292       1296       1300       1304       1308       1312       1316       1320       1324       1328       1332       1336       1340       1344       1348       1352       1356       1360       1364       1368       1372       1376       1380       1384       1388       1392       1396       1400       1404       1408       1412       1416       1420       1424       1428       1432       1436       1440       1444       1448       1452       1456       1460       1464       1468       1472       1476       1480       1484       1488       1492       1496       1500       1504       1508       1512       1516       1520       1524       1528       1532       1536       1540       1544       1548       1552       1556       1560       1564       1568       1572       1576       1580       1584       1588       1592       1596       1600       1604       1608       1612       1616       1620       1624       1628       1632       1636       1640       1644       1648       1652       1656       1660       1664       1668       1672       1676       1680       1684       1688       1692       1696       1700       1704       1708       1712       1716       1720       1724       1728       1732       1736       1740       1744       1748       1752       1756       1760       1764       1768       1772       1776       1780       1784       1788       1792       1796       1800       1804       1808       1812       1816       1820       1824       1828       1832       1836       1840       1844       1848       1852       1856       1860       1864       1868       1872       1876       1880       1884       1888       1892       1896       1900       1904       1908       1912       1916       1920       1924       1928       1932       1936       1940       1944       1948       1952       1956       1960       1964       1968       1972       1976       1980       1984       1988       1992       1996       2000       2004       2008       2012       2016       2020       2024       2028       2032       2036       2040       2044       2048       2052       2056       2060       2064       2068       2072       2076       2080       2084       2088       2092       2096       2100       2104       2108       2112       2116       2120       2124       2128       2132       2136       2140       2144       2148       2152       2156       2160       2164       2168       2172       2176       2180       2184       2188       2192       2196       2200       2204       2208       2212       2216       2220       2224       2228       2232       2236       2240       2244       2248       2252       2256       2260       2264       2268       2272       2276       2280       2284       2288       2292       2296       2300       2304       2308       2312       2316       2320       2324       2328       2332       2336       2340       2344       2348       2352       2356       2360       2364       2368       2372       2376       2380       2384       2388       2392       2396       2400       2404       2408       2412       2416       2420       2424       2428       2432       2436       2440       2444       2448       2452       2456       2460       2464       2468       2472       2476       2480       2484       2488       2492       2496       2500       2504       2508       2512       2516       2520       2524       2528       2532       2536       2540       2544       2548       2552       2556       2560       2564       2568       2572       2576       2580       2584       2588       2592       2596       2600       2604       2608       2612       2616       2620       2624       2628       2632       2636       2640       2644       2648       2652       2656       2660       2664       2668       2672       2676       2680       2684       2688       2692       2696       2700       2704       2708       2712       2716       2720       2724       2728       2732       2736       2740       2744       2748       2752       2756       2760       2764       2768       2772       2776       2780       2784       2788       2792       2796       2800       2804       2808       2812       2816       2820       2824       2828       2832       2836       2840       2844       2848       2852       2856       2860       2864       2868       2872       2876       2880       2884       2888       2892       2896       2900       2904       2908       2912       2916       2920       2924       2928       2932       2936       2940       2944       2948       2952       2956       2960       2964       2968       2972       2976       2980       2984       2988       2992       2996       3000       3004       3008       3012       3016       3020       3024       3028       3032       3036       3040       3044       3048       3052       3056       3060       3064       3068       3072       3076       3080       3084       3088       3092       3096       3100       3104       3108       3112       3116       3120       3124       3128       3132       3136       3140       3144       3148       3152       3156       3160       3164       3168       3172       3176       3180       3184       3188       3192       3196       3200       3204       3208       3212       3216       3220       3224       3228       3232       3236       3240       3244       3248       3252       3256       3260       3264       3268       3272       3276       3280       3284       3288       3292       3296       3300       3304       3308       3312       3316       3320       3324       3328       3332       3336       3340       3344       3348       3352       3356       3360       3364       3368       3372       3376       3380       3384       3388       3392       3396       3400       3404       3408       3412       3416       3420       3424       3428       3432       3436       3440       3444       3448       3452       3456       3460       3464       3468       3472       3476       3480       3484       3488       3492       3496       3500       3504       3508       3512       3516       3520       3524       3528       3532       3536       3540       3544       3548       3552       3556       3560       3564       3568       3572       3576       3580       3584       3588       3592       3596       3600       3604       3608       3612       3616       3620       3624       3628       3632       3636       3640       3644       3648       3652       3656       3660       3664       3668       3672       3676       3680       3684       3688       3692       3696       3700       3704       3708       3712       3716       3720       3724       3728       3732       3736       3740       3744       3748       3752       3756       3760       3764       3768       3772       3776       3780       3784       3788       3792       3796       3800       3804       3808       3812       3816       3820       3824       3828       3832       3836       3840       3844       3848       3852       3856       3860       3864       3868       3872       3876       3880       3884       3888       3892       3896       3900       3904       3908       3912       3916       3920       3924       3928       3932       3936       3940       3944       3948       3952       3956       3960       3964       3968       3972       3976       3980       3984       3988       3992       3996       4000       4004       4008       4012       4016       4020       4024       4028       4032       4036       4040       4044       4048       4052       4056       4060       4064       4068       4072       4076       4080       4084       4088       4092       4096 </DataArray>
<DataArray type="UInt8"                                    Name="types"                                                      NumberOfComponents=" 1" format="ascii">
         9          9          9          9          9          9          9          9          9          9          9          9          9          9          9          9          9          9          9          9          9          9          9          9          9          9          9          9          9          9          9          9          9          9          9          9          9          9          9          9          9          9          9          9          9          9          9          9          9          9          9          9          9          9          9          9          9          9          9          9          9          9          9          9          9          9          9          9          9          9          9          9          9          9          9          9          9          9          9          9          9          9          9          9          9          9          9          9          9          9          9          9          9          9          9          9          9          9          9          9          9          9          9          9          9          9          9          9          9          9          9          9          9          9          9          9          9          9          9          9          9          9          9          9          9          9          9          9          9          9          9          9          9          9          9          9          9          9          9          9          9          9          9          9          9          9          9          9          9          9          9          9          9          9          9          9          9          9          9          9          9          9          9          9          9          9          9          9          9          9          9          9          9          9          9          9          9          9          9          9          9          9          9          9          9          9          9          9          9          9          9          9          9          9          9          9          9          9          9          9          9          9          9          9          9          9          9          9          9          9          9          9          9          9          9          9          9          9          9          9          9          9          9          9          9          9          9          9          9          9          9          9          9          9          9          9          9          9          9          9          9          9          9          9          9          9          9          9          9          9          9          9          9          9          9          9          9          9          9          9          9          9          9          9          9          9          9          9          9          9          9          9          9          9          9          9          9          9          9          9          9          9          9          9          9          9          9          9          9          9          9          9          9          9          9          9          9          9          9          9          9          9          9          9          9          9          9          9          9          9          9          9          9          9          9          9          9          9          9          9          9          9          9          9          9          9          9          9          9          9          9          9          9          9          9          9          9          9          9          9          9          9          9          9          9          9          9          9          9          9          9          9          9          9          9          9          9          9          9          9          9          9          9          9          9          9          9          9          9          9          9          9          9          9          9          9          9          9          9          9          9          9          9          9          9          9          9          9          9          9          9          9          9          9          9          9          9          9          9          9          9          9          9          9          9          9          9          9          9          9          9          9          9          9          9          9          9          9          9          9          9          9          9          9          9          9          9          9          9          9          9          9          9          9          9          9          9          9          9          9          9          9          9          9          9          9          9          9          9          9          9          9          9          9          9          9          9          9          9          9          9          9          9          9          9          9          9          9          9          9          9          9          9          9          9          9          9          9          9          9          9          9          9          9          9          9          9          9          9          9          9          9          9          9          9          9          9          9          9          9          9          9          9          9          9          9          9          9          9          9          9          9          9          9          9          9          9          9          9          9          9          9          9          9          9          9          9          9          9          9          9          9          9          9          9          9          9          9          9          9          9          9          9          9          9          9          9          9          9          9          9          9          9          9          9          9          9          9          9          9          9          9          9          9          9          9          9          9          9          9          9          9          9          9          9          9          9          9          9          9          9          9          9          9          9          9          9          9          9          9          9          9          9          9          9          9          9          9          9          9          9          9          9          9          9          9          9          9          9          9          9          9          9          9          9          9          9          9          9          9          9          9          9          9          9          9          9          9          9          9          9          9          9          9          9          9          9          9          9          9          9          9          9          9          9          9          9          9          9          9          9          9          9          9          9          9          9          9          9          9          9          9          9          9          9          9          9          9          9          9          9          9          9          9          9          9          9          9          9          9          9          9          9          9          9          9          9          9          9          9          9          9          9          9          9          9          9          9          9          9          9          9          9          9          9          9          9          9          9          9          9          9          9          9          9          9          9          9          9          9          9          9          9          9          9          9          9          9          9          9          9          9          9          9          9          9          9          9          9          9          9          9          9          9          9          9          9          9          9          9          9          9          9          9          9          9          9          9          9          9          9          9          9          9          9          9          9          9          9          9          9          9          9          9          9          9          9          9          9          9          9          9          9          9          9          9          9          9          9          9          9          9          9          9          9          9          9          9          9          9          9          9          9          9          9          9          9          9          9          9          9          9          9          9          9          9          9          9          9          9          9          9          9          9          9          9          9          9          9          9          9          9          9          9          9          9          9          9          9          9          9          9          9          9          9          9          9          9          9          9          9          9          9          9          9          9          9          9          9          9          9          9          9          9          9          9          9          9          9          9          9          9          9          9          9          9          9          9          9          9          9          9          9          9          9          9          9          9          9          9          9          9          9          9          9          9          9          9          9          9          9          9          9          9          9          9          9          9          9          9          9          9          9          9          9          9          9          9          9          9          9          9          9          9          9          9          9          9          9          9          9          9          9          9          9          9          9          9          9          9          9          9          9          9          9          9          9          9          9          9          9          9          9          9          9          9          9          9          9          9          9          9          9          9          9          9          9          9          9          9          9          9          9          9          9          9          9          9          9          9          9          9          9          9          9          9          9          9          9          9          9          9          9          9          9          9          9          9          9          9          9          9          9          9          9          9          9          9          9          9          9          9          9          9          9          9          9          9          9          9          9          9          9          9 </DataArray>
</Cells>
<CellData>
<DataArray type="Int32"                                    Name="material"                                                      NumberOfComponents=" 1" format="ascii">
         1          1          1          1          1          1          1          1          1          1          1          1          1          1          1          1          1          1          1          1          1          1          1          1          1          1          1          1          1          1          1          1          1          1          1          1          1          1          1          1          1          1          1          1          1          1          1          1          1          1          1          1          1          1          1          1          1          1          1          1          1          1          1          1          1          1          1          1          1          1          1          1          1          1          1          1          1          1          1          1          1          1          1          1          1          1          1          1          1          1          1          1          1          1          1          1          1          1          1          1          1          1          1          1          1          1          1          1          1          1          1          1          1          1          1          1          1          1          1          1          1          1          1          1          1          1          1          1          1          1          1          1          1          1          1          1          1          1          1          1          1          1          1          1          1          1          1          1          1          1          1          1          1          1          1          1          1          1          1          1          1          1          1          1          1          1          1          1          1          1          1          1          1          1          1          1          1          1          1          1          1          1          1          1          1          1          1          1          1          1          1          1          1          1          1          1          1          1          1          1          1          1          1          1          1          1          1          1          1          1          1          1          1          1          1          1          1          1          1          1          1          1          1          1          1          1          1          1          1          1          1          1          1          1          1          1          1          1          1          1          1          1          1          1          1          1          1          1          1          1          1          1          1          1          1          1          1          1          1          1          1          1          1          1          1          1          1          1          1          1          1          1          1          1          1          1          1          1          1          1          1          1          1          1          1          1          1          1          1          1          1          1          1          1          1          1          1          1          1          1          1          1          1          1          1          1          1          1          1          1          1          1          1          1          1          1          1          1          1          1          1          1          1          1          1          1          1          1          1          1          1          1          1          1          1          1          1          1          1          1          1          1          1          1          1          1          1          1          1          1          1          1          1          1          1          1          1          1          1          1          1          1          1          1          1          1          1          1          1          1          1          1          1          1          1          1          1          1          1          1          1          1          1          1          1          1          1          1          1          1          1          1          1          1          1          1          1          1          1          1          1          1          1          1          1          1          1          1          1          1          1          1          1          1          1          1          1          1          1          1          1          1          1          1          1          1          1          1          1          1          1          1          1          1          1          1          1          1          1          1          1          1          1          1          1          1          1          1          1          1          1          1          1          1          1          1          1          1          1          1          1          1          1          1          1          1          1          1          1          1          1          1          1          1          1          1          1          1          1          1          1          1          1          1          1          1          1          1          1          1          1          1          1          1          1          1          1          1          1          1          1          1          1          1          1          1          1          1          1          1          1          1          1          1          1          1          1          1          1          1          1          1          1          1          1          1          1          1          1          1          1          1          1          1          1          1          1          1          1          1          1          1          1          1          1          1          1          1          1          1          1          1          1          1          1          1          1          1          1          1          1          1          1          1          1          1          1          1          1          1          1          1          1          1          1          1          1          1          1          1          1          1          1          1          1          1          1          1          1          1          1          1          1          1          1          1          1          1          1          1          1          1          1          1          1          1          1          1          1          1          1          1          1          1          1          1          1          1          1          1          1          1          1          1          1          1          1          1          1          1          1          1          1          1          1          1          1          1          1          1          1          1          1          1          1          1          1          1          1          1          1          1          1          1          1          1          1          1          1          1          1          1          1          1          1          1          1          1          1          1          1          1          1          1          1          1          1          1          1          1          1          1          1          1          1          1          1          1          1          1          1          1          1          1          1          1          1          1          1          1          1          1          1          1          1          1          1          1          1          1          1          1          1          1          1          1          1          1          1          1          1          1          1          1          1          1          1          1          1          1          1          1          1          1          1          1          1          1          1          1          1          1          1          1          1          1          1          1          1          1          1          1          1          1          1          1          1          1          1          1          1          1          1          1          1          1          1          1          1          1          1          1          1          1          1          1          1          1          1          1          1          1          1          1          1          1          1          1          1          1          1          1          1          1          1          1          1          1          1          1          1          1          1          1          1          1          1          1          1          1          1          1          1          1          1          1          1          1          1          1          1          1          1          1          1          1          1          1          1          1          1          1          1          1          1          1          1          1          1          1          1          1          1          1          1          1          1          1          1          1          1          1          1          1          1          1          1          1          1          1          1          1          1          1          1          1          1          1          1          1          1          1          1          1          1          1          1          1          1          1          1          1          1          1          1          1          1          1          1          1          1          1          1          1          1          1          1          1          1          1          1          1          1          1          1          1          1          1          1          1          1          1          1          1          1          1          1          1          1          1          1          1          1          1          1          1          1          1          1          1          1          1          1          1          1          1          1          1          1          1          1          1          1          1          1          1          1          1          1          1          1          1          1          1          1          1          1          1          1          1          1          1          1          1          1          1          1          1          1          1          1          1          1          1          1          1          1          1          1          1          1          1          1          1          1          1          1          1          1          1          1          1          1          1          1          1          1          1          1          1          1          1          1          1          1          1          1          1          1          1          1          1          1          1          1          1          1          1          1          1          1          1          1          1 </DataArray>
</CellData>
<PointData>
<DataArray type="Float64"                                    Name="u"                                                      NumberOfComponents=" 3" format="ascii">
             -0.000912009              -0.000000000               0.999999987              -0.000959374               0.000000000               0.999999987              -0.000978620              -0.000000000               0.999999987              -0.000988551               0.000000000               0.999999987              -0.000996131               0.000000000               0.999999987              -0.001003726               0.000000000               0.999999987              -0.001012092               0.000000000               0.999999987              -0.001021536               0.000000000               0.999999987              -0.001031892               0.000000000               0.999999987              -0.001042896               0.000000000               0.999999987              -0.001054112               0.000000000               0.999999987              -0.001065102               0.000000000               0.999999987              -0.001075418               0.000000000               0.999999987              -0.001084702               0.000000000               0.999999987              -0.001092265              -0.000000000               0.999999987              -0.001097384              -0.000000000               0.999999987              -0.001099207              -0.000000000               0.999999987              -0.000906864               0.000124973               0.999999987              -0.000950059               0.000098321               0.999999987              -0.000966608               0.000085871               0.999999987              -0.000974824               0.000080302               0.999999987              -0.000981187               0.000078134               0.999999987              -0.000987830               0.000077634               0.999999987              -0.000995448               0.000077635               0.999999987              -0.001004050               0.000077431               0.999999987              -0.001013356               0.000076640               0.999999987              -0.001023018               0.000074710               0.999999987              -0.001032584               0.000071313               0.999999987              -0.001041692               0.000066296               0.999999987              -0.001049964               0.000059245               0.999999987              -0.001056920               0.000049733               0.999999987              -0.001061983               0.000037015               0.999999987              -0.001064525               0.000020187               0.999999987              -0.001063789              -0.000002058               0.999999987              -0.000891675               0.000248827               0.999999987              -0.000922692               0.000196333               0.999999987              -0.000931667               0.000172726               0.999999987              -0.000935140               0.000162745               0.999999987              -0.000938334               0.000159254               0.999999987              -0.000942577               0.000158826               0.999999987              -0.000947907               0.000159233               0.999999987              -0.000953914               0.000159019               0.999999987              -0.000960143               0.000157349               0.999999987              -0.000966109               0.000153399               0.999999987              -0.000971384               0.000146754               0.999999987              -0.000975556               0.000137075               0.999999987              -0.000978235               0.000123445               0.999999987              -0.000978995               0.000105131               0.999999987              -0.000977268               0.000081281               0.999999987              -0.000972773               0.000050650               0.999999987              -0.000965383               0.000011802               0.999999987              -0.000866720               0.000370412               0.999999987              -0.000878496               0.000293887               0.999999987              -0.000876616               0.000261530               0.999999987              -0.000873799               0.000249016               0.999999987              -0.000872761               0.000245634               0.999999987              -0.000873722               0.000246133               0.999999987              -0.000875781               0.000247345               0.999999987              -0.000878081               0.000247216               0.999999987              -0.000879867               0.000244540               0.999999987              -0.000880552               0.000238685               0.999999987              -0.000879618               0.000228840               0.999999987              -0.000876636               0.000214710               0.999999987              -0.000871252               0.000195387               0.999999987              -0.000863082               0.000169932               0.999999987              -0.000852005               0.000137589               0.999999987              -0.000838125               0.000097810               0.999999987              -0.000821892               0.000049971               0.999999987              -0.000832413               0.000488620               0.999999987              -0.000819745               0.000391063               0.999999987              -0.000805706               0.000353007               0.999999987              -0.000796436               0.000340162               0.999999987              -0.000791509               0.000338188               0.999999987              -0.000789213               0.000340205               0.999999987              -0.000787651               0.000342331               0.999999987              -0.000785609               0.000342244               0.999999987              -0.000782024               0.000338673               0.999999987              -0.000776283               0.000330799               0.999999987              -0.000767729               0.000318013               0.999999987              -0.000755981               0.000299917               0.999999987              -0.000740767               0.000275893               0.999999987              -0.000722218               0.000245238               0.999999987              -0.000700605               0.000207821               0.999999987              -0.000676542               0.000163929               0.999999987              -0.000651064               0.000114259               0.999999987              -0.000789396               0.000602449               0.999999987              -0.000749416               0.000488103               0.999999987              -0.000724102               0.000447366               0.999999987              -0.000709913               0.000435939               0.999999987              -0.000702280               0.000436111               0.999999987              -0.000697272               0.000439794               0.999999987              -0.000692151               0.000442832               0.999999987              -0.000685297               0.000442698               0.999999987              -0.000675662               0.000438185               0.999999987              -0.000662437               0.000428443               0.999999987              -0.000645133               0.000412783               0.999999987              -0.000623620               0.000391069               0.999999987              -0.000598093               0.000363301               0.999999987              -0.000569021               0.000329414               0.999999987              -0.000537166               0.000289652               0.999999987              -0.000503522               0.000245196               0.999999987              -0.000469129               0.000197865               0.999999987              -0.000738670               0.000710787               0.999999987              -0.000671126               0.000584987               0.999999987              -0.000637221               0.000544177               0.999999987              -0.000620540               0.000535146               0.999999987              -0.000611525               0.000537744               0.999999987              -0.000604376               0.000543010               0.999999987              -0.000595659               0.000546618               0.999999987              -0.000583614               0.000546372               0.999999987              -0.000567189               0.000540764               0.999999987              -0.000545721               0.000528954               0.999999987              -0.000519162               0.000510558               0.999999987              -0.000487585               0.000485718               0.999999987              -0.000451665               0.000455334               0.999999987              -0.000412095               0.000419566               0.999999987              -0.000369975               0.000379486               0.999999987              -0.000326419               0.000336773               0.999999987              -0.000282461               0.000293098               0.999999987              -0.000681407               0.000812439               0.999999987              -0.000588707               0.000681350               0.999999987              -0.000550023               0.000642340               0.999999987              -0.000533500               0.000635849               0.999999987              -0.000524306               0.000640575               0.999999987              -0.000515216               0.000647081               0.999999987              -0.000502641               0.000651221               0.999999987              -0.000484879               0.000650564               0.999999987              -0.000460797               0.000643616               0.999999987              -0.000430243               0.000629805               0.999999987              -0.000393384               0.000609071               0.999999987              -0.000350848               0.000582052               0.999999987              -0.000303521               0.000549969               0.999999987              -0.000252494               0.000513872               0.999999987              -0.000199227               0.000475278               0.999999987              -0.000145051               0.000435857               0.999999987              -0.000090967               0.000396721               0.999999987              -0.000619362               0.000905566               0.999999987              -0.000504867               0.000777142               0.999999987              -0.000466780               0.000740362               0.999999987              -0.000452415               0.000735738               0.999999987              -0.000443675               0.000742082               0.999999987              -0.000432603               0.000749648               0.999999987              -0.000415747               0.000754147               0.999999987              -0.000391362               0.000752795               0.999999987              -0.000358563               0.000744397               0.999999987              -0.000317626               0.000728721               0.999999987              -0.000269152               0.000705980               0.999999987              -0.000214200               0.000677505               0.999999987              -0.000154027               0.000645074               0.999999987              -0.000090419               0.000610568               0.999999987              -0.000025524               0.000575488               0.999999987               0.000039304               0.000541136               0.999999987               0.000103675               0.000507898               0.999999987              -0.000555042               0.000993921               0.999999987              -0.000434344               0.000885042               0.999999987              -0.000394117               0.000845397               0.999999987              -0.000379618               0.000836753               0.999999987              -0.000372133               0.000840939               0.999999987              -0.000363627               0.000849145               0.999999987              -0.000350396               0.000856774               0.999999987              -0.000330480               0.000861109               0.999999987              -0.000302853               0.000860591               0.999999987              -0.000267563               0.000854433               0.999999987              -0.000224753               0.000842444               0.999999987              -0.000174893               0.000825038               0.999999987              -0.000118596               0.000803370               0.999999987              -0.000057104               0.000778948               0.999999987               0.000007690               0.000753491               0.999999987               0.000073917               0.000728217               0.999999987               0.000140130               0.000704173               0.999999987              -0.000485047               0.001074656               0.999999987              -0.000366188               0.000989658               0.999999987              -0.000324083               0.000953172               0.999999987              -0.000308662               0.000942783               0.999999987              -0.000301608               0.000945702               0.999999987              -0.000294866               0.000954501               0.999999987              -0.000284716               0.000964924               0.999999987              -0.000268781               0.000974143               0.999999987              -0.000245938               0.000980579               0.999999987              -0.000216063               0.000983151               0.999999987              -0.000179242               0.000981184               0.999999987              -0.000135307               0.000974501               0.999999987              -0.000084076               0.000963628               0.999999987              -0.000026208               0.000949518               0.999999987               0.000036965               0.000933460               0.999999987               0.000103575               0.000916840               0.999999987               0.000171808               0.000900928               0.999999987              -0.000410816               0.001145643               0.999999987              -0.000300506               0.001087754               0.999999987              -0.000258296               0.001058804               0.999999987              -0.000241888               0.001049721               0.999999987              -0.000234467               0.001052898               0.999999987              -0.000228836               0.001062786               0.999999987              -0.000220953               0.001075832               0.999999987              -0.000208492               0.001089533               0.999999987              -0.000190041               0.001102073               0.999999987              -0.000165383               0.001112432               0.999999987              -0.000134500               0.001119824               0.999999987              -0.000096885               0.001123592               0.999999987              -0.000052065               0.001123593               0.999999987               0.000000408               0.001120275               0.999999987               0.000059997               0.001114468               0.999999987               0.000125447               0.001107099               0.999999987               0.000195227               0.001099503               0.999999987              -0.000332978               0.001205538               0.999999987              -0.000237353               0.001175210               0.999999987              -0.000197776               0.001156856               0.999999987              -0.000181052               0.001151912               0.999999987              -0.000173241               0.001157069               0.999999987              -0.000168017               0.001168984               0.999999987              -0.000161765               0.001184863               0.999999987              -0.000152246               0.001202675               0.999999987              -0.000137859               0.001220841               0.999999987              -0.000118252               0.001238126               0.999999987              -0.000093273               0.001253741               0.999999987              -0.000062418               0.001267066               0.999999987              -0.000024866               0.001277637               0.999999987               0.000020240               0.001285263               0.999999987               0.000073484               0.001290220               0.999999987               0.000134642               0.001293043               0.999999987               0.000203393               0.001294689               0.999999987              -0.000252271               0.001253106               0.999999987              -0.000176343               0.001247938               0.999999987              -0.000142582               0.001241586               0.999999987              -0.000127163               0.001242459               0.999999987              -0.000119564               0.001251025               0.999999987              -0.000114715               0.001265601               0.999999987              -0.000109818               0.001284617               0.999999987              -0.000102699               0.001306489               0.999999987              -0.000092029               0.001329713               0.999999987              -0.000077279               0.001353212               0.999999987              -0.000058328               0.001376037               0.999999987              -0.000034743               0.001397711               0.999999987              -0.000005422               0.001417671               0.999999987               0.000030654               0.001435493               0.999999987               0.000074643               0.001450983               0.999999987               0.000127390               0.001464343               0.999999987               0.000189491               0.001475814               0.999999987              -0.000169409               0.001287606               0.999999987              -0.000116869               0.001302369               0.999999987              -0.000092106               0.001307073               0.999999987              -0.000080124               0.001314171               0.999999987              -0.000073877               0.001326570               0.999999987              -0.000069991               0.001344129               0.999999987              -0.000066272               0.001366017               0.999999987              -0.000061539               0.001391229               0.999999987              -0.000054466               0.001418628               0.999999987              -0.000044599               0.001447195               0.999999987              -0.000031722               0.001476104               0.999999987              -0.000015715               0.001504691               0.999999987               0.000004253               0.001532477               0.999999987               0.000029507               0.001558937               0.999999987               0.000061261               0.001583541               0.999999987               0.000100689               0.001606133               0.999999987               0.000149058               0.001626592               0.999999987              -0.000085085               0.001308491               0.999999987              -0.000058280               0.001336057               0.999999987              -0.000045118               0.001348416               0.999999987              -0.000038587               0.001360268               0.999999987              -0.000035066               0.001375773               0.999999987              -0.000032808               0.001395707               0.999999987              -0.000030771               0.001419751               0.999999987              -0.000028300               0.001447136               0.999999987              -0.000024860               0.001477218               0.999999987              -0.000019964               0.001509101               0.999999987              -0.000013405               0.001542056               0.999999987              -0.000005334               0.001575396               0.999999987               0.000004761               0.001608579               0.999999987               0.000017819               0.001641133               0.999999987               0.000034470               0.001672496               0.999999987               0.000055823               0.001702100               0.999999987               0.000083089               0.001729268               0.999999987               0.000000000               0.001315411               0.999999987              -0.000000000               0.001347483               0.999999987               0.000000000               0.001362632               0.999999987               0.000000000               0.001376152               0.999999987               0.000000000               0.001392946               0.999999987               0.000000000               0.001413820               0.999999987               0.000000000               0.001438527               0.999999987               0.000000000               0.001466613               0.999999987               0.000000000               0.001497683               0.999999987              -0.000000000               0.001530809               0.999999987              -0.000000000               0.001565175               0.999999987               0.000000000               0.001600163               0.999999987               0.000000000               0.001635336               0.999999987              -0.000000000               0.001670306               0.999999987              -0.000000000               0.001704341               0.999999987              -0.000000000               0.001736743               0.999999987               0.000000000               0.001766539               0.999999987              -0.000912009              -0.000000000               0.999999987              -0.000959374               0.000000000               0.999999987              -0.000978620              -0.000000000               0.999999987              -0.000988551               0.000000000               0.999999987              -0.000996131               0.000000000               0.999999987              -0.001003726               0.000000000               0.999999987              -0.001012092               0.000000000               0.999999987              -0.001021536               0.000000000               0.999999987              -0.001031892               0.000000000               0.999999987              -0.001042896               0.000000000               0.999999987              -0.001054112               0.000000000               0.999999987              -0.001065102               0.000000000               0.999999987              -0.001075418               0.000000000               0.999999987              -0.001084702               0.000000000               0.999999987              -0.001092265              -0.000000000               0.999999987              -0.001097384              -0.000000000               0.999999987              -0.001099207              -0.000000000               0.999999987              -0.000906864              -0.000124973               0.999999987              -0.000950059              -0.000098321               0.999999987              -0.000966608              -0.000085871               0.999999987              -0.000974824              -0.000080302               0.999999987              -0.000981187              -0.000078134               0.999999987              -0.000987830              -0.000077634               0.999999987              -0.000995448              -0.000077635               0.999999987              -0.001004050              -0.000077431               0.999999987              -0.001013356              -0.000076640               0.999999987              -0.001023018              -0.000074710               0.999999987              -0.001032584              -0.000071313               0.999999987              -0.001041692              -0.000066296               0.999999987              -0.001049964              -0.000059245               0.999999987              -0.001056920              -0.000049733               0.999999987              -0.001061983              -0.000037015               0.999999987              -0.001064525              -0.000020187               0.999999987              -0.001063789               0.000002058               0.999999987              -0.000891675              -0.000248827               0.999999987              -0.000922692              -0.000196333               0.999999987              -0.000931667              -0.000172726               0.999999987              -0.000935140              -0.000162745               0.999999987              -0.000938334              -0.000159254               0.999999987              -0.000942577              -0.000158826               0.999999987              -0.000947907              -0.000159233               0.999999987              -0.000953914              -0.000159019               0.999999987              -0.000960143              -0.000157349               0.999999987              -0.000966109              -0.000153399               0.999999987              -0.000971384              -0.000146754               0.999999987              -0.000975556              -0.000137075               0.999999987              -0.000978235              -0.000123445               0.999999987              -0.000978995              -0.000105131               0.999999987              -0.000977268              -0.000081281               0.999999987              -0.000972773              -0.000050650               0.999999987              -0.000965383              -0.000011802               0.999999987              -0.000866720              -0.000370412               0.999999987              -0.000878496              -0.000293887               0.999999987              -0.000876616              -0.000261530               0.999999987              -0.000873799              -0.000249016               0.999999987              -0.000872761              -0.000245634               0.999999987              -0.000873722              -0.000246133               0.999999987              -0.000875781              -0.000247345               0.999999987              -0.000878081              -0.000247216               0.999999987              -0.000879867              -0.000244540               0.999999987              -0.000880552              -0.000238685               0.999999987              -0.000879618              -0.000228840               0.999999987              -0.000876636              -0.000214710               0.999999987              -0.000871252              -0.000195387               0.999999987              -0.000863082              -0.000169932               0.999999987              -0.000852005              -0.000137589               0.999999987              -0.000838125              -0.000097810               0.999999987              -0.000821892              -0.000049971               0.999999987              -0.000832413              -0.000488620               0.999999987              -0.000819745              -0.000391063               0.999999987              -0.000805706              -0.000353007               0.999999987              -0.000796436              -0.000340162               0.999999987              -0.000791509              -0.000338188               0.999999987              -0.000789213              -0.000340205               0.999999987              -0.000787651              -0.000342331               0.999999987              -0.000785609              -0.000342244               0.999999987              -0.000782024              -0.000338673               0.999999987              -0.000776283              -0.000330799               0.999999987              -0.000767729              -0.000318013               0.999999987              -0.000755981              -0.000299917               0.999999987              -0.000740767              -0.000275893               0.999999987              -0.000722218              -0.000245238               0.999999987              -0.000700605              -0.000207821               0.999999987              -0.000676542              -0.000163929               0.999999987              -0.000651064              -0.000114259               0.999999987              -0.000789396              -0.000602449               0.999999987              -0.000749416              -0.000488103               0.999999987              -0.000724102              -0.000447366               0.999999987              -0.000709913              -0.000435939               0.999999987              -0.000702280              -0.000436111               0.999999987              -0.000697272              -0.000439794               0.999999987              -0.000692151              -0.000442832               0.999999987              -0.000685297              -0.000442698               0.999999987              -0.000675662              -0.000438185               0.999999987              -0.000662437              -0.000428443               0.999999987              -0.000645133              -0.000412783               0.999999987              -0.000623620              -0.000391069               0.999999987              -0.000598093              -0.000363301               0.999999987              -0.000569021              -0.000329414               0.999999987              -0.000537166              -0.000289652               0.999999987              -0.000503522              -0.000245196               0.999999987              -0.000469129              -0.000197865               0.999999987              -0.000738670              -0.000710787               0.999999987              -0.000671126              -0.000584987               0.999999987              -0.000637221              -0.000544177               0.999999987              -0.000620540              -0.000535146               0.999999987              -0.000611525              -0.000537744               0.999999987              -0.000604376              -0.000543010               0.999999987              -0.000595659              -0.000546618               0.999999987              -0.000583614              -0.000546372               0.999999987              -0.000567189              -0.000540764               0.999999987              -0.000545721              -0.000528954               0.999999987              -0.000519162              -0.000510558               0.999999987              -0.000487585              -0.000485718               0.999999987              -0.000451665              -0.000455334               0.999999987              -0.000412095              -0.000419566               0.999999987              -0.000369975              -0.000379486               0.999999987              -0.000326419              -0.000336773               0.999999987              -0.000282461              -0.000293098               0.999999987              -0.000681407              -0.000812439               0.999999987              -0.000588707              -0.000681350               0.999999987              -0.000550023              -0.000642340               0.999999987              -0.000533500              -0.000635849               0.999999987              -0.000524306              -0.000640575               0.999999987              -0.000515216              -0.000647081               0.999999987              -0.000502641              -0.000651221               0.999999987              -0.000484879              -0.000650564               0.999999987              -0.000460797              -0.000643616               0.999999987              -0.000430243              -0.000629805               0.999999987              -0.000393384              -0.000609071               0.999999987              -0.000350848              -0.000582052               0.999999987              -0.000303521              -0.000549969               0.999999987              -0.000252494              -0.000513872               0.999999987              -0.000199227              -0.000475278               0.999999987              -0.000145051              -0.000435857               0.999999987              -0.000090967              -0.000396721               0.999999987              -0.000619362              -0.000905566               0.999999987              -0.000504867              -0.000777142               0.999999987              -0.000466780              -0.000740362               0.999999987              -0.000452415              -0.000735738               0.999999987              -0.000443675              -0.000742082               0.999999987              -0.000432603              -0.000749648               0.999999987              -0.000415747              -0.000754147               0.999999987              -0.000391362              -0.000752795               0.999999987              -0.000358563              -0.000744397               0.999999987              -0.000317626              -0.000728721               0.999999987              -0.000269152              -0.000705980               0.999999987              -0.000214200              -0.000677505               0.999999987              -0.000154027              -0.000645074               0.999999987              -0.000090419              -0.000610568               0.999999987              -0.000025524              -0.000575488               0.999999987               0.000039304              -0.000541136               0.999999987               0.000103675              -0.000507898               0.999999987              -0.000555042              -0.000993921               0.999999987              -0.000434344              -0.000885042               0.999999987              -0.000394117              -0.000845397               0.999999987              -0.000379618              -0.000836753               0.999999987              -0.000372133              -0.000840939               0.999999987              -0.000363627              -0.000849145               0.999999987              -0.000350396              -0.000856774               0.999999987              -0.000330480              -0.000861109               0.999999987              -0.000302853              -0.000860591               0.999999987              -0.000267563              -0.000854433               0.999999987              -0.000224753              -0.000842444               0.999999987              -0.000174893              -0.000825038               0.999999987              -0.000118596              -0.000803370               0.999999987              -0.000057104              -0.000778948               0.999999987               0.000007690              -0.000753491               0.999999987               0.000073917              -0.000728217               0.999999987               0.000140130              -0.000704173               0.999999987              -0.000485047              -0.001074656               0.999999987              -0.000366188              -0.000989658               0.999999987              -0.000324083              -0.000953172               0.999999987              -0.000308662              -0.000942783               0.999999987              -0.000301608              -0.000945702               0.999999987              -0.000294866              -0.000954501               0.999999987              -0.000284716              -0.000964924               0.999999987              -0.000268781              -0.000974143               0.999999987              -0.000245938              -0.000980579               0.999999987              -0.000216063              -0.000983151               0.999999987              -0.000179242              -0.000981184               0.999999987              -0.000135307              -0.000974501               0.999999987              -0.000084076              -0.000963628               0.999999987              -0.000026208              -0.000949518               0.999999987               0.000036965              -0.000933460               0.999999987               0.000103575              -0.000916840               0.999999987               0.000171808              -0.000900928               0.999999987              -0.000410816              -0.001145643               0.999999987              -0.000300506              -0.001087754               0.999999987              -0.000258296              -0.001058804               0.999999987              -0.000241888              -0.001049721               0.999999987              -0.000234467              -0.001052898               0.999999987              -0.000228836              -0.001062786               0.999999987              -0.000220953              -0.001075832               0.999999987              -0.000208492              -0.001089533               0.999999987              -0.000190041              -0.001102073               0.999999987              -0.000165383              -0.001112432               0.999999987              -0.000134500              -0.001119824               0.999999987              -0.000096885              -0.001123592               0.999999987              -0.000052065              -0.001123593               0.999999987               0.000000408              -0.001120275               0.999999987               0.000059997              -0.001114468               0.999999987               0.000125447              -0.001107099               0.999999987               0.000195227              -0.001099503               0.999999987              -0.000332978              -0.001205538               0.999999987              -0.000237353              -0.001175210               0.999999987              -0.000197776              -0.001156856               0.999999987              -0.000181052              -0.001151912               0.999999987              -0.000173241              -0.001157069               0.999999987              -0.000168017              -0.001168984               0.999999987              -0.000161765              -0.001184863               0.999999987              -0.000152246              -0.001202675               0.999999987              -0.000137859              -0.001220841               0.999999987              -0.000118252              -0.001238126               0.999999987              -0.000093273              -0.001253741               0.999999987              -0.000062418              -0.001267066               0.999999987              -0.000024866              -0.001277637               0.999999987               0.000020240              -0.001285263               0.999999987               0.000073484              -0.001290220               0.999999987               0.000134642              -0.001293043               0.999999987               0.000203393              -0.001294689               0.999999987              -0.000252271              -0.001253106               0.999999987              -0.000176343              -0.001247938               0.999999987              -0.000142582              -0.001241586               0.999999987              -0.000127163              -0.001242459               0.999999987              -0.000119564              -0.001251025               0.999999987              -0.000114715              -0.001265601               0.999999987              -0.000109818              -0.001284617               0.999999987              -0.000102699              -0.001306489               0.999999987              -0.000092029              -0.001329713               0.999999987              -0.000077279              -0.001353212               0.999999987              -0.000058328              -0.001376037               0.999999987              -0.000034743              -0.001397711               0.999999987              -0.000005422              -0.001417671               0.999999987               0.000030654              -0.001435493               0.999999987               0.000074643              -0.001450983               0.999999987               0.000127390              -0.001464343               0.999999987               0.000189491              -0.001475814               0.999999987              -0.000169409              -0.001287606               0.999999987              -0.000116869              -0.001302369               0.999999987              -0.000092106              -0.001307073               0.999999987              -0.000080124              -0.001314171               0.999999987              -0.000073877              -0.001326570               0.999999987              -0.000069991              -0.001344129               0.999999987              -0.000066272              -0.001366017               0.999999987              -0.000061539              -0.001391229               0.999999987              -0.000054466              -0.001418628               0.999999987              -0.000044599              -0.001447195               0.999999987              -0.000031722              -0.001476104               0.999999987              -0.000015715              -0.001504691               0.999999987               0.000004253              -0.001532477               0.999999987               0.000029507              -0.001558937               0.999999987               0.000061261              -0.001583541               0.999999987               0.000100689              -0.001606133               0.999999987               0.000149058              -0.001626592               0.999999987              -0.000085085              -0.001308491               0.999999987              -0.000058280              -0.001336057               0.999999987              -0.000045118              -0.001348416               0.999999987              -0.000038587              -0.001360268               0.999999987              -0.000035066              -0.001375773               0.999999987              -0.000032808              -0.001395707               0.999999987              -0.000030771              -0.001419751               0.999999987              -0.000028300              -0.001447136               0.999999987              -0.000024860              -0.001477218               0.999999987              -0.000019964              -0.001509101               0.999999987              -0.000013405              -0.001542056               0.999999987              -0.000005334              -0.001575396               0.999999987               0.000004761              -0.001608579               0.999999987               0.000017819              -0.001641133               0.999999987               0.000034470              -0.001672496               0.999999987               0.000055823              -0.001702100               0.999999987               0.000083089              -0.001729268               0.999999987              -0.000000000              -0.001315411               0.999999987               0.000000000              -0.001347483               0.999999987               0.000000000              -0.001362632               0.999999987              -0.000000000              -0.001376152               0.999999987              -0.000000000              -0.001392946               0.999999987               0.000000000              -0.001413820               0.999999987               0.000000000              -0.001438527               0.999999987               0.000000000              -0.001466613               0.999999987               0.000000000              -0.001497683               0.999999987               0.000000000              -0.001530809               0.999999987              -0.000000000              -0.001565175               0.999999987               0.000000000              -0.001600163               0.999999987              -0.000000000              -0.001635336               0.999999987              -0.000000000              -0.001670306               0.999999987               0.000000000              -0.001704341               0.999999987               0.000000000              -0.001736743               0.999999987               0.000000000              -0.001766539               0.999999987               0.000912009               0.000000000               0.999999987               0.000959374               0.000000000               0.999999987               0.000978620               0.000000000               0.999999987               0.000988551               0.000000000               0.999999987               0.000996131               0.000000000               0.999999987               0.001003726               0.000000000               0.999999987               0.001012092               0.000000000               0.999999987               0.001021536              -0.000000000               0.999999987               0.001031892               0.000000000               0.999999987               0.001042896               0.000000000               0.999999987               0.001054112              -0.000000000               0.999999987               0.001065102              -0.000000000               0.999999987               0.001075418              -0.000000000               0.999999987               0.001084702               0.000000000               0.999999987               0.001092265               0.000000000               0.999999987               0.001097384              -0.000000000               0.999999987               0.001099207              -0.000000000               0.999999987               0.000906864              -0.000124973               0.999999987               0.000950059              -0.000098321               0.999999987               0.000966608              -0.000085871               0.999999987               0.000974824              -0.000080302               0.999999987               0.000981187              -0.000078134               0.999999987               0.000987830              -0.000077634               0.999999987               0.000995448              -0.000077635               0.999999987               0.001004050              -0.000077431               0.999999987               0.001013356              -0.000076640               0.999999987               0.001023018              -0.000074710               0.999999987               0.001032584              -0.000071313               0.999999987               0.001041692              -0.000066296               0.999999987               0.001049964              -0.000059245               0.999999987               0.001056920              -0.000049733               0.999999987               0.001061983              -0.000037015               0.999999987               0.001064525              -0.000020187               0.999999987               0.001063789               0.000002058               0.999999987               0.000891675              -0.000248827               0.999999987               0.000922692              -0.000196333               0.999999987               0.000931667              -0.000172726               0.999999987               0.000935140              -0.000162745               0.999999987               0.000938334              -0.000159254               0.999999987               0.000942577              -0.000158826               0.999999987               0.000947907              -0.000159233               0.999999987               0.000953914              -0.000159019               0.999999987               0.000960143              -0.000157349               0.999999987               0.000966109              -0.000153399               0.999999987               0.000971384              -0.000146754               0.999999987               0.000975556              -0.000137075               0.999999987               0.000978235              -0.000123445               0.999999987               0.000978995              -0.000105131               0.999999987               0.000977268              -0.000081281               0.999999987               0.000972773              -0.000050650               0.999999987               0.000965383              -0.000011802               0.999999987               0.000866720              -0.000370412               0.999999987               0.000878496              -0.000293887               0.999999987               0.000876616              -0.000261530               0.999999987               0.000873799              -0.000249016               0.999999987               0.000872761              -0.000245634               0.999999987               0.000873722              -0.000246133               0.999999987               0.000875781              -0.000247345               0.999999987               0.000878081              -0.000247216               0.999999987               0.000879867              -0.000244540               0.999999987               0.000880552              -0.000238685               0.999999987               0.000879618              -0.000228840               0.999999987               0.000876636              -0.000214710               0.999999987               0.000871252              -0.000195387               0.999999987               0.000863082              -0.000169932               0.999999987               0.000852005              -0.000137589               0.999999987               0.000838125              -0.000097810               0.999999987               0.000821892              -0.000049971               0.999999987               0.000832413              -0.000488620               0.999999987               0.000819745              -0.000391063               0.999999987               0.000805706              -0.000353007               0.999999987               0.000796436              -0.000340162               0.999999987               0.000791509              -0.000338188               0.999999987               0.000789213              -0.000340205               0.999999987               0.000787651              -0.000342331               0.999999987               0.000785609              -0.000342244               0.999999987               0.000782024              -0.000338673               0.999999987               0.000776283              -0.000330799               0.999999987               0.000767729              -0.000318013               0.999999987               0.000755981              -0.000299917               0.999999987               0.000740767              -0.000275893               0.999999987               0.000722218              -0.000245238               0.999999987               0.000700605              -0.000207821               0.999999987               0.000676542              -0.000163929               0.999999987               0.000651064              -0.000114259               0.999999987               0.000789396              -0.000602449               0.999999987               0.000749416              -0.000488103               0.999999987               0.000724102              -0.000447366               0.999999987               0.000709913              -0.000435939               0.999999987               0.000702280              -0.000436111               0.999999987               0.000697272              -0.000439794               0.999999987               0.000692151              -0.000442832               0.999999987               0.000685297              -0.000442698               0.999999987               0.000675662              -0.000438185               0.999999987               0.000662437              -0.000428443               0.999999987               0.000645133              -0.000412783               0.999999987               0.000623620              -0.000391069               0.999999987               0.000598093              -0.000363301               0.999999987               0.000569021              -0.000329414               0.999999987               0.000537166              -0.000289652               0.999999987               0.000503522              -0.000245196               0.999999987               0.000469129              -0.000197865               0.999999987               0.000738670              -0.000710787               0.999999987               0.000671126              -0.000584987               0.999999987               0.000637221              -0.000544177               0.999999987               0.000620540              -0.000535146               0.999999987               0.000611525              -0.000537744               0.999999987               0.000604376              -0.000543010               0.999999987               0.000595659              -0.000546618               0.999999987               0.000583614              -0.000546372               0.999999987               0.000567189              -0.000540764               0.999999987               0.000545721              -0.000528954               0.999999987               0.000519162              -0.000510558               0.999999987               0.000487585              -0.000485718               0.999999987               0.000451665              -0.000455334               0.999999987               0.000412095              -0.000419566               0.999999987               0.000369975              -0.000379486               0.999999987               0.000326419              -0.000336773               0.999999987               0.000282461              -0.000293098               0.999999987               0.000681407              -0.000812439               0.999999987               0.000588707              -0.000681350               0.999999987               0.000550023              -0.000642340               0.999999987               0.000533500              -0.000635849               0.999999987               0.000524306              -0.000640575               0.999999987               0.000515216              -0.000647081               0.999999987               0.000502641              -0.000651221               0.999999987               0.000484879              -0.000650564               0.999999987               0.000460797              -0.000643616               0.999999987               0.000430243              -0.000629805               0.999999987               0.000393384              -0.000609071               0.999999987               0.000350848              -0.000582052               0.999999987               0.000303521              -0.000549969               0.999999987               0.000252494              -0.000513872               0.999999987               0.000199227              -0.000475278               0.999999987               0.000145051              -0.000435857               0.999999987               0.000090967              -0.000396721               0.999999987               0.000619362              -0.000905566               0.999999987               0.000504867              -0.000777142               0.999999987               0.000466780              -0.000740362               0.999999987               0.000452415              -0.000735738               0.999999987               0.000443675              -0.000742082               0.999999987               0.000432603              -0.000749648               0.999999987               0.000415747              -0.000754147               0.999999987               0.000391362              -0.000752795               0.999999987               0.000358563              -0.000744397               0.999999987               0.000317626              -0.000728721               0.999999987               0.000269152              -0.000705980               0.999999987               0.000214200              -0.000677505               0.999999987               0.000154027              -0.000645074               0.999999987               0.000090419              -0.000610568               0.999999987               0.000025524              -0.000575488               0.999999987              -0.000039304              -0.000541136               0.999999987              -0.000103675              -0.000507898               0.999999987               0.000555042              -0.000993921               0.999999987               0.000434344              -0.000885042               0.999999987               0.000394117              -0.000845397               0.999999987               0.000379618              -0.000836753               0.999999987               0.000372133              -0.000840939               0.999999987               0.000363627              -0.000849145               0.999999987               0.000350396              -0.000856774               0.999999987               0.000330480              -0.000861109               0.999999987               0.000302853              -0.000860591               0.999999987               0.000267563              -0.000854433               0.999999987               0.000224753              -0.000842444               0.999999987               0.000174893              -0.000825038               0.999999987               0.000118596              -0.000803370               0.999999987               0.000057104              -0.000778948               0.999999987              -0.000007690              -0.000753491               0.999999987              -0.000073917              -0.000728217               0.999999987              -0.000140130              -0.000704173               0.999999987               0.000485047              -0.001074656               0.999999987               0.000366188              -0.000989658               0.999999987               0.000324083              -0.000953172               0.999999987               0.000308662              -0.000942783               0.999999987               0.000301608              -0.000945702               0.999999987               0.000294866              -0.000954501               0.999999987               0.000284716              -0.000964924               0.999999987               0.000268781              -0.000974143               0.999999987               0.000245938              -0.000980579               0.999999987               0.000216063              -0.000983151               0.999999987               0.000179242              -0.000981184               0.999999987               0.000135307              -0.000974501               0.999999987               0.000084076              -0.000963628               0.999999987               0.000026208              -0.000949518               0.999999987              -0.000036965              -0.000933460               0.999999987              -0.000103575              -0.000916840               0.999999987              -0.000171808              -0.000900928               0.999999987               0.000410816              -0.001145643               0.999999987               0.000300506              -0.001087754               0.999999987               0.000258296              -0.001058804               0.999999987               0.000241888              -0.001049721               0.999999987               0.000234467              -0.001052898               0.999999987               0.000228836              -0.001062786               0.999999987               0.000220953              -0.001075832               0.999999987               0.000208492              -0.001089533               0.999999987               0.000190041              -0.001102073               0.999999987               0.000165383              -0.001112432               0.999999987               0.000134500              -0.001119824               0.999999987               0.000096885              -0.001123592               0.999999987               0.000052065              -0.001123593               0.999999987              -0.000000408              -0.001120275               0.999999987              -0.000059997              -0.001114468               0.999999987              -0.000125447              -0.001107099               0.999999987              -0.000195227              -0.001099503               0.999999987               0.000332978              -0.001205538               0.999999987               0.000237353              -0.001175210               0.999999987               0.000197776              -0.001156856               0.999999987               0.000181052              -0.001151912               0.999999987               0.000173241              -0.001157069               0.999999987               0.000168017              -0.001168984               0.999999987               0.000161765              -0.001184863               0.999999987               0.000152246              -0.001202675               0.999999987               0.000137859              -0.001220841               0.999999987               0.000118252              -0.001238126               0.999999987               0.000093273              -0.001253741               0.999999987               0.000062418              -0.001267066               0.999999987               0.000024866              -0.001277637               0.999999987              -0.000020240              -0.001285263               0.999999987              -0.000073484              -0.001290220               0.999999987              -0.000134642              -0.001293043               0.999999987              -0.000203393              -0.001294689               0.999999987               0.000252271              -0.001253106               0.999999987               0.000176343              -0.001247938               0.999999987               0.000142582              -0.001241586               0.999999987               0.000127163              -0.001242459               0.999999987               0.000119564              -0.001251025               0.999999987               0.000114715              -0.001265601               0.999999987               0.000109818              -0.001284617               0.999999987               0.000102699              -0.001306489               0.999999987               0.000092029              -0.001329713               0.999999987               0.000077279              -0.001353212               0.999999987               0.000058328              -0.001376037               0.999999987               0.000034743              -0.001397711               0.999999987               0.000005422              -0.001417671               0.999999987              -0.000030654              -0.001435493               0.999999987              -0.000074643              -0.001450983               0.999999987              -0.000127390              -0.001464343               0.999999987              -0.000189491              -0.001475814               0.999999987               0.000169409              -0.001287606               0.999999987               0.000116869              -0.001302369               0.999999987               0.000092106              -0.001307073               0.999999987               0.000080124              -0.001314171               0.999999987               0.000073877              -0.001326570               0.999999987               0.000069991              -0.001344129               0.999999987               0.000066272              -0.001366017               0.999999987               0.000061539              -0.001391229               0.999999987               0.000054466              -0.001418628               0.999999987               0.000044599              -0.001447195               0.999999987               0.000031722              -0.001476104               0.999999987               0.000015715              -0.001504691               0.999999987              -0.000004253              -0.001532477               0.999999987              -0.000029507              -0.001558937               0.999999987              -0.000061261              -0.001583541               0.999999987              -0.000100689              -0.001606133               0.999999987              -0.000149058              -0.001626592               0.999999987               0.000085085              -0.001308491               0.999999987               0.000058280              -0.001336057               0.999999987               0.000045118              -0.001348416               0.999999987               0.000038587              -0.001360268               0.999999987               0.000035066              -0.001375773               0.999999987               0.000032808              -0.001395707               0.999999987               0.000030771              -0.001419751               0.999999987               0.000028300              -0.001447136               0.999999987               0.000024860              -0.001477218               0.999999987               0.000019964              -0.001509101               0.999999987               0.000013405              -0.001542056               0.999999987               0.000005334              -0.001575396               0.999999987              -0.000004761              -0.001608579               0.999999987              -0.000017819              -0.001641133               0.999999987              -0.000034470              -0.001672496               0.999999987              -0.000055823              -0.001702100               0.999999987              -0.000083089              -0.001729268               0.999999987              -0.000000000              -0.001315411               0.999999987               0.000000000              -0.001347483               0.999999987               0.000000000              -0.001362632               0.999999987              -0.000000000              -0.001376152               0.999999987              -0.000000000              -0.001392946               0.999999987               0.000000000              -0.001413820               0.999999987               0.000000000              -0.001438527               0.999999987               0.000000000              -0.001466613               0.999999987               0.000000000              -0.001497683               0.999999987               0.000000000              -0.001530809               0.999999987              -0.000000000              -0.001565175               0.999999987               0.000000000              -0.001600163               0.999999987              -0.000000000              -0.001635336               0.999999987              -0.000000000              -0.001670306               0.999999987               0.000000000              -0.001704341               0.999999987               0.000000000              -0.001736743               0.999999987               0.000000000              -0.001766539               0.999999987               0.000912009               0.000000000               0.999999987               0.000959374               0.000000000               0.999999987               0.000978620               0.000000000               0.999999987               0.000988551               0.000000000               0.999999987               0.000996131               0.000000000               0.999999987               0.001003726               0.000000000               0.999999987               0.001012092               0.000000000               0.999999987               0.001021536              -0.000000000               0.999999987               0.001031892               0.000000000               0.999999987               0.001042896               0.000000000               0.999999987               0.001054112              -0.000000000               0.999999987               0.001065102              -0.000000000               0.999999987               0.001075418              -0.000000000               0.999999987               0.001084702               0.000000000               0.999999987               0.001092265               0.000000000               0.999999987               0.001097384              -0.000000000               0.999999987               0.001099207              -0.000000000               0.999999987               0.000906864               0.000124973               0.999999987               0.000950059               0.000098321               0.999999987               0.000966608               0.000085871               0.999999987               0.000974824               0.000080302               0.999999987               0.000981187               0.000078134               0.999999987               0.000987830               0.000077634               0.999999987               0.000995448               0.000077635               0.999999987               0.001004050               0.000077431               0.999999987               0.001013356               0.000076640               0.999999987               0.001023018               0.000074710               0.999999987               0.001032584               0.000071313               0.999999987               0.001041692               0.000066296               0.999999987               0.001049964               0.000059245               0.999999987               0.001056920               0.000049733               0.999999987               0.001061983               0.000037015               0.999999987               0.001064525               0.000020187               0.999999987               0.001063789              -0.000002058               0.999999987               0.000891675               0.000248827               0.999999987               0.000922692               0.000196333               0.999999987               0.000931667               0.000172726               0.999999987               0.000935140               0.000162745               0.999999987               0.000938334               0.000159254               0.999999987               0.000942577               0.000158826               0.999999987               0.000947907               0.000159233               0.999999987               0.000953914               0.000159019               0.999999987               0.000960143               0.000157349               0.999999987               0.000966109               0.000153399               0.999999987               0.000971384               0.000146754               0.999999987               0.000975556               0.000137075               0.999999987               0.000978235               0.000123445               0.999999987               0.000978995               0.000105131               0.999999987               0.000977268               0.000081281               0.999999987               0.000972773               0.000050650               0.999999987               0.000965383               0.000011802               0.999999987               0.000866720               0.000370412               0.999999987               0.000878496               0.000293887               0.999999987               0.000876616               0.000261530               0.999999987               0.000873799               0.000249016               0.999999987               0.000872761               0.000245634               0.999999987               0.000873722               0.000246133               0.999999987               0.000875781               0.000247345               0.999999987               0.000878081               0.000247216               0.999999987               0.000879867               0.000244540               0.999999987               0.000880552               0.000238685               0.999999987               0.000879618               0.000228840               0.999999987               0.000876636               0.000214710               0.999999987               0.000871252               0.000195387               0.999999987               0.000863082               0.000169932               0.999999987               0.000852005               0.000137589               0.999999987               0.000838125               0.000097810               0.999999987               0.000821892               0.000049971               0.999999987               0.000832413               0.000488620               0.999999987               0.000819745               0.000391063               0.999999987               0.000805706               0.000353007               0.999999987               0.000796436               0.000340162               0.999999987               0.000791509               0.000338188               0.999999987               0.000789213               0.000340205               0.999999987               0.000787651               0.000342331               0.999999987               0.000785609               0.000342244               0.999999987               0.000782024               0.000338673               0.999999987               0.000776283               0.000330799               0.999999987               0.000767729               0.000318013               0.999999987               0.000755981               0.000299917               0.999999987               0.000740767               0.000275893               0.999999987               0.000722218               0.000245238               0.999999987               0.000700605               0.000207821               0.999999987               0.000676542               0.000163929               0.999999987               0.000651064               0.000114259               0.999999987               0.000789396               0.000602449               0.999999987               0.000749416               0.000488103               0.999999987               0.000724102               0.000447366               0.999999987               0.000709913               0.000435939               0.999999987               0.000702280               0.000436111               0.999999987               0.000697272               0.000439794               0.999999987               0.000692151               0.000442832               0.999999987               0.000685297               0.000442698               0.999999987               0.000675662               0.000438185               0.999999987               0.000662437               0.000428443               0.999999987               0.000645133               0.000412783               0.999999987               0.000623620               0.000391069               0.999999987               0.000598093               0.000363301               0.999999987               0.000569021               0.000329414               0.999999987               0.000537166               0.000289652               0.999999987               0.000503522               0.000245196               0.999999987               0.000469129               0.000197865               0.999999987               0.000738670               0.000710787               0.999999987               0.000671126               0.000584987               0.999999987               0.000637221               0.000544177               0.999999987               0.000620540               0.000535146               0.999999987               0.000611525               0.000537744               0.999999987               0.000604376               0.000543010               0.999999987               0.000595659               0.000546618               0.999999987               0.000583614               0.000546372               0.999999987               0.000567189               0.000540764               0.999999987               0.000545721               0.000528954               0.999999987               0.000519162               0.000510558               0.999999987               0.000487585               0.000485718               0.999999987               0.000451665               0.000455334               0.999999987               0.000412095               0.000419566               0.999999987               0.000369975               0.000379486               0.999999987               0.000326419               0.000336773               0.999999987               0.000282461               0.000293098               0.999999987               0.000681407               0.000812439               0.999999987               0.000588707               0.000681350               0.999999987               0.000550023               0.000642340               0.999999987               0.000533500               0.000635849               0.999999987               0.000524306               0.000640575               0.999999987               0.000515216               0.000647081               0.999999987               0.000502641               0.000651221               0.999999987               0.000484879               0.000650564               0.999999987               0.000460797               0.000643616               0.999999987               0.000430243               0.000629805               0.999999987               0.000393384               0.000609071               0.999999987               0.000350848               0.000582052               0.999999987               0.000303521               0.000549969               0.999999987               0.000252494               0.000513872               0.999999987               0.000199227               0.000475278               0.999999987               0.000145051               0.000435857               0.999999987               0.000090967               0.000396721               0.999999987               0.000619362               0.000905566               0.999999987               0.000504867               0.000777142               0.999999987               0.000466780               0.000740362               0.999999987               0.000452415               0.000735738               0.999999987               0.000443675               0.000742082               0.999999987               0.000432603               0.000749648               0.999999987               0.000415747               0.000754147               0.999999987               0.000391362               0.000752795               0.999999987               0.000358563               0.000744397               0.999999987               0.000317626               0.000728721               0.999999987               0.000269152               0.000705980               0.999999987               0.000214200               0.000677505               0.999999987               0.000154027               0.000645074               0.999999987               0.000090419               0.000610568               0.999999987               0.000025524               0.000575488               0.999999987              -0.000039304               0.000541136               0.999999987              -0.000103675               0.000507898               0.999999987               0.000555042               0.000993921               0.999999987               0.000434344               0.000885042               0.999999987               0.000394117               0.000845397               0.999999987               0.000379618               0.000836753               0.999999987               0.000372133               0.000840939               0.999999987               0.000363627               0.000849145               0.999999987               0.000350396               0.000856774               0.999999987               0.000330480               0.000861109               0.999999987               0.000302853               0.000860591               0.999999987               0.000267563               0.000854433               0.999999987               0.000224753               0.000842444               0.999999987               0.000174893               0.000825038               0.999999987               0.000118596               0.000803370               0.999999987               0.000057104               0.000778948               0.999999987              -0.000007690               0.000753491               0.999999987              -0.000073917               0.000728217               0.999999987              -0.000140130               0.000704173               0.999999987               0.000485047               0.001074656               0.999999987               0.000366188               0.000989658               0.999999987               0.000324083               0.000953172               0.999999987               0.000308662               0.000942783               0.999999987               0.000301608               0.000945702               0.999999987               0.000294866               0.000954501               0.999999987               0.000284716               0.000964924               0.999999987               0.000268781               0.000974143               0.999999987               0.000245938               0.000980579               0.999999987               0.000216063               0.000983151               0.999999987               0.000179242               0.000981184               0.999999987               0.000135307               0.000974501               0.999999987               0.000084076               0.000963628               0.999999987               0.000026208               0.000949518               0.999999987              -0.000036965               0.000933460               0.999999987              -0.000103575               0.000916840               0.999999987              -0.000171808               0.000900928               0.999999987               0.000410816               0.001145643               0.999999987               0.000300506               0.001087754               0.999999987               0.000258296               0.001058804               0.999999987               0.000241888               0.001049721               0.999999987               0.000234467               0.001052898               0.999999987               0.000228836               0.001062786               0.999999987               0.000220953               0.001075832               0.999999987               0.000208492               0.001089533               0.999999987               0.000190041               0.001102073               0.999999987               0.000165383               0.001112432               0.999999987               0.000134500               0.001119824               0.999999987               0.000096885               0.001123592               0.999999987               0.000052065               0.001123593               0.999999987              -0.000000408               0.001120275               0.999999987              -0.000059997               0.001114468               0.999999987              -0.000125447               0.001107099               0.999999987              -0.000195227               0.001099503               0.999999987               0.000332978               0.001205538               0.999999987               0.000237353               0.001175210               0.999999987               0.000197776               0.001156856               0.999999987               0.000181052               0.001151912               0.999999987               0.000173241               0.001157069               0.999999987               0.000168017               0.001168984               0.999999987               0.000161765               0.001184863               0.999999987               0.000152246               0.001202675               0.999999987               0.000137859               0.001220841               0.999999987               0.000118252               0.001238126               0.999999987               0.000093273               0.001253741               0.999999987               0.000062418               0.001267066               0.999999987               0.000024866               0.001277637               0.999999987              -0.000020240               0.001285263               0.999999987              -0.000073484               0.001290220               0.999999987              -0.000134642               0.001293043               0.999999987              -0.000203393               0.001294689               0.999999987               0.000252271               0.001253106               0.999999987               0.000176343               0.001247938               0.999999987               0.000142582               0.001241586               0.999999987               0.000127163               0.001242459               0.999999987               0.000119564               0.001251025               0.999999987               0.000114715               0.001265601               0.999999987               0.000109818               0.001284617               0.999999987               0.000102699               0.001306489               0.999999987               0.000092029               0.001329713               0.999999987               0.000077279               0.001353212               0.999999987               0.000058328               0.001376037               0.999999987               0.000034743               0.001397711               0.999999987               0.000005422               0.001417671               0.999999987              -0.000030654               0.001435493               0.999999987              -0.000074643               0.001450983               0.999999987              -0.000127390               0.001464343               0.999999987              -0.000189491               0.001475814               0.999999987               0.000169409               0.001287606               0.999999987               0.000116869               0.001302369               0.999999987               0.000092106               0.001307073               0.999999987               0.000080124               0.001314171               0.999999987               0.000073877               0.001326570               0.999999987               0.000069991               0.001344129               0.999999987               0.000066272               0.001366017               0.999999987               0.000061539               0.001391229               0.999999987               0.000054466               0.001418628               0.999999987               0.000044599               0.001447195               0.999999987               0.000031722               0.001476104               0.999999987               0.000015715               0.001504691               0.999999987              -0.000004253               0.001532477               0.999999987              -0.000029507               0.001558937               0.999999987              -0.000061261               0.001583541               0.999999987              -0.000100689               0.001606133               0.999999987              -0.000149058               0.001626592               0.999999987               0.000085085               0.001308491               0.999999987               0.000058280               0.001336057               0.999999987               0.000045118               0.001348416               0.999999987               0.000038587               0.001360268               0.999999987               0.000035066               0.001375773               0.999999987               0.000032808               0.001395707               0.999999987               0.000030771               0.001419751               0.999999987               0.000028300               0.001447136               0.999999987               0.000024860               0.001477218               0.999999987               0.000019964               0.001509101               0.999999987               0.000013405               0.001542056               0.999999987               0.000005334               0.001575396               0.999999987              -0.000004761               0.001608579               0.999999987              -0.000017819               0.001641133               0.999999987              -0.000034470               0.001672496               0.999999987              -0.000055823               0.001702100               0.999999987              -0.000083089               0.001729268               0.999999987               0.000000000               0.001315411               0.999999987              -0.000000000               0.001347483               0.999999987               0.000000000               0.001362632               0.999999987               0.000000000               0.001376152               0.999999987               0.000000000               0.001392946               0.999999987               0.000000000               0.001413820               0.999999987               0.000000000               0.001438527               0.999999987               0.000000000               0.001466613               0.999999987               0.000000000               0.001497683               0.999999987              -0.000000000               0.001530809               0.999999987              -0.000000000               0.001565175               0.999999987               0.000000000               0.001600163               0.999999987               0.000000000               0.001635336               0.999999987              -0.000000000               0.001670306               0.999999987              -0.000000000               0.001704341               0.999999987              -0.000000000               0.001736743               0.999999987               0.000000000               0.001766539               0.999999987 </DataArray>
<DataArray type="Float64"                                    Name="defo"                                                      NumberOfComponents=" 3" format="ascii">
             -0.000912009              -0.000000000               0.999999987              -0.000959374               0.000000000               0.999999987              -0.000978620              -0.000000000               0.999999987              -0.000988551               0.000000000               0.999999987              -0.000996131               0.000000000               0.999999987              -0.001003726               0.000000000               0.999999987              -0.001012092               0.000000000               0.999999987              -0.001021536               0.000000000               0.999999987              -0.001031892               0.000000000               0.999999987              -0.001042896               0.000000000               0.999999987              -0.001054112               0.000000000               0.999999987              -0.001065102               0.000000000               0.999999987              -0.001075418               0.000000000               0.999999987              -0.001084702               0.000000000               0.999999987              -0.001092265              -0.000000000               0.999999987              -0.001097384              -0.000000000               0.999999987              -0.001099207              -0.000000000               0.999999987              -0.000906864               0.000124973               0.999999987              -0.000950059               0.000098321               0.999999987              -0.000966608               0.000085871               0.999999987              -0.000974824               0.000080302               0.999999987              -0.000981187               0.000078134               0.999999987              -0.000987830               0.000077634               0.999999987              -0.000995448               0.000077635               0.999999987              -0.001004050               0.000077431               0.999999987              -0.001013356               0.000076640               0.999999987              -0.001023018               0.000074710               0.999999987              -0.001032584               0.000071313               0.999999987              -0.001041692               0.000066296               0.999999987              -0.001049964               0.000059245               0.999999987              -0.001056920               0.000049733               0.999999987              -0.001061983               0.000037015               0.999999987              -0.001064525               0.000020187               0.999999987              -0.001063789              -0.000002058               0.999999987              -0.000891675               0.000248827               0.999999987              -0.000922692               0.000196333               0.999999987              -0.000931667               0.000172726               0.999999987              -0.000935140               0.000162745               0.999999987              -0.000938334               0.000159254               0.999999987              -0.000942577               0.000158826               0.999999987              -0.000947907               0.000159233               0.999999987              -0.000953914               0.000159019               0.999999987              -0.000960143               0.000157349               0.999999987              -0.000966109               0.000153399               0.999999987              -0.000971384               0.000146754               0.999999987              -0.000975556               0.000137075               0.999999987              -0.000978235               0.000123445               0.999999987              -0.000978995               0.000105131               0.999999987              -0.000977268               0.000081281               0.999999987              -0.000972773               0.000050650               0.999999987              -0.000965383               0.000011802               0.999999987              -0.000866720               0.000370412               0.999999987              -0.000878496               0.000293887               0.999999987              -0.000876616               0.000261530               0.999999987              -0.000873799               0.000249016               0.999999987              -0.000872761               0.000245634               0.999999987              -0.000873722               0.000246133               0.999999987              -0.000875781               0.000247345               0.999999987              -0.000878081               0.000247216               0.999999987              -0.000879867               0.000244540               0.999999987              -0.000880552               0.000238685               0.999999987              -0.000879618               0.000228840               0.999999987              -0.000876636               0.000214710               0.999999987              -0.000871252               0.000195387               0.999999987              -0.000863082               0.000169932               0.999999987              -0.000852005               0.000137589               0.999999987              -0.000838125               0.000097810               0.999999987              -0.000821892               0.000049971               0.999999987              -0.000832413               0.000488620               0.999999987              -0.000819745               0.000391063               0.999999987              -0.000805706               0.000353007               0.999999987              -0.000796436               0.000340162               0.999999987              -0.000791509               0.000338188               0.999999987              -0.000789213               0.000340205               0.999999987              -0.000787651               0.000342331               0.999999987              -0.000785609               0.000342244               0.999999987              -0.000782024               0.000338673               0.999999987              -0.000776283               0.000330799               0.999999987              -0.000767729               0.000318013               0.999999987              -0.000755981               0.000299917               0.999999987              -0.000740767               0.000275893               0.999999987              -0.000722218               0.000245238               0.999999987              -0.000700605               0.000207821               0.999999987              -0.000676542               0.000163929               0.999999987              -0.000651064               0.000114259               0.999999987              -0.000789396               0.000602449               0.999999987              -0.000749416               0.000488103               0.999999987              -0.000724102               0.000447366               0.999999987              -0.000709913               0.000435939               0.999999987              -0.000702280               0.000436111               0.999999987              -0.000697272               0.000439794               0.999999987              -0.000692151               0.000442832               0.999999987              -0.000685297               0.000442698               0.999999987              -0.000675662               0.000438185               0.999999987              -0.000662437               0.000428443               0.999999987              -0.000645133               0.000412783               0.999999987              -0.000623620               0.000391069               0.999999987              -0.000598093               0.000363301               0.999999987              -0.000569021               0.000329414               0.999999987              -0.000537166               0.000289652               0.999999987              -0.000503522               0.000245196               0.999999987              -0.000469129               0.000197865               0.999999987              -0.000738670               0.000710787               0.999999987              -0.000671126               0.000584987               0.999999987              -0.000637221               0.000544177               0.999999987              -0.000620540               0.000535146               0.999999987              -0.000611525               0.000537744               0.999999987              -0.000604376               0.000543010               0.999999987              -0.000595659               0.000546618               0.999999987              -0.000583614               0.000546372               0.999999987              -0.000567189               0.000540764               0.999999987              -0.000545721               0.000528954               0.999999987              -0.000519162               0.000510558               0.999999987              -0.000487585               0.000485718               0.999999987              -0.000451665               0.000455334               0.999999987              -0.000412095               0.000419566               0.999999987              -0.000369975               0.000379486               0.999999987              -0.000326419               0.000336773               0.999999987              -0.000282461               0.000293098               0.999999987              -0.000681407               0.000812439               0.999999987              -0.000588707               0.000681350               0.999999987              -0.000550023               0.000642340               0.999999987              -0.000533500               0.000635849               0.999999987              -0.000524306               0.000640575               0.999999987              -0.000515216               0.000647081               0.999999987              -0.000502641               0.000651221               0.999999987              -0.000484879               0.000650564               0.999999987              -0.000460797               0.000643616               0.999999987              -0.000430243               0.000629805               0.999999987              -0.000393384               0.000609071               0.999999987              -0.000350848               0.000582052               0.999999987              -0.000303521               0.000549969               0.999999987              -0.000252494               0.000513872               0.999999987              -0.000199227               0.000475278               0.999999987              -0.000145051               0.000435857               0.999999987              -0.000090967               0.000396721               0.999999987              -0.000619362               0.000905566               0.999999987              -0.000504867               0.000777142               0.999999987              -0.000466780               0.000740362               0.999999987              -0.000452415               0.000735738               0.999999987              -0.000443675               0.000742082               0.999999987              -0.000432603               0.000749648               0.999999987              -0.000415747               0.000754147               0.999999987              -0.000391362               0.000752795               0.999999987              -0.000358563               0.000744397               0.999999987              -0.000317626               0.000728721               0.999999987              -0.000269152               0.000705980               0.999999987              -0.000214200               0.000677505               0.999999987              -0.000154027               0.000645074               0.999999987              -0.000090419               0.000610568               0.999999987              -0.000025524               0.000575488               0.999999987               0.000039304               0.000541136               0.999999987               0.000103675               0.000507898               0.999999987              -0.000555042               0.000993921               0.999999987              -0.000434344               0.000885042               0.999999987              -0.000394117               0.000845397               0.999999987              -0.000379618               0.000836753               0.999999987              -0.000372133               0.000840939               0.999999987              -0.000363627               0.000849145               0.999999987              -0.000350396               0.000856774               0.999999987              -0.000330480               0.000861109               0.999999987              -0.000302853               0.000860591               0.999999987              -0.000267563               0.000854433               0.999999987              -0.000224753               0.000842444               0.999999987              -0.000174893               0.000825038               0.999999987              -0.000118596               0.000803370               0.999999987              -0.000057104               0.000778948               0.999999987               0.000007690               0.000753491               0.999999987               0.000073917               0.000728217               0.999999987               0.000140130               0.000704173               0.999999987              -0.000485047               0.001074656               0.999999987              -0.000366188               0.000989658               0.999999987              -0.000324083               0.000953172               0.999999987              -0.000308662               0.000942783               0.999999987              -0.000301608               0.000945702               0.999999987              -0.000294866               0.000954501               0.999999987              -0.000284716               0.000964924               0.999999987              -0.000268781               0.000974143               0.999999987              -0.000245938               0.000980579               0.999999987              -0.000216063               0.000983151               0.999999987              -0.000179242               0.000981184               0.999999987              -0.000135307               0.000974501               0.999999987              -0.000084076               0.000963628               0.999999987              -0.000026208               0.000949518               0.999999987               0.000036965               0.000933460               0.999999987               0.000103575               0.000916840               0.999999987               0.000171808               0.000900928               0.999999987              -0.000410816               0.001145643               0.999999987              -0.000300506               0.001087754               0.999999987              -0.000258296               0.001058804               0.999999987              -0.000241888               0.001049721               0.999999987              -0.000234467               0.001052898               0.999999987              -0.000228836               0.001062786               0.999999987              -0.000220953               0.001075832               0.999999987              -0.000208492               0.001089533               0.999999987              -0.000190041               0.001102073               0.999999987              -0.000165383               0.001112432               0.999999987              -0.000134500               0.001119824               0.999999987              -0.000096885               0.001123592               0.999999987              -0.000052065               0.001123593               0.999999987               0.000000408               0.001120275               0.999999987               0.000059997               0.001114468               0.999999987               0.000125447               0.001107099               0.999999987               0.000195227               0.001099503               0.999999987              -0.000332978               0.001205538               0.999999987              -0.000237353               0.001175210               0.999999987              -0.000197776               0.001156856               0.999999987              -0.000181052               0.001151912               0.999999987              -0.000173241               0.001157069               0.999999987              -0.000168017               0.001168984               0.999999987              -0.000161765               0.001184863               0.999999987              -0.000152246               0.001202675               0.999999987              -0.000137859               0.001220841               0.999999987              -0.000118252               0.001238126               0.999999987              -0.000093273               0.001253741               0.999999987              -0.000062418               0.001267066               0.999999987              -0.000024866               0.001277637               0.999999987               0.000020240               0.001285263               0.999999987               0.000073484               0.001290220               0.999999987               0.000134642               0.001293043               0.999999987               0.000203393               0.001294689               0.999999987              -0.000252271               0.001253106               0.999999987              -0.000176343               0.001247938               0.999999987              -0.000142582               0.001241586               0.999999987              -0.000127163               0.001242459               0.999999987              -0.000119564               0.001251025               0.999999987              -0.000114715               0.001265601               0.999999987              -0.000109818               0.001284617               0.999999987              -0.000102699               0.001306489               0.999999987              -0.000092029               0.001329713               0.999999987              -0.000077279               0.001353212               0.999999987              -0.000058328               0.001376037               0.999999987              -0.000034743               0.001397711               0.999999987              -0.000005422               0.001417671               0.999999987               0.000030654               0.001435493               0.999999987               0.000074643               0.001450983               0.999999987               0.000127390               0.001464343               0.999999987               0.000189491               0.001475814               0.999999987              -0.000169409               0.001287606               0.999999987              -0.000116869               0.001302369               0.999999987              -0.000092106               0.001307073               0.999999987              -0.000080124               0.001314171               0.999999987              -0.000073877               0.001326570               0.999999987              -0.000069991               0.001344129               0.999999987              -0.000066272               0.001366017               0.999999987              -0.000061539               0.001391229               0.999999987              -0.000054466               0.001418628               0.999999987              -0.000044599               0.001447195               0.999999987              -0.000031722               0.001476104               0.999999987              -0.000015715               0.001504691               0.999999987               0.000004253               0.001532477               0.999999987               0.000029507               0.001558937               0.999999987               0.000061261               0.001583541               0.999999987               0.000100689               0.001606133               0.999999987               0.000149058               0.001626592               0.999999987              -0.000085085               0.001308491               0.999999987              -0.000058280               0.001336057               0.999999987              -0.000045118               0.001348416               0.999999987              -0.000038587               0.001360268               0.999999987              -0.000035066               0.001375773               0.999999987              -0.000032808               0.001395707               0.999999987              -0.000030771               0.001419751               0.999999987              -0.000028300               0.001447136               0.999999987              -0.000024860               0.001477218               0.999999987              -0.000019964               0.001509101               0.999999987              -0.000013405               0.001542056               0.999999987              -0.000005334               0.001575396               0.999999987               0.000004761               0.001608579               0.999999987               0.000017819               0.001641133               0.999999987               0.000034470               0.001672496               0.999999987               0.000055823               0.001702100               0.999999987               0.000083089               0.001729268               0.999999987               0.000000000               0.001315411               0.999999987              -0.000000000               0.001347483               0.999999987               0.000000000               0.001362632               0.999999987               0.000000000               0.001376152               0.999999987               0.000000000               0.001392946               0.999999987               0.000000000               0.001413820               0.999999987               0.000000000               0.001438527               0.999999987               0.000000000               0.001466613               0.999999987               0.000000000               0.001497683               0.999999987              -0.000000000               0.001530809               0.999999987              -0.000000000               0.001565175               0.999999987               0.000000000               0.001600163               0.999999987               0.000000000               0.001635336               0.999999987              -0.000000000               0.001670306               0.999999987              -0.000000000               0.001704341               0.999999987              -0.000000000               0.001736743               0.999999987               0.000000000               0.001766539               0.999999987              -0.000912009              -0.000000000               0.999999987              -0.000959374               0.000000000               0.999999987              -0.000978620              -0.000000000               0.999999987              -0.000988551               0.000000000               0.999999987              -0.000996131               0.000000000               0.999999987              -0.001003726               0.000000000               0.999999987              -0.001012092               0.000000000               0.999999987              -0.001021536               0.000000000               0.999999987              -0.001031892               0.000000000               0.999999987              -0.001042896               0.000000000               0.999999987              -0.001054112               0.000000000               0.999999987              -0.001065102               0.000000000               0.999999987              -0.001075418               0.000000000               0.999999987              -0.001084702               0.000000000               0.999999987              -0.001092265              -0.000000000               0.999999987              -0.001097384              -0.000000000               0.999999987              -0.001099207              -0.000000000               0.999999987              -0.000906864              -0.000124973               0.999999987              -0.000950059              -0.000098321               0.999999987              -0.000966608              -0.000085871               0.999999987              -0.000974824              -0.000080302               0.999999987              -0.000981187              -0.000078134               0.999999987              -0.000987830              -0.000077634               0.999999987              -0.000995448              -0.000077635               0.999999987              -0.001004050              -0.000077431               0.999999987              -0.001013356              -0.000076640               0.999999987              -0.001023018              -0.000074710               0.999999987              -0.001032584              -0.000071313               0.999999987              -0.001041692              -0.000066296               0.999999987              -0.001049964              -0.000059245               0.999999987              -0.001056920              -0.000049733               0.999999987              -0.001061983              -0.000037015               0.999999987              -0.001064525              -0.000020187               0.999999987              -0.001063789               0.000002058               0.999999987              -0.000891675              -0.000248827               0.999999987              -0.000922692              -0.000196333               0.999999987              -0.000931667              -0.000172726               0.999999987              -0.000935140              -0.000162745               0.999999987              -0.000938334              -0.000159254               0.999999987              -0.000942577              -0.000158826               0.999999987              -0.000947907              -0.000159233               0.999999987              -0.000953914              -0.000159019               0.999999987              -0.000960143              -0.000157349               0.999999987              -0.000966109              -0.000153399               0.999999987              -0.000971384              -0.000146754               0.999999987              -0.000975556              -0.000137075               0.999999987              -0.000978235              -0.000123445               0.999999987              -0.000978995              -0.000105131               0.999999987              -0.000977268              -0.000081281               0.999999987              -0.000972773              -0.000050650               0.999999987              -0.000965383              -0.000011802               0.999999987              -0.000866720              -0.000370412               0.999999987              -0.000878496              -0.000293887               0.999999987              -0.000876616              -0.000261530               0.999999987              -0.000873799              -0.000249016               0.999999987              -0.000872761              -0.000245634               0.999999987              -0.000873722              -0.000246133               0.999999987              -0.000875781              -0.000247345               0.999999987              -0.000878081              -0.000247216               0.999999987              -0.000879867              -0.000244540               0.999999987              -0.000880552              -0.000238685               0.999999987              -0.000879618              -0.000228840               0.999999987              -0.000876636              -0.000214710               0.999999987              -0.000871252              -0.000195387               0.999999987              -0.000863082              -0.000169932               0.999999987              -0.000852005              -0.000137589               0.999999987              -0.000838125              -0.000097810               0.999999987              -0.000821892              -0.000049971               0.999999987              -0.000832413              -0.000488620               0.999999987              -0.000819745              -0.000391063               0.999999987              -0.000805706              -0.000353007               0.999999987              -0.000796436              -0.000340162               0.999999987              -0.000791509              -0.000338188               0.999999987              -0.000789213              -0.000340205               0.999999987              -0.000787651              -0.000342331               0.999999987              -0.000785609              -0.000342244               0.999999987              -0.000782024              -0.000338673               0.999999987              -0.000776283              -0.000330799               0.999999987              -0.000767729              -0.000318013               0.999999987              -0.000755981              -0.000299917               0.999999987              -0.000740767              -0.000275893               0.999999987              -0.000722218              -0.000245238               0.999999987              -0.000700605              -0.000207821               0.999999987              -0.000676542              -0.000163929               0.999999987              -0.000651064              -0.000114259               0.999999987              -0.000789396              -0.000602449               0.999999987              -0.000749416              -0.000488103               0.999999987              -0.000724102              -0.000447366               0.999999987              -0.000709913              -0.000435939               0.999999987              -0.000702280              -0.000436111               0.999999987              -0.000697272              -0.000439794               0.999999987              -0.000692151              -0.000442832               0.999999987              -0.000685297              -0.000442698               0.999999987              -0.000675662              -0.000438185               0.999999987              -0.000662437              -0.000428443               0.999999987              -0.000645133              -0.000412783               0.999999987              -0.000623620              -0.000391069               0.999999987              -0.000598093              -0.000363301               0.999999987              -0.000569021              -0.000329414               0.999999987              -0.000537166              -0.000289652               0.999999987              -0.000503522              -0.000245196               0.999999987              -0.000469129              -0.000197865               0.999999987              -0.000738670              -0.000710787               0.999999987              -0.000671126              -0.000584987               0.999999987              -0.000637221              -0.000544177               0.999999987              -0.000620540              -0.000535146               0.999999987              -0.000611525              -0.000537744               0.999999987              -0.000604376              -0.000543010               0.999999987              -0.000595659              -0.000546618               0.999999987              -0.000583614              -0.000546372               0.999999987              -0.000567189              -0.000540764               0.999999987              -0.000545721              -0.000528954               0.999999987              -0.000519162              -0.000510558               0.999999987              -0.000487585              -0.000485718               0.999999987              -0.000451665              -0.000455334               0.999999987              -0.000412095              -0.000419566               0.999999987              -0.000369975              -0.000379486               0.999999987              -0.000326419              -0.000336773               0.999999987              -0.000282461              -0.000293098               0.999999987              -0.000681407              -0.000812439               0.999999987              -0.000588707              -0.000681350               0.999999987              -0.000550023              -0.000642340               0.999999987              -0.000533500              -0.000635849               0.999999987              -0.000524306              -0.000640575               0.999999987              -0.000515216              -0.000647081               0.999999987              -0.000502641              -0.000651221               0.999999987              -0.000484879              -0.000650564               0.999999987              -0.000460797              -0.000643616               0.999999987              -0.000430243              -0.000629805               0.999999987              -0.000393384              -0.000609071               0.999999987              -0.000350848              -0.000582052               0.999999987              -0.000303521              -0.000549969               0.999999987              -0.000252494              -0.000513872               0.999999987              -0.000199227              -0.000475278               0.999999987              -0.000145051              -0.000435857               0.999999987              -0.000090967              -0.000396721               0.999999987              -0.000619362              -0.000905566               0.999999987              -0.000504867              -0.000777142               0.999999987              -0.000466780              -0.000740362               0.999999987              -0.000452415              -0.000735738               0.999999987              -0.000443675              -0.000742082               0.999999987              -0.000432603              -0.000749648               0.999999987              -0.000415747              -0.000754147               0.999999987              -0.000391362              -0.000752795               0.999999987              -0.000358563              -0.000744397               0.999999987              -0.000317626              -0.000728721               0.999999987              -0.000269152              -0.000705980               0.999999987              -0.000214200              -0.000677505               0.999999987              -0.000154027              -0.000645074               0.999999987              -0.000090419              -0.000610568               0.999999987              -0.000025524              -0.000575488               0.999999987               0.000039304              -0.000541136               0.999999987               0.000103675              -0.000507898               0.999999987              -0.000555042              -0.000993921               0.999999987              -0.000434344              -0.000885042               0.999999987              -0.000394117              -0.000845397               0.999999987              -0.000379618              -0.000836753               0.999999987              -0.000372133              -0.000840939               0.999999987              -0.000363627              -0.000849145               0.999999987              -0.000350396              -0.000856774               0.999999987              -0.000330480              -0.000861109               0.999999987              -0.000302853              -0.000860591               0.999999987              -0.000267563              -0.000854433               0.999999987              -0.000224753              -0.000842444               0.999999987              -0.000174893              -0.000825038               0.999999987              -0.000118596              -0.000803370               0.999999987              -0.000057104              -0.000778948               0.999999987               0.000007690              -0.000753491               0.999999987               0.000073917              -0.000728217               0.999999987               0.000140130              -0.000704173               0.999999987              -0.000485047              -0.001074656               0.999999987              -0.000366188              -0.000989658               0.999999987              -0.000324083              -0.000953172               0.999999987              -0.000308662              -0.000942783               0.999999987              -0.000301608              -0.000945702               0.999999987              -0.000294866              -0.000954501               0.999999987              -0.000284716              -0.000964924               0.999999987              -0.000268781              -0.000974143               0.999999987              -0.000245938              -0.000980579               0.999999987              -0.000216063              -0.000983151               0.999999987              -0.000179242              -0.000981184               0.999999987              -0.000135307              -0.000974501               0.999999987              -0.000084076              -0.000963628               0.999999987              -0.000026208              -0.000949518               0.999999987               0.000036965              -0.000933460               0.999999987               0.000103575              -0.000916840               0.999999987               0.000171808              -0.000900928               0.999999987              -0.000410816              -0.001145643               0.999999987              -0.000300506              -0.001087754               0.999999987              -0.000258296              -0.001058804               0.999999987              -0.000241888              -0.001049721               0.999999987              -0.000234467              -0.001052898               0.999999987              -0.000228836              -0.001062786               0.999999987              -0.000220953              -0.001075832               0.999999987              -0.000208492              -0.001089533               0.999999987              -0.000190041              -0.001102073               0.999999987              -0.000165383              -0.001112432               0.999999987              -0.000134500              -0.001119824               0.999999987              -0.000096885              -0.001123592               0.999999987              -0.000052065              -0.001123593               0.999999987               0.000000408              -0.001120275               0.999999987               0.000059997              -0.001114468               0.999999987               0.000125447              -0.001107099               0.999999987               0.000195227              -0.001099503               0.999999987              -0.000332978              -0.001205538               0.999999987              -0.000237353              -0.001175210               0.999999987              -0.000197776              -0.001156856               0.999999987              -0.000181052              -0.001151912               0.999999987              -0.000173241              -0.001157069               0.999999987              -0.000168017              -0.001168984               0.999999987              -0.000161765              -0.001184863               0.999999987              -0.000152246              -0.001202675               0.999999987              -0.000137859              -0.001220841               0.999999987              -0.000118252              -0.001238126               0.999999987              -0.000093273              -0.001253741               0.999999987              -0.000062418              -0.001267066               0.999999987              -0.000024866              -0.001277637               0.999999987               0.000020240              -0.001285263               0.999999987               0.000073484              -0.001290220               0.999999987               0.000134642              -0.001293043               0.999999987               0.000203393              -0.001294689               0.999999987              -0.000252271              -0.001253106               0.999999987              -0.000176343              -0.001247938               0.999999987              -0.000142582              -0.001241586               0.999999987              -0.000127163              -0.001242459               0.999999987              -0.000119564              -0.001251025               0.999999987              -0.000114715              -0.001265601               0.999999987              -0.000109818              -0.001284617               0.999999987              -0.000102699              -0.001306489               0.999999987              -0.000092029              -0.001329713               0.999999987              -0.000077279              -0.001353212               0.999999987              -0.000058328              -0.001376037               0.999999987              -0.000034743              -0.001397711               0.999999987              -0.000005422              -0.001417671               0.999999987               0.000030654              -0.001435493               0.999999987               0.000074643              -0.001450983               0.999999987               0.000127390              -0.001464343               0.999999987               0.000189491              -0.001475814               0.999999987              -0.000169409              -0.001287606               0.999999987              -0.000116869              -0.001302369               0.999999987              -0.000092106              -0.001307073               0.999999987              -0.000080124              -0.001314171               0.999999987              -0.000073877              -0.001326570               0.999999987              -0.000069991              -0.001344129               0.999999987              -0.000066272              -0.001366017               0.999999987              -0.000061539              -0.001391229               0.999999987              -0.000054466              -0.001418628               0.999999987              -0.000044599              -0.001447195               0.999999987              -0.000031722              -0.001476104               0.999999987              -0.000015715              -0.001504691               0.999999987               0.000004253              -0.001532477               0.999999987               0.000029507              -0.001558937               0.999999987               0.000061261              -0.001583541               0.999999987               0.000100689              -0.001606133               0.999999987               0.000149058              -0.001626592               0.999999987              -0.000085085              -0.001308491               0.999999987              -0.000058280              -0.001336057               0.999999987              -0.000045118              -0.001348416               0.999999987              -0.000038587              -0.001360268               0.999999987              -0.000035066              -0.001375773               0.999999987              -0.000032808              -0.001395707               0.999999987              -0.000030771              -0.001419751               0.999999987              -0.000028300              -0.001447136               0.999999987              -0.000024860              -0.001477218               0.999999987              -0.000019964              -0.001509101               0.999999987              -0.000013405              -0.001542056               0.999999987              -0.000005334              -0.001575396               0.999999987               0.000004761              -0.001608579               0.999999987               0.000017819              -0.001641133               0.999999987               0.000034470              -0.001672496               0.999999987               0.000055823              -0.001702100               0.999999987               0.000083089              -0.001729268               0.999999987              -0.000000000              -0.001315411               0.999999987               0.000000000              -0.001347483               0.999999987               0.000000000              -0.001362632               0.999999987              -0.000000000              -0.001376152               0.999999987              -0.000000000              -0.001392946               0.999999987               0.000000000              -0.001413820               0.999999987               0.000000000              -0.001438527               0.999999987               0.000000000              -0.001466613               0.999999987               0.000000000              -0.001497683               0.999999987               0.000000000              -0.001530809               0.999999987              -0.000000000              -0.001565175               0.999999987               0.000000000              -0.001600163               0.999999987              -0.000000000              -0.001635336               0.999999987              -0.000000000              -0.001670306               0.999999987               0.000000000              -0.001704341               0.999999987               0.000000000              -0.001736743               0.999999987               0.000000000              -0.001766539               0.999999987               0.000912009               0.000000000               0.999999987               0.000959374               0.000000000               0.999999987               0.000978620               0.000000000               0.999999987               0.000988551               0.000000000               0.999999987               0.000996131               0.000000000               0.999999987               0.001003726               0.000000000               0.999999987               0.001012092               0.000000000               0.999999987               0.001021536              -0.000000000               0.999999987               0.001031892               0.000000000               0.999999987               0.001042896               0.000000000               0.999999987               0.001054112              -0.000000000               0.999999987               0.001065102              -0.000000000               0.999999987               0.001075418              -0.000000000               0.999999987               0.001084702               0.000000000               0.999999987               0.001092265               0.000000000               0.999999987               0.001097384              -0.000000000               0.999999987               0.001099207              -0.000000000               0.999999987               0.000906864              -0.000124973               0.999999987               0.000950059              -0.000098321               0.999999987               0.000966608              -0.000085871               0.999999987               0.000974824              -0.000080302               0.999999987               0.000981187              -0.000078134               0.999999987               0.000987830              -0.000077634               0.999999987               0.000995448              -0.000077635               0.999999987               0.001004050              -0.000077431               0.999999987               0.001013356              -0.000076640               0.999999987               0.001023018              -0.000074710               0.999999987               0.001032584              -0.000071313               0.999999987               0.001041692              -0.000066296               0.999999987               0.001049964              -0.000059245               0.999999987               0.001056920              -0.000049733               0.999999987               0.001061983              -0.000037015               0.999999987               0.001064525              -0.000020187               0.999999987               0.001063789               0.000002058               0.999999987               0.000891675              -0.000248827               0.999999987               0.000922692              -0.000196333               0.999999987               0.000931667              -0.000172726               0.999999987               0.000935140              -0.000162745               0.999999987               0.000938334              -0.000159254               0.999999987               0.000942577              -0.000158826               0.999999987               0.000947907              -0.000159233               0.999999987               0.000953914              -0.000159019               0.999999987               0.000960143              -0.000157349               0.999999987               0.000966109              -0.000153399               0.999999987               0.000971384              -0.000146754               0.999999987               0.000975556              -0.000137075               0.999999987               0.000978235              -0.000123445               0.999999987               0.000978995              -0.000105131               0.999999987               0.000977268              -0.000081281               0.999999987               0.000972773              -0.000050650               0.999999987               0.000965383              -0.000011802               0.999999987               0.000866720              -0.000370412               0.999999987               0.000878496              -0.000293887               0.999999987               0.000876616              -0.000261530               0.999999987               0.000873799              -0.000249016               0.999999987               0.000872761              -0.000245634               0.999999987               0.000873722              -0.000246133               0.999999987               0.000875781              -0.000247345               0.999999987               0.000878081              -0.000247216               0.999999987               0.000879867              -0.000244540               0.999999987               0.000880552              -0.000238685               0.999999987               0.000879618              -0.000228840               0.999999987               0.000876636              -0.000214710               0.999999987               0.000871252              -0.000195387               0.999999987               0.000863082              -0.000169932               0.999999987               0.000852005              -0.000137589               0.999999987               0.000838125              -0.000097810               0.999999987               0.000821892              -0.000049971               0.999999987               0.000832413              -0.000488620               0.999999987               0.000819745              -0.000391063               0.999999987               0.000805706              -0.000353007               0.999999987               0.000796436              -0.000340162               0.999999987               0.000791509              -0.000338188               0.999999987               0.000789213              -0.000340205               0.999999987               0.000787651              -0.000342331               0.999999987               0.000785609              -0.000342244               0.999999987               0.000782024              -0.000338673               0.999999987               0.000776283              -0.000330799               0.999999987               0.000767729              -0.000318013               0.999999987               0.000755981              -0.000299917               0.999999987               0.000740767              -0.000275893               0.999999987               0.000722218              -0.000245238               0.999999987               0.000700605              -0.000207821               0.999999987               0.000676542              -0.000163929               0.999999987               0.000651064              -0.000114259               0.999999987               0.000789396              -0.000602449               0.999999987               0.000749416              -0.000488103               0.999999987               0.000724102              -0.000447366               0.999999987               0.000709913              -0.000435939               0.999999987               0.000702280              -0.000436111               0.999999987               0.000697272              -0.000439794               0.999999987               0.000692151              -0.000442832               0.999999987               0.000685297              -0.000442698               0.999999987               0.000675662              -0.000438185               0.999999987               0.000662437              -0.000428443               0.999999987               0.000645133              -0.000412783               0.999999987               0.000623620              -0.000391069               0.999999987               0.000598093              -0.000363301               0.999999987               0.000569021              -0.000329414               0.999999987               0.000537166              -0.000289652               0.999999987               0.000503522              -0.000245196               0.999999987               0.000469129              -0.000197865               0.999999987               0.000738670              -0.000710787               0.999999987               0.000671126              -0.000584987               0.999999987               0.000637221              -0.000544177               0.999999987               0.000620540              -0.000535146               0.999999987               0.000611525              -0.000537744               0.999999987               0.000604376              -0.000543010               0.999999987               0.000595659              -0.000546618               0.999999987               0.000583614              -0.000546372               0.999999987               0.000567189              -0.000540764               0.999999987               0.000545721              -0.000528954               0.999999987               0.000519162              -0.000510558               0.999999987               0.000487585              -0.000485718               0.999999987               0.000451665              -0.000455334               0.999999987               0.000412095              -0.000419566               0.999999987               0.000369975              -0.000379486               0.999999987               0.000326419              -0.000336773               0.999999987               0.000282461              -0.000293098               0.999999987               0.000681407              -0.000812439               0.999999987               0.000588707              -0.000681350               0.999999987               0.000550023              -0.000642340               0.999999987               0.000533500              -0.000635849               0.999999987               0.000524306              -0.000640575               0.999999987               0.000515216              -0.000647081               0.999999987               0.000502641              -0.000651221               0.999999987               0.000484879              -0.000650564               0.999999987               0.000460797              -0.000643616               0.999999987               0.000430243              -0.000629805               0.999999987               0.000393384              -0.000609071               0.999999987               0.000350848              -0.000582052               0.999999987               0.000303521              -0.000549969               0.999999987               0.000252494              -0.000513872               0.999999987               0.000199227              -0.000475278               0.999999987               0.000145051              -0.000435857               0.999999987               0.000090967              -0.000396721               0.999999987               0.000619362              -0.000905566               0.999999987               0.000504867              -0.000777142               0.999999987               0.000466780              -0.000740362               0.999999987               0.000452415              -0.000735738               0.999999987               0.000443675              -0.000742082               0.999999987               0.000432603              -0.000749648               0.999999987               0.000415747              -0.000754147               0.999999987               0.000391362              -0.000752795               0.999999987               0.000358563              -0.000744397               0.999999987               0.000317626              -0.000728721               0.999999987               0.000269152              -0.000705980               0.999999987               0.000214200              -0.000677505               0.999999987               0.000154027              -0.000645074               0.999999987               0.000090419              -0.000610568               0.999999987               0.000025524              -0.000575488               0.999999987              -0.000039304              -0.000541136               0.999999987              -0.000103675              -0.000507898               0.999999987               0.000555042              -0.000993921               0.999999987               0.000434344              -0.000885042               0.999999987               0.000394117              -0.000845397               0.999999987               0.000379618              -0.000836753               0.999999987               0.000372133              -0.000840939               0.999999987               0.000363627              -0.000849145               0.999999987               0.000350396              -0.000856774               0.999999987               0.000330480              -0.000861109               0.999999987               0.000302853              -0.000860591               0.999999987               0.000267563              -0.000854433               0.999999987               0.000224753              -0.000842444               0.999999987               0.000174893              -0.000825038               0.999999987               0.000118596              -0.000803370               0.999999987               0.000057104              -0.000778948               0.999999987              -0.000007690              -0.000753491               0.999999987              -0.000073917              -0.000728217               0.999999987              -0.000140130              -0.000704173               0.999999987               0.000485047              -0.001074656               0.999999987               0.000366188              -0.000989658               0.999999987               0.000324083              -0.000953172               0.999999987               0.000308662              -0.000942783               0.999999987               0.000301608              -0.000945702               0.999999987               0.000294866              -0.000954501               0.999999987               0.000284716              -0.000964924               0.999999987               0.000268781              -0.000974143               0.999999987               0.000245938              -0.000980579               0.999999987               0.000216063              -0.000983151               0.999999987               0.000179242              -0.000981184               0.999999987               0.000135307              -0.000974501               0.999999987               0.000084076              -0.000963628               0.999999987               0.000026208              -0.000949518               0.999999987              -0.000036965              -0.000933460               0.999999987              -0.000103575              -0.000916840               0.999999987              -0.000171808              -0.000900928               0.999999987               0.000410816              -0.001145643               0.999999987               0.000300506              -0.001087754               0.999999987               0.000258296              -0.001058804               0.999999987               0.000241888              -0.001049721               0.999999987               0.000234467              -0.001052898               0.999999987               0.000228836              -0.001062786               0.999999987               0.000220953              -0.001075832               0.999999987               0.000208492              -0.001089533               0.999999987               0.000190041              -0.001102073               0.999999987               0.000165383              -0.001112432               0.999999987               0.000134500              -0.001119824               0.999999987               0.000096885              -0.001123592               0.999999987               0.000052065              -0.001123593               0.999999987              -0.000000408              -0.001120275               0.999999987              -0.000059997              -0.001114468               0.999999987              -0.000125447              -0.001107099               0.999999987              -0.000195227              -0.001099503               0.999999987               0.000332978              -0.001205538               0.999999987               0.000237353              -0.001175210               0.999999987               0.000197776              -0.001156856               0.999999987               0.000181052              -0.001151912               0.999999987               0.000173241              -0.001157069               0.999999987               0.000168017              -0.001168984               0.999999987               0.000161765              -0.001184863               0.999999987               0.000152246              -0.001202675               0.999999987               0.000137859              -0.001220841               0.999999987               0.000118252              -0.001238126               0.999999987               0.000093273              -0.001253741               0.999999987               0.000062418              -0.001267066               0.999999987               0.000024866              -0.001277637               0.999999987              -0.000020240              -0.001285263               0.999999987              -0.000073484              -0.001290220               0.999999987              -0.000134642              -0.001293043               0.999999987              -0.000203393              -0.001294689               0.999999987               0.000252271              -0.001253106               0.999999987               0.000176343              -0.001247938               0.999999987               0.000142582              -0.001241586               0.999999987               0.000127163              -0.001242459               0.999999987               0.000119564              -0.001251025               0.999999987               0.000114715              -0.001265601               0.999999987               0.000109818              -0.001284617               0.999999987               0.000102699              -0.001306489               0.999999987               0.000092029              -0.001329713               0.999999987               0.000077279              -0.001353212               0.999999987               0.000058328              -0.001376037               0.999999987               0.000034743              -0.001397711               0.999999987               0.000005422              -0.001417671               0.999999987              -0.000030654              -0.001435493               0.999999987              -0.000074643              -0.001450983               0.999999987              -0.000127390              -0.001464343               0.999999987              -0.000189491              -0.001475814               0.999999987               0.000169409              -0.001287606               0.999999987               0.000116869              -0.001302369               0.999999987               0.000092106              -0.001307073               0.999999987               0.000080124              -0.001314171               0.999999987               0.000073877              -0.001326570               0.999999987               0.000069991              -0.001344129               0.999999987               0.000066272              -0.001366017               0.999999987               0.000061539              -0.001391229               0.999999987               0.000054466              -0.001418628               0.999999987               0.000044599              -0.001447195               0.999999987               0.000031722              -0.001476104               0.999999987               0.000015715              -0.001504691               0.999999987              -0.000004253              -0.001532477               0.999999987              -0.000029507              -0.001558937               0.999999987              -0.000061261              -0.001583541               0.999999987              -0.000100689              -0.001606133               0.999999987              -0.000149058              -0.001626592               0.999999987               0.000085085              -0.001308491               0.999999987               0.000058280              -0.001336057               0.999999987               0.000045118              -0.001348416               0.999999987               0.000038587              -0.001360268               0.999999987               0.000035066              -0.001375773               0.999999987               0.000032808              -0.001395707               0.999999987               0.000030771              -0.001419751               0.999999987               0.000028300              -0.001447136               0.999999987               0.000024860              -0.001477218               0.999999987               0.000019964              -0.001509101               0.999999987               0.000013405              -0.001542056               0.999999987               0.000005334              -0.001575396               0.999999987              -0.000004761              -0.001608579               0.999999987              -0.000017819              -0.001641133               0.999999987              -0.000034470              -0.001672496               0.999999987              -0.000055823              -0.001702100               0.999999987              -0.000083089              -0.001729268               0.999999987              -0.000000000              -0.001315411               0.999999987               0.000000000              -0.001347483               0.999999987               0.000000000              -0.001362632               0.999999987              -0.000000000              -0.001376152               0.999999987              -0.000000000              -0.001392946               0.999999987               0.000000000              -0.001413820               0.999999987               0.000000000              -0.001438527               0.999999987               0.000000000              -0.001466613               0.999999987               0.000000000              -0.001497683               0.999999987               0.000000000              -0.001530809               0.999999987              -0.000000000              -0.001565175               0.999999987               0.000000000              -0.001600163               0.999999987              -0.000000000              -0.001635336               0.999999987              -0.000000000              -0.001670306               0.999999987               0.000000000              -0.001704341               0.999999987               0.000000000              -0.001736743               0.999999987               0.000000000              -0.001766539               0.999999987               0.000912009               0.000000000               0.999999987               0.000959374               0.000000000               0.999999987               0.000978620               0.000000000               0.999999987               0.000988551               0.000000000               0.999999987               0.000996131               0.000000000               0.999999987               0.001003726               0.000000000               0.999999987               0.001012092               0.000000000               0.999999987               0.001021536              -0.000000000               0.999999987               0.001031892               0.000000000               0.999999987               0.001042896               0.000000000               0.999999987               0.001054112              -0.000000000               0.999999987               0.001065102              -0.000000000               0.999999987               0.001075418              -0.000000000               0.999999987               0.001084702               0.000000000               0.999999987               0.001092265               0.000000000               0.999999987               0.001097384              -0.000000000               0.999999987               0.001099207              -0.000000000               0.999999987               0.000906864               0.000124973               0.999999987               0.000950059               0.000098321               0.999999987               0.000966608               0.000085871               0.999999987               0.000974824               0.000080302               0.999999987               0.000981187               0.000078134               0.999999987               0.000987830               0.000077634               0.999999987               0.000995448               0.000077635               0.999999987               0.001004050               0.000077431               0.999999987               0.001013356               0.000076640               0.999999987               0.001023018               0.000074710               0.999999987               0.001032584               0.000071313               0.999999987               0.001041692               0.000066296               0.999999987               0.001049964               0.000059245               0.999999987               0.001056920               0.000049733               0.999999987               0.001061983               0.000037015               0.999999987               0.001064525               0.000020187               0.999999987               0.001063789              -0.000002058               0.999999987               0.000891675               0.000248827               0.999999987               0.000922692               0.000196333               0.999999987               0.000931667               0.000172726               0.999999987               0.000935140               0.000162745               0.999999987               0.000938334               0.000159254               0.999999987               0.000942577               0.000158826               0.999999987               0.000947907               0.000159233               0.999999987               0.000953914               0.000159019               0.999999987               0.000960143               0.000157349               0.999999987               0.000966109               0.000153399               0.999999987               0.000971384               0.000146754               0.999999987               0.000975556               0.000137075               0.999999987               0.000978235               0.000123445               0.999999987               0.000978995               0.000105131               0.999999987               0.000977268               0.000081281               0.999999987               0.000972773               0.000050650               0.999999987               0.000965383               0.000011802               0.999999987               0.000866720               0.000370412               0.999999987               0.000878496               0.000293887               0.999999987               0.000876616               0.000261530               0.999999987               0.000873799               0.000249016               0.999999987               0.000872761               0.000245634               0.999999987               0.000873722               0.000246133               0.999999987               0.000875781               0.000247345               0.999999987               0.000878081               0.000247216               0.999999987               0.000879867               0.000244540               0.999999987               0.000880552               0.000238685               0.999999987               0.000879618               0.000228840               0.999999987               0.000876636               0.000214710               0.999999987               0.000871252               0.000195387               0.999999987               0.000863082               0.000169932               0.999999987               0.000852005               0.000137589               0.999999987               0.000838125               0.000097810               0.999999987               0.000821892               0.000049971               0.999999987               0.000832413               0.000488620               0.999999987               0.000819745               0.000391063               0.999999987               0.000805706               0.000353007               0.999999987               0.000796436               0.000340162               0.999999987               0.000791509               0.000338188               0.999999987               0.000789213               0.000340205               0.999999987               0.000787651               0.000342331               0.999999987               0.000785609               0.000342244               0.999999987               0.000782024               0.000338673               0.999999987               0.000776283               0.000330799               0.999999987               0.000767729               0.000318013               0.999999987               0.000755981               0.000299917               0.999999987               0.000740767               0.000275893               0.999999987               0.000722218               0.000245238               0.999999987               0.000700605               0.000207821               0.999999987               0.000676542               0.000163929               0.999999987               0.000651064               0.000114259               0.999999987               0.000789396               0.000602449               0.999999987               0.000749416               0.000488103               0.999999987               0.000724102               0.000447366               0.999999987               0.000709913               0.000435939               0.999999987               0.000702280               0.000436111               0.999999987               0.000697272               0.000439794               0.999999987               0.000692151               0.000442832               0.999999987               0.000685297               0.000442698               0.999999987               0.000675662               0.000438185               0.999999987               0.000662437               0.000428443               0.999999987               0.000645133               0.000412783               0.999999987               0.000623620               0.000391069               0.999999987               0.000598093               0.000363301               0.999999987               0.000569021               0.000329414               0.999999987               0.000537166               0.000289652               0.999999987               0.000503522               0.000245196               0.999999987               0.000469129               0.000197865               0.999999987               0.000738670               0.000710787               0.999999987               0.000671126               0.000584987               0.999999987               0.000637221               0.000544177               0.999999987               0.000620540               0.000535146               0.999999987               0.000611525               0.000537744               0.999999987               0.000604376               0.000543010               0.999999987               0.000595659               0.000546618               0.999999987               0.000583614               0.000546372               0.999999987               0.000567189               0.000540764               0.999999987               0.000545721               0.000528954               0.999999987               0.000519162               0.000510558               0.999999987               0.000487585               0.000485718               0.999999987               0.000451665               0.000455334               0.999999987               0.000412095               0.000419566               0.999999987               0.000369975               0.000379486               0.999999987               0.000326419               0.000336773               0.999999987               0.000282461               0.000293098               0.999999987               0.000681407               0.000812439               0.999999987               0.000588707               0.000681350               0.999999987               0.000550023               0.000642340               0.999999987               0.000533500               0.000635849               0.999999987               0.000524306               0.000640575               0.999999987               0.000515216               0.000647081               0.999999987               0.000502641               0.000651221               0.999999987               0.000484879               0.000650564               0.999999987               0.000460797               0.000643616               0.999999987               0.000430243               0.000629805               0.999999987               0.000393384               0.000609071               0.999999987               0.000350848               0.000582052               0.999999987               0.000303521               0.000549969               0.999999987               0.000252494               0.000513872               0.999999987               0.000199227               0.000475278               0.999999987               0.000145051               0.000435857               0.999999987               0.000090967               0.000396721               0.999999987               0.000619362               0.000905566               0.999999987               0.000504867               0.000777142               0.999999987               0.000466780               0.000740362               0.999999987               0.000452415               0.000735738               0.999999987               0.000443675               0.000742082               0.999999987               0.000432603               0.000749648               0.999999987               0.000415747               0.000754147               0.999999987               0.000391362               0.000752795               0.999999987               0.000358563               0.000744397               0.999999987               0.000317626               0.000728721               0.999999987               0.000269152               0.000705980               0.999999987               0.000214200               0.000677505               0.999999987               0.000154027               0.000645074               0.999999987               0.000090419               0.000610568               0.999999987               0.000025524               0.000575488               0.999999987              -0.000039304               0.000541136               0.999999987              -0.000103675               0.000507898               0.999999987               0.000555042               0.000993921               0.999999987               0.000434344               0.000885042               0.999999987               0.000394117               0.000845397               0.999999987               0.000379618               0.000836753               0.999999987               0.000372133               0.000840939               0.999999987               0.000363627               0.000849145               0.999999987               0.000350396               0.000856774               0.999999987               0.000330480               0.000861109               0.999999987               0.000302853               0.000860591               0.999999987               0.000267563               0.000854433               0.999999987               0.000224753               0.000842444               0.999999987               0.000174893               0.000825038               0.999999987               0.000118596               0.000803370               0.999999987               0.000057104               0.000778948               0.999999987              -0.000007690               0.000753491               0.999999987              -0.000073917               0.000728217               0.999999987              -0.000140130               0.000704173               0.999999987               0.000485047               0.001074656               0.999999987               0.000366188               0.000989658               0.999999987               0.000324083               0.000953172               0.999999987               0.000308662               0.000942783               0.999999987               0.000301608               0.000945702               0.999999987               0.000294866               0.000954501               0.999999987               0.000284716               0.000964924               0.999999987               0.000268781               0.000974143               0.999999987               0.000245938               0.000980579               0.999999987               0.000216063               0.000983151               0.999999987               0.000179242               0.000981184               0.999999987               0.000135307               0.000974501               0.999999987               0.000084076               0.000963628               0.999999987               0.000026208               0.000949518               0.999999987              -0.000036965               0.000933460               0.999999987              -0.000103575               0.000916840               0.999999987              -0.000171808               0.000900928               0.999999987               0.000410816               0.001145643               0.999999987               0.000300506               0.001087754               0.999999987               0.000258296               0.001058804               0.999999987               0.000241888               0.001049721               0.999999987               0.000234467               0.001052898               0.999999987               0.000228836               0.001062786               0.999999987               0.000220953               0.001075832               0.999999987               0.000208492               0.001089533               0.999999987               0.000190041               0.001102073               0.999999987               0.000165383               0.001112432               0.999999987               0.000134500               0.001119824               0.999999987               0.000096885               0.001123592               0.999999987               0.000052065               0.001123593               0.999999987              -0.000000408               0.001120275               0.999999987              -0.000059997               0.001114468               0.999999987              -0.000125447               0.001107099               0.999999987              -0.000195227               0.001099503               0.999999987               0.000332978               0.001205538               0.999999987               0.000237353               0.001175210               0.999999987               0.000197776               0.001156856               0.999999987               0.000181052               0.001151912               0.999999987               0.000173241               0.001157069               0.999999987               0.000168017               0.001168984               0.999999987               0.000161765               0.001184863               0.999999987               0.000152246               0.001202675               0.999999987               0.000137859               0.001220841               0.999999987               0.000118252               0.001238126               0.999999987               0.000093273               0.001253741               0.999999987               0.000062418               0.001267066               0.999999987               0.000024866               0.001277637               0.999999987              -0.000020240               0.001285263               0.999999987              -0.000073484               0.001290220               0.999999987              -0.000134642               0.001293043               0.999999987              -0.000203393               0.001294689               0.999999987               0.000252271               0.001253106               0.999999987               0.000176343               0.001247938               0.999999987               0.000142582               0.001241586               0.999999987               0.000127163               0.001242459               0.999999987               0.000119564               0.001251025               0.999999987               0.000114715               0.001265601               0.999999987               0.000109818               0.001284617               0.999999987               0.000102699               0.001306489               0.999999987               0.000092029               0.001329713               0.999999987               0.000077279               0.001353212               0.999999987               0.000058328               0.001376037               0.999999987               0.000034743               0.001397711               0.999999987               0.000005422               0.001417671               0.999999987              -0.000030654               0.001435493               0.999999987              -0.000074643               0.001450983               0.999999987              -0.000127390               0.001464343               0.999999987              -0.000189491               0.001475814               0.999999987               0.000169409               0.001287606               0.999999987               0.000116869               0.001302369               0.999999987               0.000092106               0.001307073               0.999999987               0.000080124               0.001314171               0.999999987               0.000073877               0.001326570               0.999999987               0.000069991               0.001344129               0.999999987               0.000066272               0.001366017               0.999999987               0.000061539               0.001391229               0.999999987               0.000054466               0.001418628               0.999999987               0.000044599               0.001447195               0.999999987               0.000031722               0.001476104               0.999999987               0.000015715               0.001504691               0.999999987              -0.000004253               0.001532477               0.999999987              -0.000029507               0.001558937               0.999999987              -0.000061261               0.001583541               0.999999987              -0.000100689               0.001606133               0.999999987              -0.000149058               0.001626592               0.999999987               0.000085085               0.001308491               0.999999987               0.000058280               0.001336057               0.999999987               0.000045118               0.001348416               0.999999987               0.000038587               0.001360268               0.999999987               0.000035066               0.001375773               0.999999987               0.000032808               0.001395707               0.999999987               0.000030771               0.001419751               0.999999987               0.000028300               0.001447136               0.999999987               0.000024860               0.001477218               0.999999987               0.000019964               0.001509101               0.999999987               0.000013405               0.001542056               0.999999987               0.000005334               0.001575396               0.999999987              -0.000004761               0.001608579               0.999999987              -0.000017819               0.001641133               0.999999987              -0.000034470               0.001672496               0.999999987              -0.000055823               0.001702100               0.999999987              -0.000083089               0.001729268               0.999999987               0.000000000               0.001315411               0.999999987              -0.000000000               0.001347483               0.999999987               0.000000000               0.001362632               0.999999987               0.000000000               0.001376152               0.999999987               0.000000000               0.001392946               0.999999987               0.000000000               0.001413820               0.999999987               0.000000000               0.001438527               0.999999987               0.000000000               0.001466613               0.999999987               0.000000000               0.001497683               0.999999987              -0.000000000               0.001530809               0.999999987              -0.000000000               0.001565175               0.999999987               0.000000000               0.001600163               0.999999987               0.000000000               0.001635336               0.999999987              -0.000000000               0.001670306               0.999999987              -0.000000000               0.001704341               0.999999987              -0.000000000               0.001736743               0.999999987               0.000000000               0.001766539               0.999999987 </DataArray>
<DataArray type="Float64"                                    Name="stress"                                                      NumberOfComponents="10" format="ascii">
              0.002159053               0.022637287              -0.000000000              -0.002020011               0.008219024               0.006199013               0.000000000               0.000000000               0.000000000               0.000000000               0.002064843               0.017280703              -0.000000000              -0.001385768               0.006222100               0.004836331               0.000000000               0.000000000               0.000000000               0.000000000               0.002657993               0.012933761               0.000000000              -0.000619971               0.004517868               0.003897897               0.000000000               0.000000000               0.000000000               0.000000000               0.002464406               0.010473703               0.000000000              -0.000385060               0.003619553               0.003234493               0.000000000               0.000000000               0.000000000               0.000000000               0.002060915               0.008910583               0.000000000              -0.000340979               0.003083824               0.002742846               0.000000000               0.000000000               0.000000000               0.000000000               0.001643268               0.007816052              -0.000000000              -0.000360780               0.002725584               0.002364804               0.000000000               0.000000000               0.000000000               0.000000000               0.001253498               0.006965805               0.000000000              -0.000400663               0.002455466               0.002054803               0.000000000               0.000000000               0.000000000               0.000000000               0.000907122               0.006246472              -0.000000000              -0.000440637               0.002229015               0.001788378               0.000000000               0.000000000               0.000000000               0.000000000               0.000612653               0.005599639              -0.000000000              -0.000470209               0.002023264               0.001553055               0.000000000               0.000000000               0.000000000               0.000000000               0.000369185               0.004980854               0.000000000              -0.000484161               0.001821655               0.001337494               0.000000000               0.000000000               0.000000000               0.000000000               0.000176058               0.004367227               0.000000000              -0.000479881               0.001615688               0.001135807               0.000000000               0.000000000               0.000000000               0.000000000               0.000028661               0.003746748              -0.000000000              -0.000457595               0.001401435               0.000943840               0.000000000               0.000000000               0.000000000               0.000000000              -0.000079570               0.003101514              -0.000000000              -0.000417527               0.001173003               0.000755476               0.000000000               0.000000000               0.000000000               0.000000000              -0.000140009               0.002417044              -0.000000000              -0.000354633               0.000923884               0.000569251               0.000000000               0.000000000               0.000000000               0.000000000              -0.000142948               0.001671704              -0.000000000              -0.000262568               0.000644752               0.000382184               0.000000000               0.000000000               0.000000000               0.000000000              -0.000088167               0.000835705               0.000000000              -0.000137526               0.000324407               0.000186882               0.000000000               0.000000000               0.000000000               0.000000000              -0.000115460               0.000193729              -0.000000000              -0.000067514               0.000087080               0.000019566               0.000000000               0.000000000               0.000000000               0.000000000               0.002211278               0.022140303              -0.001476998              -0.001938304               0.008026129               0.006087824               0.000000000               0.000000000               0.000000000               0.000000000               0.001991214               0.016967163              -0.000636232              -0.001374187               0.006113727               0.004739540               0.000000000               0.000000000               0.000000000               0.000000000               0.002447991               0.012811935               0.000189234              -0.000683494               0.004498434               0.003814940               0.000000000               0.000000000               0.000000000               0.000000000               0.002203856               0.010453467               0.000521110              -0.000480236               0.003644533               0.003164296               0.000000000               0.000000000               0.000000000               0.000000000               0.001792495               0.008943548               0.000645629              -0.000445757               0.003129739               0.002683982               0.000000000               0.000000000               0.000000000               0.000000000               0.001383745               0.007874886               0.000676654              -0.000465455               0.002780087               0.002314632               0.000000000               0.000000000               0.000000000               0.000000000               0.001016634               0.007038258               0.000663511              -0.000498543               0.002512244               0.002013700               0.000000000               0.000000000               0.000000000               0.000000000               0.000702270               0.006324418               0.000636055              -0.000527200               0.002283852               0.001756652               0.000000000               0.000000000               0.000000000               0.000000000               0.000440597               0.005675411               0.000602482              -0.000544201               0.002073185               0.001528984               0.000000000               0.000000000               0.000000000               0.000000000               0.000229321               0.005055514               0.000565667              -0.000545943               0.001867135               0.001321193               0.000000000               0.000000000               0.000000000               0.000000000               0.000065066               0.004447316               0.000530958              -0.000531514               0.001659595               0.001128081               0.000000000               0.000000000               0.000000000               0.000000000              -0.000058879               0.003836750               0.000493018              -0.000501672               0.001446128               0.000944455               0.000000000               0.000000000               0.000000000               0.000000000              -0.000143823               0.003205369               0.000445493              -0.000454604               0.001219980               0.000765376               0.000000000               0.000000000               0.000000000               0.000000000              -0.000180952               0.002542573               0.000383220              -0.000385678               0.000976075               0.000590397               0.000000000               0.000000000               0.000000000               0.000000000              -0.000165574               0.001836699               0.000295633              -0.000291677               0.000709452               0.000417775               0.000000000               0.000000000               0.000000000               0.000000000              -0.000097188               0.001070512               0.000168772              -0.000170259               0.000413587               0.000243327               0.000000000               0.000000000               0.000000000               0.000000000              -0.000110579               0.000499113               0.000105352              -0.000103856               0.000200988               0.000097132               0.000000000               0.000000000               0.000000000               0.000000000               0.002326783               0.020718611              -0.002724346              -0.001717280               0.007478561               0.005761281               0.000000000               0.000000000               0.000000000               0.000000000               0.001758796               0.016080593              -0.001164836              -0.001350523               0.005810318               0.004459796               0.000000000               0.000000000               0.000000000               0.000000000               0.001845212               0.012474645               0.000347903              -0.000867374               0.004447298               0.003579924               0.000000000               0.000000000               0.000000000               0.000000000               0.001475601               0.010394983               0.000931859              -0.000746021               0.003713633               0.002967612               0.000000000               0.000000000               0.000000000               0.000000000               0.001051338               0.009029064               0.001140097              -0.000734380               0.003254451               0.002520071               0.000000000               0.000000000               0.000000000               0.000000000               0.000684715               0.008029850               0.001185491              -0.000746962               0.002925577               0.002178615               0.000000000               0.000000000               0.000000000               0.000000000               0.000392271               0.007224154               0.001156971              -0.000755916               0.002659999               0.001904083               0.000000000               0.000000000               0.000000000               0.000000000               0.000163226               0.006518124               0.001101163              -0.000753554               0.002423871               0.001670317               0.000000000               0.000000000               0.000000000               0.000000000              -0.000014129               0.005864398               0.001036060              -0.000738347               0.002200895               0.001462548               0.000000000               0.000000000               0.000000000               0.000000000              -0.000144313               0.005246458               0.000967253              -0.000709923               0.001985443               0.001275520               0.000000000               0.000000000               0.000000000               0.000000000              -0.000233750               0.004648479               0.000901492              -0.000668715               0.001772382               0.001103667               0.000000000               0.000000000               0.000000000               0.000000000              -0.000286711               0.004060694               0.000827680              -0.000615102               0.001558585               0.000943483               0.000000000               0.000000000               0.000000000               0.000000000              -0.000302824               0.003472242               0.000734667              -0.000547588               0.001339932               0.000792343               0.000000000               0.000000000               0.000000000               0.000000000              -0.000274476               0.002878121               0.000619631              -0.000462693               0.001113595               0.000650902               0.000000000               0.000000000               0.000000000               0.000000000              -0.000205789               0.002280167               0.000468781              -0.000362191               0.000880778               0.000518587               0.000000000               0.000000000               0.000000000               0.000000000              -0.000109824               0.001685397               0.000263566              -0.000251858               0.000645746               0.000393888               0.000000000               0.000000000               0.000000000               0.000000000              -0.000098498               0.001277829               0.000160833              -0.000196665               0.000491494               0.000294829               0.000000000               0.000000000               0.000000000               0.000000000               0.002394993               0.018566883              -0.003559979              -0.001422736               0.006663144               0.005240408               0.000000000               0.000000000               0.000000000               0.000000000               0.001341338               0.014764615              -0.001511303              -0.001342572               0.005369013               0.004026441               0.000000000               0.000000000               0.000000000               0.000000000               0.000915162               0.011984343               0.000443361              -0.001154854               0.004379693               0.003224838               0.000000000               0.000000000               0.000000000               0.000000000               0.000414105               0.010301107               0.001152457              -0.001132347               0.003811117               0.002678770               0.000000000               0.000000000               0.000000000               0.000000000               0.000015631               0.009127021               0.001382867              -0.001135014               0.003420648               0.002285634               0.000000000               0.000000000               0.000000000               0.000000000              -0.000263262               0.008209618               0.001418158              -0.001124923               0.003111486               0.001986563               0.000000000               0.000000000               0.000000000               0.000000000              -0.000440451               0.007430932               0.001369598              -0.001094033               0.002841630               0.001747597               0.000000000               0.000000000               0.000000000               0.000000000              -0.000546218               0.006731788               0.001288318              -0.001046303               0.002592674               0.001546371               0.000000000               0.000000000               0.000000000               0.000000000              -0.000601181               0.006084100               0.001201186              -0.000985953               0.002356664               0.001370711               0.000000000               0.000000000               0.000000000               0.000000000              -0.000614683               0.005476818               0.001112138              -0.000915106               0.002130623               0.001215517               0.000000000               0.000000000               0.000000000               0.000000000              -0.000593283               0.004900119               0.001025226              -0.000834994               0.001911688               0.001076694               0.000000000               0.000000000               0.000000000               0.000000000              -0.000543023               0.004348497               0.000931675              -0.000747194               0.001698549               0.000951355               0.000000000               0.000000000               0.000000000               0.000000000              -0.000462779               0.003825026               0.000813663              -0.000651669               0.001492219               0.000840550               0.000000000               0.000000000               0.000000000               0.000000000              -0.000355539               0.003331852               0.000666938              -0.000549807               0.001293875               0.000744068               0.000000000               0.000000000               0.000000000               0.000000000              -0.000233067               0.002880422               0.000487854              -0.000447452               0.001109282               0.000661830               0.000000000               0.000000000               0.000000000               0.000000000              -0.000112795               0.002493739               0.000267017              -0.000354015               0.000949243               0.000595228               0.000000000               0.000000000               0.000000000               0.000000000              -0.000076115               0.002269385               0.000155186              -0.000312216               0.000860526               0.000548310               0.000000000               0.000000000               0.000000000               0.000000000               0.002267330               0.015957719              -0.003906279              -0.001144466               0.005700674               0.004556208               0.000000000               0.000000000               0.000000000               0.000000000               0.000723980               0.013206963              -0.001665642              -0.001379376               0.004862069               0.003482693               0.000000000               0.000000000               0.000000000               0.000000000              -0.000219755               0.011405601               0.000435799              -0.001508105               0.004304531               0.002796426               0.000000000               0.000000000               0.000000000               0.000000000              -0.000796906               0.010149175               0.001137085              -0.001567483               0.003905519               0.002338036               0.000000000               0.000000000               0.000000000               0.000000000              -0.001107978               0.009159618               0.001335244              -0.001560441               0.003573322               0.002012882               0.000000000               0.000000000               0.000000000               0.000000000              -0.001240332               0.008317339               0.001346640              -0.001504788               0.003274015               0.001769226               0.000000000               0.000000000               0.000000000               0.000000000              -0.001262037               0.007568287               0.001284125              -0.001419296               0.002995836               0.001576539               0.000000000               0.000000000               0.000000000               0.000000000              -0.001218308               0.006885984               0.001195851              -0.001317611               0.002734508               0.001416898               0.000000000               0.000000000               0.000000000               0.000000000              -0.001130123               0.006259578               0.001103404              -0.001206241               0.002488585               0.001282345               0.000000000               0.000000000               0.000000000               0.000000000              -0.001011097               0.005676080               0.001011735              -0.001088669               0.002254897               0.001166228               0.000000000               0.000000000               0.000000000               0.000000000              -0.000866418               0.005132137               0.000922116              -0.000966422               0.002032835               0.001066414               0.000000000               0.000000000               0.000000000               0.000000000              -0.000704835               0.004628150               0.000826169              -0.000842830               0.001823644               0.000980815               0.000000000               0.000000000               0.000000000               0.000000000              -0.000534209               0.004176469               0.000705090              -0.000722385               0.001632937               0.000910552               0.000000000               0.000000000               0.000000000               0.000000000              -0.000365059               0.003789285               0.000554712              -0.000610556               0.001466601               0.000856045               0.000000000               0.000000000               0.000000000               0.000000000              -0.000209866               0.003479418               0.000383626              -0.000513626               0.001331003               0.000817377               0.000000000               0.000000000               0.000000000               0.000000000              -0.000091307               0.003265710               0.000198570              -0.000442453               0.001236043               0.000793591               0.000000000               0.000000000               0.000000000               0.000000000              -0.000046707               0.003179299               0.000105484              -0.000414926               0.001198065               0.000783138               0.000000000               0.000000000               0.000000000               0.000000000               0.001829341               0.013164829              -0.003786913              -0.000959601               0.004708099               0.003748498               0.000000000               0.000000000               0.000000000               0.000000000              -0.000079540               0.011572379              -0.001666535              -0.001476372               0.004349545               0.002873173               0.000000000               0.000000000               0.000000000               0.000000000              -0.001425848               0.010772014               0.000291300              -0.001881190               0.004217699               0.002336509               0.000000000               0.000000000               0.000000000               0.000000000              -0.001969853               0.009905263               0.000886191              -0.001976848               0.003960671               0.001983823               0.000000000               0.000000000               0.000000000               0.000000000              -0.002120801               0.009075975               0.001033071              -0.001929793               0.003668559               0.001738766               0.000000000               0.000000000               0.000000000               0.000000000              -0.002061955               0.008304330               0.001030883              -0.001811270               0.003371839               0.001560569               0.000000000               0.000000000               0.000000000               0.000000000              -0.001901969               0.007592906               0.000974875              -0.001662348               0.003085059               0.001422711               0.000000000               0.000000000               0.000000000               0.000000000              -0.001697240               0.006942563               0.000899989              -0.001504282               0.002815592               0.001311310               0.000000000               0.000000000               0.000000000               0.000000000              -0.001465147               0.006345484               0.000822058              -0.001342613               0.002562677               0.001220065               0.000000000               0.000000000               0.000000000               0.000000000              -0.001218205               0.005793319               0.000741842              -0.001180989               0.002324750               0.001143761               0.000000000               0.000000000               0.000000000               0.000000000              -0.000965598               0.005286299               0.000659295              -0.001022884               0.002103043               0.001080159               0.000000000               0.000000000               0.000000000               0.000000000              -0.000720942               0.004832709               0.000573951              -0.000874440               0.001902367               0.001027927               0.000000000               0.000000000               0.000000000               0.000000000              -0.000491868               0.004453129               0.000469520              -0.000741090               0.001731391               0.000990302               0.000000000               0.000000000               0.000000000               0.000000000              -0.000294576               0.004155003               0.000342362              -0.000629840               0.001594934               0.000965094               0.000000000               0.000000000               0.000000000               0.000000000              -0.000144750               0.003947203               0.000209708              -0.000547680               0.001498281               0.000950601               0.000000000               0.000000000               0.000000000               0.000000000              -0.000053057               0.003838223               0.000093667              -0.000499673               0.001445952               0.000946279               0.000000000               0.000000000               0.000000000               0.000000000              -0.000019745               0.003816452               0.000040857              -0.000484460               0.001433625               0.000949165               0.000000000               0.000000000               0.000000000               0.000000000               0.001032137               0.010415711              -0.003295016              -0.000914913               0.003776839               0.002861926               0.000000000               0.000000000               0.000000000               0.000000000              -0.001016896               0.009979839              -0.001573465              -0.001628813               0.003869517               0.002240704               0.000000000               0.000000000               0.000000000               0.000000000              -0.002565417               0.010095732               0.000006397              -0.002223992               0.004106541               0.001882549               0.000000000               0.000000000               0.000000000               0.000000000              -0.002949472               0.009551167               0.000455304              -0.002299942               0.003950338               0.001650396               0.000000000               0.000000000               0.000000000               0.000000000              -0.002879191               0.008856337               0.000566773              -0.002186733               0.003680994               0.001494261               0.000000000               0.000000000               0.000000000               0.000000000              -0.002615113               0.008154497               0.000574690              -0.001999975               0.003384797               0.001384822               0.000000000               0.000000000               0.000000000               0.000000000              -0.002276674               0.007494650               0.000547797              -0.001790580               0.003095052               0.001304472               0.000000000               0.000000000               0.000000000               0.000000000              -0.001919819               0.006885372               0.000504381              -0.001580600               0.002821968               0.001241368               0.000000000               0.000000000               0.000000000               0.000000000              -0.001565316               0.006320264               0.000454122              -0.001377023               0.002565741               0.001188718               0.000000000               0.000000000               0.000000000               0.000000000              -0.001225144               0.005802334               0.000397217              -0.001184718               0.002328998               0.001144280               0.000000000               0.000000000               0.000000000               0.000000000              -0.000904482               0.005342599               0.000335040              -0.001007003               0.002116516               0.001109513               0.000000000               0.000000000               0.000000000               0.000000000              -0.000615576               0.004951569               0.000276263              -0.000849785               0.001933768               0.001083983               0.000000000               0.000000000               0.000000000               0.000000000              -0.000370671               0.004640122               0.000210243              -0.000719015               0.001786363               0.001067348               0.000000000               0.000000000               0.000000000               0.000000000              -0.000182363               0.004416247               0.000132837              -0.000620416               0.001678873               0.001058457               0.000000000               0.000000000               0.000000000               0.000000000              -0.000063251               0.004285201               0.000064744              -0.000559368               0.001614842               0.001055474               0.000000000               0.000000000               0.000000000               0.000000000              -0.000012033               0.004237041               0.000020941              -0.000534141               0.001590380               0.001056239               0.000000000               0.000000000               0.000000000               0.000000000              -0.000001484               0.004238173               0.000004661              -0.000530327               0.001589486               0.001059159               0.000000000               0.000000000               0.000000000               0.000000000              -0.000090296               0.007890198              -0.002541452              -0.001020135               0.002970084               0.001949949               0.000000000               0.000000000               0.000000000               0.000000000              -0.002037729               0.008529665              -0.001436470              -0.001830353               0.003453311               0.001622958               0.000000000               0.000000000               0.000000000               0.000000000              -0.003529009               0.009382748              -0.000397152              -0.002496216               0.003959623               0.001463408               0.000000000               0.000000000               0.000000000               0.000000000              -0.003645387               0.009077010              -0.000077031              -0.002501640               0.003859520               0.001357880               0.000000000               0.000000000               0.000000000               0.000000000              -0.003324601               0.008498621               0.000036717              -0.002309047               0.003602528               0.001293480               0.000000000               0.000000000               0.000000000               0.000000000              -0.002861324               0.007878512               0.000081628              -0.002057805               0.003312079               0.001254274               0.000000000               0.000000000               0.000000000               0.000000000              -0.002367737               0.007283411               0.000097176              -0.001798323               0.003027220               0.001228897               0.000000000               0.000000000               0.000000000               0.000000000              -0.001887241               0.006717107               0.000096207              -0.001547350               0.002754797               0.001207447               0.000000000               0.000000000               0.000000000               0.000000000              -0.001442156               0.006190980               0.000086108              -0.001314678               0.002501865               0.001187187               0.000000000               0.000000000               0.000000000               0.000000000              -0.001044783               0.005718271               0.000067003              -0.001106575               0.002274930               0.001168355               0.000000000               0.000000000               0.000000000               0.000000000              -0.000698797               0.005310904               0.000045160              -0.000925909               0.002078920               0.001153011               0.000000000               0.000000000               0.000000000               0.000000000              -0.000410337               0.004983862               0.000030161              -0.000776857               0.001920223               0.001143366               0.000000000               0.000000000               0.000000000               0.000000000              -0.000189555               0.004743033               0.000019090              -0.000663961               0.001802315               0.001138355               0.000000000               0.000000000               0.000000000               0.000000000              -0.000047723               0.004597882               0.000004003              -0.000592630               0.001730155               0.001137525               0.000000000               0.000000000               0.000000000               0.000000000               0.000015567               0.004539250              -0.000005252              -0.000561567               0.001700257               0.001138690               0.000000000               0.000000000               0.000000000               0.000000000               0.000020141               0.004544626              -0.000004026              -0.000560524               0.001701701               0.001141177               0.000000000               0.000000000               0.000000000               0.000000000               0.000012130               0.004570411              -0.000004039              -0.000566751               0.001712372               0.001145621               0.000000000               0.000000000               0.000000000               0.000000000              -0.001406712               0.005779903              -0.001644670              -0.001250003               0.002343282               0.001093280               0.000000000               0.000000000               0.000000000               0.000000000              -0.003041270               0.007237136              -0.001292327              -0.002045114               0.003094059               0.001048945               0.000000000               0.000000000               0.000000000               0.000000000              -0.004292526               0.008650868              -0.000878377              -0.002691049               0.003780610               0.001089561               0.000000000               0.000000000               0.000000000               0.000000000              -0.004123077               0.008593010              -0.000638539              -0.002620273               0.003737732               0.001117459               0.000000000               0.000000000               0.000000000               0.000000000              -0.003588209               0.008158242              -0.000489919              -0.002365353               0.003507838               0.001142485               0.000000000               0.000000000               0.000000000               0.000000000              -0.002961933               0.007641070              -0.000393069              -0.002065854               0.003235616               0.001169762               0.000000000               0.000000000               0.000000000               0.000000000              -0.002346165               0.007114902              -0.000326463              -0.001769170               0.002961334               0.001192163               0.000000000               0.000000000               0.000000000               0.000000000              -0.001775554               0.006598938              -0.000277027              -0.001490696               0.002696523               0.001205827               0.000000000               0.000000000               0.000000000               0.000000000              -0.001265433               0.006118697              -0.000239754              -0.001239371               0.002452669               0.001213298               0.000000000               0.000000000               0.000000000               0.000000000              -0.000827906               0.005682360              -0.000213223              -0.001020757               0.002234354               0.001213596               0.000000000               0.000000000               0.000000000               0.000000000              -0.000464612               0.005309778              -0.000187442              -0.000837950               0.002049225               0.001211275               0.000000000               0.000000000               0.000000000               0.000000000              -0.000180068               0.005024272              -0.000150287              -0.000695558               0.001906593               0.001211035               0.000000000               0.000000000               0.000000000               0.000000000               0.000014910               0.004834235              -0.000102837              -0.000598687               0.001810958               0.001212271               0.000000000               0.000000000               0.000000000               0.000000000               0.000109274               0.004738491              -0.000060894              -0.000551332               0.001763259               0.001211927               0.000000000               0.000000000               0.000000000               0.000000000               0.000120752               0.004727676              -0.000030195              -0.000545676               0.001757768               0.001212092               0.000000000               0.000000000               0.000000000               0.000000000               0.000091796               0.004778588              -0.000007714              -0.000562899               0.001780480               0.001217581               0.000000000               0.000000000               0.000000000               0.000000000               0.000068008               0.004820703               0.000000989              -0.000577084               0.001799246               0.001222163               0.000000000               0.000000000               0.000000000               0.000000000              -0.002920654               0.003842437              -0.000719712              -0.001575546               0.001805981               0.000230435               0.000000000               0.000000000               0.000000000               0.000000000              -0.003897975               0.005735336              -0.001139654              -0.002178653               0.002637977               0.000459324               0.000000000               0.000000000               0.000000000               0.000000000              -0.004769112               0.007544830              -0.001376170              -0.002731514               0.003425423               0.000693909               0.000000000               0.000000000               0.000000000               0.000000000              -0.004443307               0.007868744              -0.001226552              -0.002649826               0.003506164               0.000856337               0.000000000               0.000000000               0.000000000               0.000000000              -0.003820161               0.007704614              -0.001046273              -0.002395631               0.003366722               0.000971091               0.000000000               0.000000000               0.000000000               0.000000000              -0.003134072               0.007386146              -0.000892888              -0.002098540               0.003161537               0.001062997               0.000000000               0.000000000               0.000000000               0.000000000              -0.002469800               0.007012042              -0.000767168              -0.001802676               0.002938216               0.001135540               0.000000000               0.000000000               0.000000000               0.000000000              -0.001863684               0.006617230              -0.000658759              -0.001526031               0.002714398               0.001188367               0.000000000               0.000000000               0.000000000               0.000000000              -0.001325037               0.006227233              -0.000570304              -0.001275290               0.002500820               0.001225530               0.000000000               0.000000000               0.000000000               0.000000000              -0.000857436               0.005850060              -0.000498739              -0.001052793               0.002300931               0.001248138               0.000000000               0.000000000               0.000000000               0.000000000              -0.000459766               0.005504086              -0.000430569              -0.000860421               0.002121484               0.001261063               0.000000000               0.000000000               0.000000000               0.000000000              -0.000140742               0.005215621              -0.000349271              -0.000704729               0.001973432               0.001268703               0.000000000               0.000000000               0.000000000               0.000000000               0.000088158               0.005006822              -0.000252707              -0.000592792               0.001866521               0.001273729               0.000000000               0.000000000               0.000000000               0.000000000               0.000222396               0.004889881              -0.000158607              -0.000527835               0.001805889               0.001278054               0.000000000               0.000000000               0.000000000               0.000000000               0.000267666               0.004859647              -0.000082261              -0.000507080               0.001788893               0.001281813               0.000000000               0.000000000               0.000000000               0.000000000               0.000251744               0.004903681              -0.000029397              -0.000518555               0.001807396               0.001288841               0.000000000               0.000000000               0.000000000               0.000000000               0.000215932               0.004933632              -0.000002881              -0.000535728               0.001823104               0.001287376               0.000000000               0.000000000               0.000000000               0.000000000              -0.004818298               0.002099809               0.000160698              -0.002069335               0.001389705              -0.000679629               0.000000000               0.000000000               0.000000000               0.000000000              -0.004863393               0.004216225              -0.000933906              -0.002350795               0.002188992              -0.000161804               0.000000000               0.000000000               0.000000000               0.000000000              -0.005175041               0.006222728              -0.001777008              -0.002718475               0.002980380               0.000261905               0.000000000               0.000000000               0.000000000               0.000000000              -0.004707723               0.006905066              -0.001782277              -0.002628523               0.003177840               0.000549316               0.000000000               0.000000000               0.000000000               0.000000000              -0.004041565               0.007049574              -0.001605931              -0.002396778               0.003148760               0.000751982               0.000000000               0.000000000               0.000000000               0.000000000              -0.003334047               0.006970551              -0.001413119              -0.002121582               0.003030687               0.000909106               0.000000000               0.000000000               0.000000000               0.000000000              -0.002649020               0.006786157              -0.001235267              -0.001841648               0.002875912               0.001034264               0.000000000               0.000000000               0.000000000               0.000000000              -0.002015002               0.006544881              -0.001073199              -0.001573732               0.002706182               0.001132450               0.000000000               0.000000000               0.000000000               0.000000000              -0.001445190               0.006275160              -0.000935592              -0.001326338               0.002533812               0.001207473               0.000000000               0.000000000               0.000000000               0.000000000              -0.000940307               0.005989017              -0.000825683              -0.001101240               0.002363399               0.001262159               0.000000000               0.000000000               0.000000000               0.000000000              -0.000494178               0.005699037              -0.000726098              -0.000897694               0.002198891               0.001301197               0.000000000               0.000000000               0.000000000               0.000000000              -0.000111650               0.005430082              -0.000612152              -0.000720627               0.002050218               0.001329591               0.000000000               0.000000000               0.000000000               0.000000000               0.000196299               0.005209756              -0.000477950              -0.000577606               0.001929103               0.001351497               0.000000000               0.000000000               0.000000000               0.000000000               0.000410736               0.005055044              -0.000336081              -0.000477853               0.001844282               0.001366429               0.000000000               0.000000000               0.000000000               0.000000000               0.000522237               0.004971334              -0.000203534              -0.000425577               0.001798954               0.001373377               0.000000000               0.000000000               0.000000000               0.000000000               0.000540203               0.004962450              -0.000092335              -0.000417729               0.001793376               0.001375647               0.000000000               0.000000000               0.000000000               0.000000000               0.000502788               0.004960660              -0.000033685              -0.000431536               0.001797382               0.001365846               0.000000000               0.000000000               0.000000000               0.000000000              -0.006971349               0.000692092               0.000911212              -0.002700765               0.001130944              -0.001569820               0.000000000               0.000000000               0.000000000               0.000000000              -0.005965442               0.002784444              -0.000667409              -0.002585092               0.001789833              -0.000795259               0.000000000               0.000000000               0.000000000               0.000000000              -0.005518380               0.004711362              -0.001981794              -0.002658307               0.002456539              -0.000201768               0.000000000               0.000000000               0.000000000               0.000000000              -0.004833953               0.005641241              -0.002173817              -0.002517882               0.002719688               0.000201806               0.000000000               0.000000000               0.000000000               0.000000000              -0.004110877               0.006069334              -0.002051730              -0.002300241               0.002789837               0.000489597               0.000000000               0.000000000               0.000000000               0.000000000              -0.003395662               0.006239030              -0.001857673              -0.002053247               0.002764071               0.000710824               0.000000000               0.000000000               0.000000000               0.000000000              -0.002708767               0.006266286              -0.001652953              -0.001799069               0.002688431               0.000889361               0.000000000               0.000000000               0.000000000               0.000000000              -0.002061310               0.006203008              -0.001457771              -0.001548364               0.002583770               0.001035406               0.000000000               0.000000000               0.000000000               0.000000000              -0.001467292               0.006080909              -0.001286178              -0.001310345               0.002463731               0.001153386               0.000000000               0.000000000               0.000000000               0.000000000              -0.000928711               0.005921071              -0.001145983              -0.001088398               0.002336470               0.001248072               0.000000000               0.000000000               0.000000000               0.000000000              -0.000442494               0.005729502              -0.001019706              -0.000882121               0.002203855               0.001321734               0.000000000               0.000000000               0.000000000               0.000000000              -0.000005167               0.005523233              -0.000884747              -0.000692340               0.002071839               0.001379499               0.000000000               0.000000000               0.000000000               0.000000000               0.000380282               0.005332365              -0.000726630              -0.000523939               0.001952084               0.001428145               0.000000000               0.000000000               0.000000000               0.000000000               0.000693000               0.005179552              -0.000546914              -0.000387568               0.001855689               0.001468121               0.000000000               0.000000000               0.000000000               0.000000000               0.000904557               0.005069900              -0.000362026              -0.000294528               0.001788126               0.001493598               0.000000000               0.000000000               0.000000000               0.000000000               0.001000706               0.005016519              -0.000181871              -0.000251800               0.001756090               0.001504290               0.000000000               0.000000000               0.000000000               0.000000000               0.000998785               0.004995506              -0.000087626              -0.000249893               0.001748450               0.001498557               0.000000000               0.000000000               0.000000000               0.000000000              -0.009234648              -0.000305642               0.001416998              -0.003424785               0.001039707              -0.002385078               0.000000000               0.000000000               0.000000000               0.000000000              -0.007146892               0.001517786              -0.000386245              -0.002869804               0.001462520              -0.001407284               0.000000000               0.000000000               0.000000000               0.000000000              -0.005823413               0.003145831              -0.001958603              -0.002577004               0.001907598              -0.000669406               0.000000000               0.000000000               0.000000000               0.000000000              -0.004843981               0.004188681              -0.002311208              -0.002340073               0.002176236              -0.000163837               0.000000000               0.000000000               0.000000000               0.000000000              -0.004026356               0.004836685              -0.002270582              -0.002114465               0.002317033               0.000202568               0.000000000               0.000000000               0.000000000               0.000000000              -0.003298941               0.005232323              -0.002109261              -0.001891139               0.002374469               0.000483330               0.000000000               0.000000000               0.000000000               0.000000000              -0.002617080               0.005470872              -0.001915186              -0.001665260               0.002378692               0.000713432               0.000000000               0.000000000               0.000000000               0.000000000              -0.001972951               0.005598461              -0.001716411              -0.001439661               0.002346022               0.000906360               0.000000000               0.000000000               0.000000000               0.000000000              -0.001369085               0.005640234              -0.001534790              -0.001218434               0.002286203               0.001067770               0.000000000               0.000000000               0.000000000               0.000000000              -0.000809309               0.005617537              -0.001382092              -0.001005681               0.002207720               0.001202039               0.000000000               0.000000000               0.000000000               0.000000000              -0.000286464               0.005548941              -0.001244155              -0.000801040               0.002116642               0.001315601               0.000000000               0.000000000               0.000000000               0.000000000               0.000206927               0.005449055              -0.001100302              -0.000603533               0.002017511               0.001413978               0.000000000               0.000000000               0.000000000               0.000000000               0.000664016               0.005329647              -0.000932566              -0.000417199               0.001915597               0.001498398               0.000000000               0.000000000               0.000000000               0.000000000               0.001076071               0.005212633              -0.000733555              -0.000248052               0.001820211               0.001572159               0.000000000               0.000000000               0.000000000               0.000000000               0.001416479               0.005113380              -0.000509530              -0.000107993               0.001740441               0.001632448               0.000000000               0.000000000               0.000000000               0.000000000               0.001656209               0.005048209              -0.000265520              -0.000009948               0.001686035               0.001676087               0.000000000               0.000000000               0.000000000               0.000000000               0.001756639               0.005030135              -0.000141288               0.000029972               0.001666704               0.001696676               0.000000000               0.000000000               0.000000000               0.000000000              -0.011385905              -0.000905758               0.001575491              -0.004156492               0.001083570              -0.003072922               0.000000000               0.000000000               0.000000000               0.000000000              -0.008305629               0.000499440              -0.000145725              -0.003177038               0.001225484              -0.001951554               0.000000000               0.000000000               0.000000000               0.000000000              -0.006104457               0.001685782              -0.001702414              -0.002499891               0.001395214              -0.001104677               0.000000000               0.000000000               0.000000000               0.000000000              -0.004776678               0.002717318              -0.002138338              -0.002130916               0.001616066              -0.000514850               0.000000000               0.000000000               0.000000000               0.000000000              -0.003829205               0.003500704              -0.002172573              -0.001873536               0.001791400              -0.000082136               0.000000000               0.000000000               0.000000000               0.000000000              -0.003064842               0.004076663              -0.002064810              -0.001658895               0.001911838               0.000252943               0.000000000               0.000000000               0.000000000               0.000000000              -0.002387800               0.004504195              -0.001906428              -0.001458446               0.001987532               0.000529085               0.000000000               0.000000000               0.000000000               0.000000000              -0.001753855               0.004807081              -0.001732129              -0.001258578               0.002021870               0.000763292               0.000000000               0.000000000               0.000000000               0.000000000              -0.001151790               0.005006281              -0.001566802              -0.001057704               0.002021311               0.000963607               0.000000000               0.000000000               0.000000000               0.000000000              -0.000580990               0.005122837              -0.001425979              -0.000858225               0.001993670               0.001135445               0.000000000               0.000000000               0.000000000               0.000000000              -0.000032864               0.005182188              -0.001302466              -0.000660097               0.001947411               0.001287314               0.000000000               0.000000000               0.000000000               0.000000000               0.000506985               0.005202601              -0.001171941              -0.000460205               0.001887584               0.001427379               0.000000000               0.000000000               0.000000000               0.000000000               0.001037144               0.005185460              -0.001015132              -0.000259253               0.001814887               0.001555634               0.000000000               0.000000000               0.000000000               0.000000000               0.001548598               0.005141076              -0.000822098              -0.000061911               0.001734312               0.001672401               0.000000000               0.000000000               0.000000000               0.000000000               0.002031370               0.005091632              -0.000588875               0.000125308               0.001655424               0.001780733               0.000000000               0.000000000               0.000000000               0.000000000               0.002462922               0.005048856              -0.000315379               0.000292486               0.001585440               0.001877926               0.000000000               0.000000000               0.000000000               0.000000000               0.002722349               0.005052654              -0.000181381               0.000389295               0.001554436               0.001943731               0.000000000               0.000000000               0.000000000               0.000000000              -0.013179357              -0.001198605               0.001342593              -0.004792430               0.001197933              -0.003594497               0.000000000               0.000000000               0.000000000               0.000000000              -0.009300810              -0.000226160               0.000001354              -0.003459531               0.001077783              -0.002381748               0.000000000               0.000000000               0.000000000               0.000000000              -0.006342862               0.000504225              -0.001245676              -0.002441599               0.000981934              -0.001459665               0.000000000               0.000000000               0.000000000               0.000000000              -0.004676478               0.001444311              -0.001647281              -0.001934216               0.001126167              -0.000808048               0.000000000               0.000000000               0.000000000               0.000000000              -0.003584014               0.002286694              -0.001719672              -0.001629839               0.001305502              -0.000324338               0.000000000               0.000000000               0.000000000               0.000000000              -0.002769443               0.002979910              -0.001663373              -0.001411027               0.001463635               0.000052608               0.000000000               0.000000000               0.000000000               0.000000000              -0.002090513               0.003539195              -0.001555976              -0.001226339               0.001588499               0.000362160               0.000000000               0.000000000               0.000000000               0.000000000              -0.001468191               0.003980231              -0.001428421              -0.001048098               0.001676096               0.000627998               0.000000000               0.000000000               0.000000000               0.000000000              -0.000869322               0.004317452              -0.001301396              -0.000865676               0.001727695               0.000862019               0.000000000               0.000000000               0.000000000               0.000000000              -0.000289777               0.004564782              -0.001191098              -0.000679263               0.001748000               0.001068737               0.000000000               0.000000000               0.000000000               0.000000000               0.000275185               0.004741364              -0.001099417              -0.000489476               0.001743597               0.001254122               0.000000000               0.000000000               0.000000000               0.000000000               0.000844288               0.004867313              -0.001007374              -0.000291806               0.001719690               0.001427884               0.000000000               0.000000000               0.000000000               0.000000000               0.001430322               0.004951758              -0.000888727              -0.000082600               0.001678103               0.001595503               0.000000000               0.000000000               0.000000000               0.000000000               0.002032570               0.004993221              -0.000733762               0.000138060               0.001618371               0.001756430               0.000000000               0.000000000               0.000000000               0.000000000               0.002658358               0.005009497              -0.000539155               0.000370693               0.001546251               0.001916945               0.000000000               0.000000000               0.000000000               0.000000000               0.003301209               0.005011917              -0.000295817               0.000611458               0.001466803               0.002078261               0.000000000               0.000000000               0.000000000               0.000000000               0.003743836               0.005053089              -0.000177800               0.000772295               0.001426915               0.002199209               0.000000000               0.000000000               0.000000000               0.000000000              -0.014378088              -0.001301683               0.000771306              -0.005229069               0.001309120              -0.003919950               0.000000000               0.000000000               0.000000000               0.000000000              -0.009984817              -0.000653260               0.000037115              -0.003662646               0.001003122              -0.002659524               0.000000000               0.000000000               0.000000000               0.000000000              -0.006509178              -0.000262598              -0.000656109              -0.002408115               0.000715167              -0.001692948               0.000000000               0.000000000               0.000000000               0.000000000              -0.004598046               0.000579027              -0.000896361              -0.001796644               0.000791884              -0.001004759               0.000000000               0.000000000               0.000000000               0.000000000              -0.003391252               0.001432673              -0.000952746              -0.001450801               0.000961151              -0.000489650               0.000000000               0.000000000               0.000000000               0.000000000              -0.002529940               0.002182187              -0.000932105              -0.001221498               0.001134554              -0.000086945               0.000000000               0.000000000               0.000000000               0.000000000              -0.001838086               0.002812700              -0.000878296              -0.001040867               0.001284513               0.000243646               0.000000000               0.000000000               0.000000000               0.000000000              -0.001224480               0.003340493              -0.000811548              -0.000876740               0.001405733               0.000528993               0.000000000               0.000000000               0.000000000               0.000000000              -0.000635355               0.003774698              -0.000743570              -0.000710094               0.001494918               0.000784824               0.000000000               0.000000000               0.000000000               0.000000000              -0.000054501               0.004116186              -0.000681416              -0.000534960               0.001550368               0.001015408               0.000000000               0.000000000               0.000000000               0.000000000               0.000525235               0.004380448              -0.000632053              -0.000350592               0.001576999               0.001226406               0.000000000               0.000000000               0.000000000               0.000000000               0.001111512               0.004583044              -0.000586197              -0.000156063               0.001579687               0.001423624               0.000000000               0.000000000               0.000000000               0.000000000               0.001726851               0.004742373              -0.000522975               0.000054772               0.001562518               0.001617290               0.000000000               0.000000000               0.000000000               0.000000000               0.002395041               0.004861533              -0.000439395               0.000290446               0.001523679               0.001814125               0.000000000               0.000000000               0.000000000               0.000000000               0.003134427               0.004942412              -0.000330855               0.000557603               0.001461587               0.002019190               0.000000000               0.000000000               0.000000000               0.000000000               0.003958171               0.004984345              -0.000183832               0.000861262               0.001374344               0.002235607               0.000000000               0.000000000               0.000000000               0.000000000               0.004570233               0.005057136              -0.000111851               0.001081684               0.001325134               0.002406818               0.000000000               0.000000000               0.000000000               0.000000000              -0.014799860              -0.001316842              -0.000000000              -0.005385339               0.001356156              -0.004029182               0.000000000               0.000000000               0.000000000               0.000000000              -0.010230182              -0.000790369               0.000000000              -0.003737520               0.000982377              -0.002755143               0.000000000               0.000000000               0.000000000               0.000000000              -0.006570434              -0.000529627               0.000000000              -0.002397708               0.000622689              -0.001775019               0.000000000               0.000000000               0.000000000               0.000000000              -0.004571879               0.000272008              -0.000000000              -0.001748454               0.000673483              -0.001074971               0.000000000               0.000000000               0.000000000               0.000000000              -0.003322557               0.001126337               0.000000000              -0.001386749               0.000837690              -0.000549059               0.000000000               0.000000000               0.000000000               0.000000000              -0.002442052               0.001885312               0.000000000              -0.001151431               0.001012241              -0.000139190               0.000000000               0.000000000               0.000000000               0.000000000              -0.001744249               0.002535007              -0.000000000              -0.000970967               0.001168649               0.000197682               0.000000000               0.000000000               0.000000000               0.000000000              -0.001128875               0.003098508              -0.000000000              -0.000810640               0.001303039               0.000492399               0.000000000               0.000000000               0.000000000               0.000000000              -0.000545755               0.003571098              -0.000000000              -0.000651044               0.001407369               0.000756325               0.000000000               0.000000000               0.000000000               0.000000000               0.000031877               0.003944426              -0.000000000              -0.000481098               0.001475162               0.000994063               0.000000000               0.000000000               0.000000000               0.000000000               0.000616475               0.004238296               0.000000000              -0.000298608               0.001512287               0.001213679               0.000000000               0.000000000               0.000000000               0.000000000               0.001208637               0.004470990               0.000000000              -0.000105635               0.001525527               0.001419892               0.000000000               0.000000000               0.000000000               0.000000000               0.001835801               0.004664698              -0.000000000               0.000105337               0.001519771               0.001625108               0.000000000               0.000000000               0.000000000               0.000000000               0.002529898               0.004817840              -0.000000000               0.000346478               0.001490438               0.001836916               0.000000000               0.000000000               0.000000000               0.000000000               0.003311310               0.004923239               0.000000000               0.000626330               0.001432286               0.002058617               0.000000000               0.000000000               0.000000000               0.000000000               0.004210102               0.004978783               0.000000000               0.000956431               0.001340768               0.002297198               0.000000000               0.000000000               0.000000000               0.000000000               0.004898481               0.005063934               0.000000000               0.001203927               0.001286652               0.002490579               0.000000000               0.000000000               0.000000000               0.000000000               0.000000000               0.000000000               0.000000000               0.000000000               0.000000000               0.000000000               0.000000000               0.000000000               0.000000000               0.000000000               0.000000000               0.000000000               0.000000000               0.000000000               0.000000000               0.000000000               0.000000000               0.000000000               0.000000000               0.000000000               0.000000000               0.000000000               0.000000000               0.000000000               0.000000000               0.000000000               0.000000000               0.000000000               0.000000000               0.000000000               0.000000000               0.000000000               0.000000000               0.000000000               0.000000000               0.000000000               0.000000000               0.000000000               0.000000000               0.000000000               0.000000000               0.000000000               0.000000000               0.000000000               0.000000000               0.000000000               0.000000000               0.000000000               0.000000000               0.000000000               0.000000000               0.000000000               0.000000000               0.000000000               0.000000000               0.000000000               0.000000000               0.000000000               0.000000000               0.000000000               0.000000000               0.000000000               0.000000000               0.000000000               0.000000000               0.000000000               0.000000000               0.000000000               0.000000000               0.000000000               0.000000000               0.000000000               0.000000000               0.000000000               0.000000000               0.000000000               0.000000000               0.000000000               0.000000000               0.000000000               0.000000000               0.000000000               0.000000000               0.000000000               0.000000000               0.000000000               0.000000000               0.000000000               0.000000000               0.000000000               0.000000000               0.000000000               0.000000000               0.000000000               0.000000000               0.000000000               0.000000000               0.000000000               0.000000000               0.000000000               0.000000000               0.000000000               0.000000000               0.000000000               0.000000000               0.000000000               0.000000000               0.000000000               0.000000000               0.000000000               0.000000000               0.000000000               0.000000000               0.000000000               0.000000000               0.000000000               0.000000000               0.000000000               0.000000000               0.000000000               0.000000000               0.000000000               0.000000000               0.000000000               0.000000000               0.000000000               0.000000000               0.000000000               0.000000000               0.000000000               0.000000000               0.000000000               0.000000000               0.000000000               0.000000000               0.000000000               0.000000000               0.000000000               0.000000000               0.000000000               0.000000000               0.000000000               0.000000000               0.000000000               0.000000000               0.000000000               0.000000000               0.000000000               0.000000000               0.000000000               0.000000000               0.000000000               0.000000000               0.000000000               0.000000000               0.000000000               0.000000000               0.000000000               0.000000000               0.000000000               0.000000000               0.000000000               0.000000000               0.000000000               0.000000000               0.000000000               0.000000000               0.000000000               0.000000000               0.000000000               0.002211278               0.022140303               0.001476998              -0.001938304               0.008026129               0.006087824               0.000000000               0.000000000               0.000000000               0.000000000               0.001991214               0.016967163               0.000636232              -0.001374187               0.006113727               0.004739540               0.000000000               0.000000000               0.000000000               0.000000000               0.002447991               0.012811935              -0.000189234              -0.000683494               0.004498434               0.003814940               0.000000000               0.000000000               0.000000000               0.000000000               0.002203856               0.010453467              -0.000521110              -0.000480236               0.003644533               0.003164296               0.000000000               0.000000000               0.000000000               0.000000000               0.001792495               0.008943548              -0.000645629              -0.000445757               0.003129739               0.002683982               0.000000000               0.000000000               0.000000000               0.000000000               0.001383745               0.007874886              -0.000676654              -0.000465455               0.002780087               0.002314632               0.000000000               0.000000000               0.000000000               0.000000000               0.001016634               0.007038258              -0.000663511              -0.000498543               0.002512244               0.002013700               0.000000000               0.000000000               0.000000000               0.000000000               0.000702270               0.006324418              -0.000636055              -0.000527200               0.002283852               0.001756652               0.000000000               0.000000000               0.000000000               0.000000000               0.000440597               0.005675411              -0.000602482              -0.000544201               0.002073185               0.001528984               0.000000000               0.000000000               0.000000000               0.000000000               0.000229321               0.005055514              -0.000565667              -0.000545943               0.001867135               0.001321193               0.000000000               0.000000000               0.000000000               0.000000000               0.000065066               0.004447316              -0.000530958              -0.000531514               0.001659595               0.001128081               0.000000000               0.000000000               0.000000000               0.000000000              -0.000058879               0.003836750              -0.000493018              -0.000501672               0.001446128               0.000944455               0.000000000               0.000000000               0.000000000               0.000000000              -0.000143823               0.003205369              -0.000445493              -0.000454604               0.001219980               0.000765376               0.000000000               0.000000000               0.000000000               0.000000000              -0.000180952               0.002542573              -0.000383220              -0.000385678               0.000976075               0.000590397               0.000000000               0.000000000               0.000000000               0.000000000              -0.000165574               0.001836699              -0.000295633              -0.000291677               0.000709452               0.000417775               0.000000000               0.000000000               0.000000000               0.000000000              -0.000097188               0.001070512              -0.000168772              -0.000170259               0.000413587               0.000243327               0.000000000               0.000000000               0.000000000               0.000000000              -0.000110579               0.000499113              -0.000105352              -0.000103856               0.000200988               0.000097132               0.000000000               0.000000000               0.000000000               0.000000000               0.002326783               0.020718611               0.002724346              -0.001717280               0.007478561               0.005761281               0.000000000               0.000000000               0.000000000               0.000000000               0.001758796               0.016080593               0.001164836              -0.001350523               0.005810318               0.004459796               0.000000000               0.000000000               0.000000000               0.000000000               0.001845212               0.012474645              -0.000347903              -0.000867374               0.004447298               0.003579924               0.000000000               0.000000000               0.000000000               0.000000000               0.001475601               0.010394983              -0.000931859              -0.000746021               0.003713633               0.002967612               0.000000000               0.000000000               0.000000000               0.000000000               0.001051338               0.009029064              -0.001140097              -0.000734380               0.003254451               0.002520071               0.000000000               0.000000000               0.000000000               0.000000000               0.000684715               0.008029850              -0.001185491              -0.000746962               0.002925577               0.002178615               0.000000000               0.000000000               0.000000000               0.000000000               0.000392271               0.007224154              -0.001156971              -0.000755916               0.002659999               0.001904083               0.000000000               0.000000000               0.000000000               0.000000000               0.000163226               0.006518124              -0.001101163              -0.000753554               0.002423871               0.001670317               0.000000000               0.000000000               0.000000000               0.000000000              -0.000014129               0.005864398              -0.001036060              -0.000738347               0.002200895               0.001462548               0.000000000               0.000000000               0.000000000               0.000000000              -0.000144313               0.005246458              -0.000967253              -0.000709923               0.001985443               0.001275520               0.000000000               0.000000000               0.000000000               0.000000000              -0.000233750               0.004648479              -0.000901492              -0.000668715               0.001772382               0.001103667               0.000000000               0.000000000               0.000000000               0.000000000              -0.000286711               0.004060694              -0.000827680              -0.000615102               0.001558585               0.000943483               0.000000000               0.000000000               0.000000000               0.000000000              -0.000302824               0.003472242              -0.000734667              -0.000547588               0.001339932               0.000792343               0.000000000               0.000000000               0.000000000               0.000000000              -0.000274476               0.002878121              -0.000619631              -0.000462693               0.001113595               0.000650902               0.000000000               0.000000000               0.000000000               0.000000000              -0.000205789               0.002280167              -0.000468781              -0.000362191               0.000880778               0.000518587               0.000000000               0.000000000               0.000000000               0.000000000              -0.000109824               0.001685397              -0.000263566              -0.000251858               0.000645746               0.000393888               0.000000000               0.000000000               0.000000000               0.000000000              -0.000098498               0.001277829              -0.000160833              -0.000196665               0.000491494               0.000294829               0.000000000               0.000000000               0.000000000               0.000000000               0.002394993               0.018566883               0.003559979              -0.001422736               0.006663144               0.005240408               0.000000000               0.000000000               0.000000000               0.000000000               0.001341338               0.014764615               0.001511303              -0.001342572               0.005369013               0.004026441               0.000000000               0.000000000               0.000000000               0.000000000               0.000915162               0.011984343              -0.000443361              -0.001154854               0.004379693               0.003224838               0.000000000               0.000000000               0.000000000               0.000000000               0.000414105               0.010301107              -0.001152457              -0.001132347               0.003811117               0.002678770               0.000000000               0.000000000               0.000000000               0.000000000               0.000015631               0.009127021              -0.001382867              -0.001135014               0.003420648               0.002285634               0.000000000               0.000000000               0.000000000               0.000000000              -0.000263262               0.008209618              -0.001418158              -0.001124923               0.003111486               0.001986563               0.000000000               0.000000000               0.000000000               0.000000000              -0.000440451               0.007430932              -0.001369598              -0.001094033               0.002841630               0.001747597               0.000000000               0.000000000               0.000000000               0.000000000              -0.000546218               0.006731788              -0.001288318              -0.001046303               0.002592674               0.001546371               0.000000000               0.000000000               0.000000000               0.000000000              -0.000601181               0.006084100              -0.001201186              -0.000985953               0.002356664               0.001370711               0.000000000               0.000000000               0.000000000               0.000000000              -0.000614683               0.005476818              -0.001112138              -0.000915106               0.002130623               0.001215517               0.000000000               0.000000000               0.000000000               0.000000000              -0.000593283               0.004900119              -0.001025226              -0.000834994               0.001911688               0.001076694               0.000000000               0.000000000               0.000000000               0.000000000              -0.000543023               0.004348497              -0.000931675              -0.000747194               0.001698549               0.000951355               0.000000000               0.000000000               0.000000000               0.000000000              -0.000462779               0.003825026              -0.000813663              -0.000651669               0.001492219               0.000840550               0.000000000               0.000000000               0.000000000               0.000000000              -0.000355539               0.003331852              -0.000666938              -0.000549807               0.001293875               0.000744068               0.000000000               0.000000000               0.000000000               0.000000000              -0.000233067               0.002880422              -0.000487854              -0.000447452               0.001109282               0.000661830               0.000000000               0.000000000               0.000000000               0.000000000              -0.000112795               0.002493739              -0.000267017              -0.000354015               0.000949243               0.000595228               0.000000000               0.000000000               0.000000000               0.000000000              -0.000076115               0.002269385              -0.000155186              -0.000312216               0.000860526               0.000548310               0.000000000               0.000000000               0.000000000               0.000000000               0.002267330               0.015957719               0.003906279              -0.001144466               0.005700674               0.004556208               0.000000000               0.000000000               0.000000000               0.000000000               0.000723980               0.013206963               0.001665642              -0.001379376               0.004862069               0.003482693               0.000000000               0.000000000               0.000000000               0.000000000              -0.000219755               0.011405601              -0.000435799              -0.001508105               0.004304531               0.002796426               0.000000000               0.000000000               0.000000000               0.000000000              -0.000796906               0.010149175              -0.001137085              -0.001567483               0.003905519               0.002338036               0.000000000               0.000000000               0.000000000               0.000000000              -0.001107978               0.009159618              -0.001335244              -0.001560441               0.003573322               0.002012882               0.000000000               0.000000000               0.000000000               0.000000000              -0.001240332               0.008317339              -0.001346640              -0.001504788               0.003274015               0.001769226               0.000000000               0.000000000               0.000000000               0.000000000              -0.001262037               0.007568287              -0.001284125              -0.001419296               0.002995836               0.001576539               0.000000000               0.000000000               0.000000000               0.000000000              -0.001218308               0.006885984              -0.001195851              -0.001317611               0.002734508               0.001416898               0.000000000               0.000000000               0.000000000               0.000000000              -0.001130123               0.006259578              -0.001103404              -0.001206241               0.002488585               0.001282345               0.000000000               0.000000000               0.000000000               0.000000000              -0.001011097               0.005676080              -0.001011735              -0.001088669               0.002254897               0.001166228               0.000000000               0.000000000               0.000000000               0.000000000              -0.000866418               0.005132137              -0.000922116              -0.000966422               0.002032835               0.001066414               0.000000000               0.000000000               0.000000000               0.000000000              -0.000704835               0.004628150              -0.000826169              -0.000842830               0.001823644               0.000980815               0.000000000               0.000000000               0.000000000               0.000000000              -0.000534209               0.004176469              -0.000705090              -0.000722385               0.001632937               0.000910552               0.000000000               0.000000000               0.000000000               0.000000000              -0.000365059               0.003789285              -0.000554712              -0.000610556               0.001466601               0.000856045               0.000000000               0.000000000               0.000000000               0.000000000              -0.000209866               0.003479418              -0.000383626              -0.000513626               0.001331003               0.000817377               0.000000000               0.000000000               0.000000000               0.000000000              -0.000091307               0.003265710              -0.000198570              -0.000442453               0.001236043               0.000793591               0.000000000               0.000000000               0.000000000               0.000000000              -0.000046707               0.003179299              -0.000105484              -0.000414926               0.001198065               0.000783138               0.000000000               0.000000000               0.000000000               0.000000000               0.001829341               0.013164829               0.003786913              -0.000959601               0.004708099               0.003748498               0.000000000               0.000000000               0.000000000               0.000000000              -0.000079540               0.011572379               0.001666535              -0.001476372               0.004349545               0.002873173               0.000000000               0.000000000               0.000000000               0.000000000              -0.001425848               0.010772014              -0.000291300              -0.001881190               0.004217699               0.002336509               0.000000000               0.000000000               0.000000000               0.000000000              -0.001969853               0.009905263              -0.000886191              -0.001976848               0.003960671               0.001983823               0.000000000               0.000000000               0.000000000               0.000000000              -0.002120801               0.009075975              -0.001033071              -0.001929793               0.003668559               0.001738766               0.000000000               0.000000000               0.000000000               0.000000000              -0.002061955               0.008304330              -0.001030883              -0.001811270               0.003371839               0.001560569               0.000000000               0.000000000               0.000000000               0.000000000              -0.001901969               0.007592906              -0.000974875              -0.001662348               0.003085059               0.001422711               0.000000000               0.000000000               0.000000000               0.000000000              -0.001697240               0.006942563              -0.000899989              -0.001504282               0.002815592               0.001311310               0.000000000               0.000000000               0.000000000               0.000000000              -0.001465147               0.006345484              -0.000822058              -0.001342613               0.002562677               0.001220065               0.000000000               0.000000000               0.000000000               0.000000000              -0.001218205               0.005793319              -0.000741842              -0.001180989               0.002324750               0.001143761               0.000000000               0.000000000               0.000000000               0.000000000              -0.000965598               0.005286299              -0.000659295              -0.001022884               0.002103043               0.001080159               0.000000000               0.000000000               0.000000000               0.000000000              -0.000720942               0.004832709              -0.000573951              -0.000874440               0.001902367               0.001027927               0.000000000               0.000000000               0.000000000               0.000000000              -0.000491868               0.004453129              -0.000469520              -0.000741090               0.001731391               0.000990302               0.000000000               0.000000000               0.000000000               0.000000000              -0.000294576               0.004155003              -0.000342362              -0.000629840               0.001594934               0.000965094               0.000000000               0.000000000               0.000000000               0.000000000              -0.000144750               0.003947203              -0.000209708              -0.000547680               0.001498281               0.000950601               0.000000000               0.000000000               0.000000000               0.000000000              -0.000053057               0.003838223              -0.000093667              -0.000499673               0.001445952               0.000946279               0.000000000               0.000000000               0.000000000               0.000000000              -0.000019745               0.003816452              -0.000040857              -0.000484460               0.001433625               0.000949165               0.000000000               0.000000000               0.000000000               0.000000000               0.001032137               0.010415711               0.003295016              -0.000914913               0.003776839               0.002861926               0.000000000               0.000000000               0.000000000               0.000000000              -0.001016896               0.009979839               0.001573465              -0.001628813               0.003869517               0.002240704               0.000000000               0.000000000               0.000000000               0.000000000              -0.002565417               0.010095732              -0.000006397              -0.002223992               0.004106541               0.001882549               0.000000000               0.000000000               0.000000000               0.000000000              -0.002949472               0.009551167              -0.000455304              -0.002299942               0.003950338               0.001650396               0.000000000               0.000000000               0.000000000               0.000000000              -0.002879191               0.008856337              -0.000566773              -0.002186733               0.003680994               0.001494261               0.000000000               0.000000000               0.000000000               0.000000000              -0.002615113               0.008154497              -0.000574690              -0.001999975               0.003384797               0.001384822               0.000000000               0.000000000               0.000000000               0.000000000              -0.002276674               0.007494650              -0.000547797              -0.001790580               0.003095052               0.001304472               0.000000000               0.000000000               0.000000000               0.000000000              -0.001919819               0.006885372              -0.000504381              -0.001580600               0.002821968               0.001241368               0.000000000               0.000000000               0.000000000               0.000000000              -0.001565316               0.006320264              -0.000454122              -0.001377023               0.002565741               0.001188718               0.000000000               0.000000000               0.000000000               0.000000000              -0.001225144               0.005802334              -0.000397217              -0.001184718               0.002328998               0.001144280               0.000000000               0.000000000               0.000000000               0.000000000              -0.000904482               0.005342599              -0.000335040              -0.001007003               0.002116516               0.001109513               0.000000000               0.000000000               0.000000000               0.000000000              -0.000615576               0.004951569              -0.000276263              -0.000849785               0.001933768               0.001083983               0.000000000               0.000000000               0.000000000               0.000000000              -0.000370671               0.004640122              -0.000210243              -0.000719015               0.001786363               0.001067348               0.000000000               0.000000000               0.000000000               0.000000000              -0.000182363               0.004416247              -0.000132837              -0.000620416               0.001678873               0.001058457               0.000000000               0.000000000               0.000000000               0.000000000              -0.000063251               0.004285201              -0.000064744              -0.000559368               0.001614842               0.001055474               0.000000000               0.000000000               0.000000000               0.000000000              -0.000012033               0.004237041              -0.000020941              -0.000534141               0.001590380               0.001056239               0.000000000               0.000000000               0.000000000               0.000000000              -0.000001484               0.004238173              -0.000004661              -0.000530327               0.001589486               0.001059159               0.000000000               0.000000000               0.000000000               0.000000000              -0.000090296               0.007890198               0.002541452              -0.001020135               0.002970084               0.001949949               0.000000000               0.000000000               0.000000000               0.000000000              -0.002037729               0.008529665               0.001436470              -0.001830353               0.003453311               0.001622958               0.000000000               0.000000000               0.000000000               0.000000000              -0.003529009               0.009382748               0.000397152              -0.002496216               0.003959623               0.001463408               0.000000000               0.000000000               0.000000000               0.000000000              -0.003645387               0.009077010               0.000077031              -0.002501640               0.003859520               0.001357880               0.000000000               0.000000000               0.000000000               0.000000000              -0.003324601               0.008498621              -0.000036717              -0.002309047               0.003602528               0.001293480               0.000000000               0.000000000               0.000000000               0.000000000              -0.002861324               0.007878512              -0.000081628              -0.002057805               0.003312079               0.001254274               0.000000000               0.000000000               0.000000000               0.000000000              -0.002367737               0.007283411              -0.000097176              -0.001798323               0.003027220               0.001228897               0.000000000               0.000000000               0.000000000               0.000000000              -0.001887241               0.006717107              -0.000096207              -0.001547350               0.002754797               0.001207447               0.000000000               0.000000000               0.000000000               0.000000000              -0.001442156               0.006190980              -0.000086108              -0.001314678               0.002501865               0.001187187               0.000000000               0.000000000               0.000000000               0.000000000              -0.001044783               0.005718271              -0.000067003              -0.001106575               0.002274930               0.001168355               0.000000000               0.000000000               0.000000000               0.000000000              -0.000698797               0.005310904              -0.000045160              -0.000925909               0.002078920               0.001153011               0.000000000               0.000000000               0.000000000               0.000000000              -0.000410337               0.004983862              -0.000030161              -0.000776857               0.001920223               0.001143366               0.000000000               0.000000000               0.000000000               0.000000000              -0.000189555               0.004743033              -0.000019090              -0.000663961               0.001802315               0.001138355               0.000000000               0.000000000               0.000000000               0.000000000              -0.000047723               0.004597882              -0.000004003              -0.000592630               0.001730155               0.001137525               0.000000000               0.000000000               0.000000000               0.000000000               0.000015567               0.004539250               0.000005252              -0.000561567               0.001700257               0.001138690               0.000000000               0.000000000               0.000000000               0.000000000               0.000020141               0.004544626               0.000004026              -0.000560524               0.001701701               0.001141177               0.000000000               0.000000000               0.000000000               0.000000000               0.000012130               0.004570411               0.000004039              -0.000566751               0.001712372               0.001145621               0.000000000               0.000000000               0.000000000               0.000000000              -0.001406712               0.005779903               0.001644670              -0.001250003               0.002343282               0.001093280               0.000000000               0.000000000               0.000000000               0.000000000              -0.003041270               0.007237136               0.001292327              -0.002045114               0.003094059               0.001048945               0.000000000               0.000000000               0.000000000               0.000000000              -0.004292526               0.008650868               0.000878377              -0.002691049               0.003780610               0.001089561               0.000000000               0.000000000               0.000000000               0.000000000              -0.004123077               0.008593010               0.000638539              -0.002620273               0.003737732               0.001117459               0.000000000               0.000000000               0.000000000               0.000000000              -0.003588209               0.008158242               0.000489919              -0.002365353               0.003507838               0.001142485               0.000000000               0.000000000               0.000000000               0.000000000              -0.002961933               0.007641070               0.000393069              -0.002065854               0.003235616               0.001169762               0.000000000               0.000000000               0.000000000               0.000000000              -0.002346165               0.007114902               0.000326463              -0.001769170               0.002961334               0.001192163               0.000000000               0.000000000               0.000000000               0.000000000              -0.001775554               0.006598938               0.000277027              -0.001490696               0.002696523               0.001205827               0.000000000               0.000000000               0.000000000               0.000000000              -0.001265433               0.006118697               0.000239754              -0.001239371               0.002452669               0.001213298               0.000000000               0.000000000               0.000000000               0.000000000              -0.000827906               0.005682360               0.000213223              -0.001020757               0.002234354               0.001213596               0.000000000               0.000000000               0.000000000               0.000000000              -0.000464612               0.005309778               0.000187442              -0.000837950               0.002049225               0.001211275               0.000000000               0.000000000               0.000000000               0.000000000              -0.000180068               0.005024272               0.000150287              -0.000695558               0.001906593               0.001211035               0.000000000               0.000000000               0.000000000               0.000000000               0.000014910               0.004834235               0.000102837              -0.000598687               0.001810958               0.001212271               0.000000000               0.000000000               0.000000000               0.000000000               0.000109274               0.004738491               0.000060894              -0.000551332               0.001763259               0.001211927               0.000000000               0.000000000               0.000000000               0.000000000               0.000120752               0.004727676               0.000030195              -0.000545676               0.001757768               0.001212092               0.000000000               0.000000000               0.000000000               0.000000000               0.000091796               0.004778588               0.000007714              -0.000562899               0.001780480               0.001217581               0.000000000               0.000000000               0.000000000               0.000000000               0.000068008               0.004820703              -0.000000989              -0.000577084               0.001799246               0.001222163               0.000000000               0.000000000               0.000000000               0.000000000              -0.002920654               0.003842437               0.000719712              -0.001575546               0.001805981               0.000230435               0.000000000               0.000000000               0.000000000               0.000000000              -0.003897975               0.005735336               0.001139654              -0.002178653               0.002637977               0.000459324               0.000000000               0.000000000               0.000000000               0.000000000              -0.004769112               0.007544830               0.001376170              -0.002731514               0.003425423               0.000693909               0.000000000               0.000000000               0.000000000               0.000000000              -0.004443307               0.007868744               0.001226552              -0.002649826               0.003506164               0.000856337               0.000000000               0.000000000               0.000000000               0.000000000              -0.003820161               0.007704614               0.001046273              -0.002395631               0.003366722               0.000971091               0.000000000               0.000000000               0.000000000               0.000000000              -0.003134072               0.007386146               0.000892888              -0.002098540               0.003161537               0.001062997               0.000000000               0.000000000               0.000000000               0.000000000              -0.002469800               0.007012042               0.000767168              -0.001802676               0.002938216               0.001135540               0.000000000               0.000000000               0.000000000               0.000000000              -0.001863684               0.006617230               0.000658759              -0.001526031               0.002714398               0.001188367               0.000000000               0.000000000               0.000000000               0.000000000              -0.001325037               0.006227233               0.000570304              -0.001275290               0.002500820               0.001225530               0.000000000               0.000000000               0.000000000               0.000000000              -0.000857436               0.005850060               0.000498739              -0.001052793               0.002300931               0.001248138               0.000000000               0.000000000               0.000000000               0.000000000              -0.000459766               0.005504086               0.000430569              -0.000860421               0.002121484               0.001261063               0.000000000               0.000000000               0.000000000               0.000000000              -0.000140742               0.005215621               0.000349271              -0.000704729               0.001973432               0.001268703               0.000000000               0.000000000               0.000000000               0.000000000               0.000088158               0.005006822               0.000252707              -0.000592792               0.001866521               0.001273729               0.000000000               0.000000000               0.000000000               0.000000000               0.000222396               0.004889881               0.000158607              -0.000527835               0.001805889               0.001278054               0.000000000               0.000000000               0.000000000               0.000000000               0.000267666               0.004859647               0.000082261              -0.000507080               0.001788893               0.001281813               0.000000000               0.000000000               0.000000000               0.000000000               0.000251744               0.004903681               0.000029397              -0.000518555               0.001807396               0.001288841               0.000000000               0.000000000               0.000000000               0.000000000               0.000215932               0.004933632               0.000002881              -0.000535728               0.001823104               0.001287376               0.000000000               0.000000000               0.000000000               0.000000000              -0.004818298               0.002099809              -0.000160698              -0.002069335               0.001389705              -0.000679629               0.000000000               0.000000000               0.000000000               0.000000000              -0.004863393               0.004216225               0.000933906              -0.002350795               0.002188992              -0.000161804               0.000000000               0.000000000               0.000000000               0.000000000              -0.005175041               0.006222728               0.001777008              -0.002718475               0.002980380               0.000261905               0.000000000               0.000000000               0.000000000               0.000000000              -0.004707723               0.006905066               0.001782277              -0.002628523               0.003177840               0.000549316               0.000000000               0.000000000               0.000000000               0.000000000              -0.004041565               0.007049574               0.001605931              -0.002396778               0.003148760               0.000751982               0.000000000               0.000000000               0.000000000               0.000000000              -0.003334047               0.006970551               0.001413119              -0.002121582               0.003030687               0.000909106               0.000000000               0.000000000               0.000000000               0.000000000              -0.002649020               0.006786157               0.001235267              -0.001841648               0.002875912               0.001034264               0.000000000               0.000000000               0.000000000               0.000000000              -0.002015002               0.006544881               0.001073199              -0.001573732               0.002706182               0.001132450               0.000000000               0.000000000               0.000000000               0.000000000              -0.001445190               0.006275160               0.000935592              -0.001326338               0.002533812               0.001207473               0.000000000               0.000000000               0.000000000               0.000000000              -0.000940307               0.005989017               0.000825683              -0.001101240               0.002363399               0.001262159               0.000000000               0.000000000               0.000000000               0.000000000              -0.000494178               0.005699037               0.000726098              -0.000897694               0.002198891               0.001301197               0.000000000               0.000000000               0.000000000               0.000000000              -0.000111650               0.005430082               0.000612152              -0.000720627               0.002050218               0.001329591               0.000000000               0.000000000               0.000000000               0.000000000               0.000196299               0.005209756               0.000477950              -0.000577606               0.001929103               0.001351497               0.000000000               0.000000000               0.000000000               0.000000000               0.000410736               0.005055044               0.000336081              -0.000477853               0.001844282               0.001366429               0.000000000               0.000000000               0.000000000               0.000000000               0.000522237               0.004971334               0.000203534              -0.000425577               0.001798954               0.001373377               0.000000000               0.000000000               0.000000000               0.000000000               0.000540203               0.004962450               0.000092335              -0.000417729               0.001793376               0.001375647               0.000000000               0.000000000               0.000000000               0.000000000               0.000502788               0.004960660               0.000033685              -0.000431536               0.001797382               0.001365846               0.000000000               0.000000000               0.000000000               0.000000000              -0.006971349               0.000692092              -0.000911212              -0.002700765               0.001130944              -0.001569820               0.000000000               0.000000000               0.000000000               0.000000000              -0.005965442               0.002784444               0.000667409              -0.002585092               0.001789833              -0.000795259               0.000000000               0.000000000               0.000000000               0.000000000              -0.005518380               0.004711362               0.001981794              -0.002658307               0.002456539              -0.000201768               0.000000000               0.000000000               0.000000000               0.000000000              -0.004833953               0.005641241               0.002173817              -0.002517882               0.002719688               0.000201806               0.000000000               0.000000000               0.000000000               0.000000000              -0.004110877               0.006069334               0.002051730              -0.002300241               0.002789837               0.000489597               0.000000000               0.000000000               0.000000000               0.000000000              -0.003395662               0.006239030               0.001857673              -0.002053247               0.002764071               0.000710824               0.000000000               0.000000000               0.000000000               0.000000000              -0.002708767               0.006266286               0.001652953              -0.001799069               0.002688431               0.000889361               0.000000000               0.000000000               0.000000000               0.000000000              -0.002061310               0.006203008               0.001457771              -0.001548364               0.002583770               0.001035406               0.000000000               0.000000000               0.000000000               0.000000000              -0.001467292               0.006080909               0.001286178              -0.001310345               0.002463731               0.001153386               0.000000000               0.000000000               0.000000000               0.000000000              -0.000928711               0.005921071               0.001145983              -0.001088398               0.002336470               0.001248072               0.000000000               0.000000000               0.000000000               0.000000000              -0.000442494               0.005729502               0.001019706              -0.000882121               0.002203855               0.001321734               0.000000000               0.000000000               0.000000000               0.000000000              -0.000005167               0.005523233               0.000884747              -0.000692340               0.002071839               0.001379499               0.000000000               0.000000000               0.000000000               0.000000000               0.000380282               0.005332365               0.000726630              -0.000523939               0.001952084               0.001428145               0.000000000               0.000000000               0.000000000               0.000000000               0.000693000               0.005179552               0.000546914              -0.000387568               0.001855689               0.001468121               0.000000000               0.000000000               0.000000000               0.000000000               0.000904557               0.005069900               0.000362026              -0.000294528               0.001788126               0.001493598               0.000000000               0.000000000               0.000000000               0.000000000               0.001000706               0.005016519               0.000181871              -0.000251800               0.001756090               0.001504290               0.000000000               0.000000000               0.000000000               0.000000000               0.000998785               0.004995506               0.000087626              -0.000249893               0.001748450               0.001498557               0.000000000               0.000000000               0.000000000               0.000000000              -0.009234648              -0.000305642              -0.001416998              -0.003424785               0.001039707              -0.002385078               0.000000000               0.000000000               0.000000000               0.000000000              -0.007146892               0.001517786               0.000386245              -0.002869804               0.001462520              -0.001407284               0.000000000               0.000000000               0.000000000               0.000000000              -0.005823413               0.003145831               0.001958603              -0.002577004               0.001907598              -0.000669406               0.000000000               0.000000000               0.000000000               0.000000000              -0.004843981               0.004188681               0.002311208              -0.002340073               0.002176236              -0.000163837               0.000000000               0.000000000               0.000000000               0.000000000              -0.004026356               0.004836685               0.002270582              -0.002114465               0.002317033               0.000202568               0.000000000               0.000000000               0.000000000               0.000000000              -0.003298941               0.005232323               0.002109261              -0.001891139               0.002374469               0.000483330               0.000000000               0.000000000               0.000000000               0.000000000              -0.002617080               0.005470872               0.001915186              -0.001665260               0.002378692               0.000713432               0.000000000               0.000000000               0.000000000               0.000000000              -0.001972951               0.005598461               0.001716411              -0.001439661               0.002346022               0.000906360               0.000000000               0.000000000               0.000000000               0.000000000              -0.001369085               0.005640234               0.001534790              -0.001218434               0.002286203               0.001067770               0.000000000               0.000000000               0.000000000               0.000000000              -0.000809309               0.005617537               0.001382092              -0.001005681               0.002207720               0.001202039               0.000000000               0.000000000               0.000000000               0.000000000              -0.000286464               0.005548941               0.001244155              -0.000801040               0.002116642               0.001315601               0.000000000               0.000000000               0.000000000               0.000000000               0.000206927               0.005449055               0.001100302              -0.000603533               0.002017511               0.001413978               0.000000000               0.000000000               0.000000000               0.000000000               0.000664016               0.005329647               0.000932566              -0.000417199               0.001915597               0.001498398               0.000000000               0.000000000               0.000000000               0.000000000               0.001076071               0.005212633               0.000733555              -0.000248052               0.001820211               0.001572159               0.000000000               0.000000000               0.000000000               0.000000000               0.001416479               0.005113380               0.000509530              -0.000107993               0.001740441               0.001632448               0.000000000               0.000000000               0.000000000               0.000000000               0.001656209               0.005048209               0.000265520              -0.000009948               0.001686035               0.001676087               0.000000000               0.000000000               0.000000000               0.000000000               0.001756639               0.005030135               0.000141288               0.000029972               0.001666704               0.001696676               0.000000000               0.000000000               0.000000000               0.000000000              -0.011385905              -0.000905758              -0.001575491              -0.004156492               0.001083570              -0.003072922               0.000000000               0.000000000               0.000000000               0.000000000              -0.008305629               0.000499440               0.000145725              -0.003177038               0.001225484              -0.001951554               0.000000000               0.000000000               0.000000000               0.000000000              -0.006104457               0.001685782               0.001702414              -0.002499891               0.001395214              -0.001104677               0.000000000               0.000000000               0.000000000               0.000000000              -0.004776678               0.002717318               0.002138338              -0.002130916               0.001616066              -0.000514850               0.000000000               0.000000000               0.000000000               0.000000000              -0.003829205               0.003500704               0.002172573              -0.001873536               0.001791400              -0.000082136               0.000000000               0.000000000               0.000000000               0.000000000              -0.003064842               0.004076663               0.002064810              -0.001658895               0.001911838               0.000252943               0.000000000               0.000000000               0.000000000               0.000000000              -0.002387800               0.004504195               0.001906428              -0.001458446               0.001987532               0.000529085               0.000000000               0.000000000               0.000000000               0.000000000              -0.001753855               0.004807081               0.001732129              -0.001258578               0.002021870               0.000763292               0.000000000               0.000000000               0.000000000               0.000000000              -0.001151790               0.005006281               0.001566802              -0.001057704               0.002021311               0.000963607               0.000000000               0.000000000               0.000000000               0.000000000              -0.000580990               0.005122837               0.001425979              -0.000858225               0.001993670               0.001135445               0.000000000               0.000000000               0.000000000               0.000000000              -0.000032864               0.005182188               0.001302466              -0.000660097               0.001947411               0.001287314               0.000000000               0.000000000               0.000000000               0.000000000               0.000506985               0.005202601               0.001171941              -0.000460205               0.001887584               0.001427379               0.000000000               0.000000000               0.000000000               0.000000000               0.001037144               0.005185460               0.001015132              -0.000259253               0.001814887               0.001555634               0.000000000               0.000000000               0.000000000               0.000000000               0.001548598               0.005141076               0.000822098              -0.000061911               0.001734312               0.001672401               0.000000000               0.000000000               0.000000000               0.000000000               0.002031370               0.005091632               0.000588875               0.000125308               0.001655424               0.001780733               0.000000000               0.000000000               0.000000000               0.000000000               0.002462922               0.005048856               0.000315379               0.000292486               0.001585440               0.001877926               0.000000000               0.000000000               0.000000000               0.000000000               0.002722349               0.005052654               0.000181381               0.000389295               0.001554436               0.001943731               0.000000000               0.000000000               0.000000000               0.000000000              -0.013179357              -0.001198605              -0.001342593              -0.004792430               0.001197933              -0.003594497               0.000000000               0.000000000               0.000000000               0.000000000              -0.009300810              -0.000226160              -0.000001354              -0.003459531               0.001077783              -0.002381748               0.000000000               0.000000000               0.000000000               0.000000000              -0.006342862               0.000504225               0.001245676              -0.002441599               0.000981934              -0.001459665               0.000000000               0.000000000               0.000000000               0.000000000              -0.004676478               0.001444311               0.001647281              -0.001934216               0.001126167              -0.000808048               0.000000000               0.000000000               0.000000000               0.000000000              -0.003584014               0.002286694               0.001719672              -0.001629839               0.001305502              -0.000324338               0.000000000               0.000000000               0.000000000               0.000000000              -0.002769443               0.002979910               0.001663373              -0.001411027               0.001463635               0.000052608               0.000000000               0.000000000               0.000000000               0.000000000              -0.002090513               0.003539195               0.001555976              -0.001226339               0.001588499               0.000362160               0.000000000               0.000000000               0.000000000               0.000000000              -0.001468191               0.003980231               0.001428421              -0.001048098               0.001676096               0.000627998               0.000000000               0.000000000               0.000000000               0.000000000              -0.000869322               0.004317452               0.001301396              -0.000865676               0.001727695               0.000862019               0.000000000               0.000000000               0.000000000               0.000000000              -0.000289777               0.004564782               0.001191098              -0.000679263               0.001748000               0.001068737               0.000000000               0.000000000               0.000000000               0.000000000               0.000275185               0.004741364               0.001099417              -0.000489476               0.001743597               0.001254122               0.000000000               0.000000000               0.000000000               0.000000000               0.000844288               0.004867313               0.001007374              -0.000291806               0.001719690               0.001427884               0.000000000               0.000000000               0.000000000               0.000000000               0.001430322               0.004951758               0.000888727              -0.000082600               0.001678103               0.001595503               0.000000000               0.000000000               0.000000000               0.000000000               0.002032570               0.004993221               0.000733762               0.000138060               0.001618371               0.001756430               0.000000000               0.000000000               0.000000000               0.000000000               0.002658358               0.005009497               0.000539155               0.000370693               0.001546251               0.001916945               0.000000000               0.000000000               0.000000000               0.000000000               0.003301209               0.005011917               0.000295817               0.000611458               0.001466803               0.002078261               0.000000000               0.000000000               0.000000000               0.000000000               0.003743836               0.005053089               0.000177800               0.000772295               0.001426915               0.002199209               0.000000000               0.000000000               0.000000000               0.000000000              -0.014378088              -0.001301683              -0.000771306              -0.005229069               0.001309120              -0.003919950               0.000000000               0.000000000               0.000000000               0.000000000              -0.009984817              -0.000653260              -0.000037115              -0.003662646               0.001003122              -0.002659524               0.000000000               0.000000000               0.000000000               0.000000000              -0.006509178              -0.000262598               0.000656109              -0.002408115               0.000715167              -0.001692948               0.000000000               0.000000000               0.000000000               0.000000000              -0.004598046               0.000579027               0.000896361              -0.001796644               0.000791884              -0.001004759               0.000000000               0.000000000               0.000000000               0.000000000              -0.003391252               0.001432673               0.000952746              -0.001450801               0.000961151              -0.000489650               0.000000000               0.000000000               0.000000000               0.000000000              -0.002529940               0.002182187               0.000932105              -0.001221498               0.001134554              -0.000086945               0.000000000               0.000000000               0.000000000               0.000000000              -0.001838086               0.002812700               0.000878296              -0.001040867               0.001284513               0.000243646               0.000000000               0.000000000               0.000000000               0.000000000              -0.001224480               0.003340493               0.000811548              -0.000876740               0.001405733               0.000528993               0.000000000               0.000000000               0.000000000               0.000000000              -0.000635355               0.003774698               0.000743570              -0.000710094               0.001494918               0.000784824               0.000000000               0.000000000               0.000000000               0.000000000              -0.000054501               0.004116186               0.000681416              -0.000534960               0.001550368               0.001015408               0.000000000               0.000000000               0.000000000               0.000000000               0.000525235               0.004380448               0.000632053              -0.000350592               0.001576999               0.001226406               0.000000000               0.000000000               0.000000000               0.000000000               0.001111512               0.004583044               0.000586197              -0.000156063               0.001579687               0.001423624               0.000000000               0.000000000               0.000000000               0.000000000               0.001726851               0.004742373               0.000522975               0.000054772               0.001562518               0.001617290               0.000000000               0.000000000               0.000000000               0.000000000               0.002395041               0.004861533               0.000439395               0.000290446               0.001523679               0.001814125               0.000000000               0.000000000               0.000000000               0.000000000               0.003134427               0.004942412               0.000330855               0.000557603               0.001461587               0.002019190               0.000000000               0.000000000               0.000000000               0.000000000               0.003958171               0.004984345               0.000183832               0.000861262               0.001374344               0.002235607               0.000000000               0.000000000               0.000000000               0.000000000               0.004570233               0.005057136               0.000111851               0.001081684               0.001325134               0.002406818               0.000000000               0.000000000               0.000000000               0.000000000              -0.014799860              -0.001316842              -0.000000000              -0.005385339               0.001356156              -0.004029182               0.000000000               0.000000000               0.000000000               0.000000000              -0.010230182              -0.000790369              -0.000000000              -0.003737520               0.000982377              -0.002755143               0.000000000               0.000000000               0.000000000               0.000000000              -0.006570434              -0.000529627               0.000000000              -0.002397708               0.000622689              -0.001775019               0.000000000               0.000000000               0.000000000               0.000000000              -0.004571879               0.000272008               0.000000000              -0.001748454               0.000673483              -0.001074971               0.000000000               0.000000000               0.000000000               0.000000000              -0.003322557               0.001126337               0.000000000              -0.001386749               0.000837690              -0.000549059               0.000000000               0.000000000               0.000000000               0.000000000              -0.002442052               0.001885312              -0.000000000              -0.001151431               0.001012241              -0.000139190               0.000000000               0.000000000               0.000000000               0.000000000              -0.001744249               0.002535007               0.000000000              -0.000970967               0.001168649               0.000197682               0.000000000               0.000000000               0.000000000               0.000000000              -0.001128875               0.003098508               0.000000000              -0.000810640               0.001303039               0.000492399               0.000000000               0.000000000               0.000000000               0.000000000              -0.000545755               0.003571098               0.000000000              -0.000651044               0.001407369               0.000756325               0.000000000               0.000000000               0.000000000               0.000000000               0.000031877               0.003944426               0.000000000              -0.000481098               0.001475162               0.000994063               0.000000000               0.000000000               0.000000000               0.000000000               0.000616475               0.004238296              -0.000000000              -0.000298608               0.001512287               0.001213679               0.000000000               0.000000000               0.000000000               0.000000000               0.001208637               0.004470990               0.000000000              -0.000105635               0.001525527               0.001419892               0.000000000               0.000000000               0.000000000               0.000000000               0.001835801               0.004664698               0.000000000               0.000105337               0.001519771               0.001625108               0.000000000               0.000000000               0.000000000               0.000000000               0.002529898               0.004817840              -0.000000000               0.000346478               0.001490438               0.001836916               0.000000000               0.000000000               0.000000000               0.000000000               0.003311310               0.004923239              -0.000000000               0.000626330               0.001432286               0.002058617               0.000000000               0.000000000               0.000000000               0.000000000               0.004210102               0.004978783              -0.000000000               0.000956431               0.001340768               0.002297198               0.000000000               0.000000000               0.000000000               0.000000000               0.004898481               0.005063934              -0.000000000               0.001203927               0.001286652               0.002490579               0.000000000               0.000000000               0.000000000               0.000000000               0.002159053               0.022637287               0.000000000              -0.002020011               0.008219024               0.006199013               0.000000000               0.000000000               0.000000000               0.000000000               0.002064843               0.017280703               0.000000000              -0.001385768               0.006222100               0.004836331               0.000000000               0.000000000               0.000000000               0.000000000               0.002657993               0.012933761              -0.000000000              -0.000619971               0.004517868               0.003897897               0.000000000               0.000000000               0.000000000               0.000000000               0.002464406               0.010473703              -0.000000000              -0.000385060               0.003619553               0.003234493               0.000000000               0.000000000               0.000000000               0.000000000               0.002060915               0.008910583               0.000000000              -0.000340979               0.003083824               0.002742846               0.000000000               0.000000000               0.000000000               0.000000000               0.001643268               0.007816052               0.000000000              -0.000360780               0.002725584               0.002364804               0.000000000               0.000000000               0.000000000               0.000000000               0.001253498               0.006965805               0.000000000              -0.000400663               0.002455466               0.002054803               0.000000000               0.000000000               0.000000000               0.000000000               0.000907122               0.006246472               0.000000000              -0.000440637               0.002229015               0.001788378               0.000000000               0.000000000               0.000000000               0.000000000               0.000612653               0.005599639               0.000000000              -0.000470209               0.002023264               0.001553055               0.000000000               0.000000000               0.000000000               0.000000000               0.000369185               0.004980854               0.000000000              -0.000484161               0.001821655               0.001337494               0.000000000               0.000000000               0.000000000               0.000000000               0.000176058               0.004367227               0.000000000              -0.000479881               0.001615688               0.001135807               0.000000000               0.000000000               0.000000000               0.000000000               0.000028661               0.003746748              -0.000000000              -0.000457595               0.001401435               0.000943840               0.000000000               0.000000000               0.000000000               0.000000000              -0.000079570               0.003101514              -0.000000000              -0.000417527               0.001173003               0.000755476               0.000000000               0.000000000               0.000000000               0.000000000              -0.000140009               0.002417044              -0.000000000              -0.000354633               0.000923884               0.000569251               0.000000000               0.000000000               0.000000000               0.000000000              -0.000142948               0.001671704               0.000000000              -0.000262568               0.000644752               0.000382184               0.000000000               0.000000000               0.000000000               0.000000000              -0.000088167               0.000835705               0.000000000              -0.000137526               0.000324407               0.000186882               0.000000000               0.000000000               0.000000000               0.000000000              -0.000115460               0.000193729              -0.000000000              -0.000067514               0.000087080               0.000019566               0.000000000               0.000000000               0.000000000               0.000000000               0.002211278               0.022140303              -0.001476998              -0.001938304               0.008026129               0.006087824               0.000000000               0.000000000               0.000000000               0.000000000               0.001991214               0.016967163              -0.000636232              -0.001374187               0.006113727               0.004739540               0.000000000               0.000000000               0.000000000               0.000000000               0.002447991               0.012811935               0.000189234              -0.000683494               0.004498434               0.003814940               0.000000000               0.000000000               0.000000000               0.000000000               0.002203856               0.010453467               0.000521110              -0.000480236               0.003644533               0.003164296               0.000000000               0.000000000               0.000000000               0.000000000               0.001792495               0.008943548               0.000645629              -0.000445757               0.003129739               0.002683982               0.000000000               0.000000000               0.000000000               0.000000000               0.001383745               0.007874886               0.000676654              -0.000465455               0.002780087               0.002314632               0.000000000               0.000000000               0.000000000               0.000000000               0.001016634               0.007038258               0.000663511              -0.000498543               0.002512244               0.002013700               0.000000000               0.000000000               0.000000000               0.000000000               0.000702270               0.006324418               0.000636055              -0.000527200               0.002283852               0.001756652               0.000000000               0.000000000               0.000000000               0.000000000               0.000440597               0.005675411               0.000602482              -0.000544201               0.002073185               0.001528984               0.000000000               0.000000000               0.000000000               0.000000000               0.000229321               0.005055514               0.000565667              -0.000545943               0.001867135               0.001321193               0.000000000               0.000000000               0.000000000               0.000000000               0.000065066               0.004447316               0.000530958              -0.000531514               0.001659595               0.001128081               0.000000000               0.000000000               0.000000000               0.000000000              -0.000058879               0.003836750               0.000493018              -0.000501672               0.001446128               0.000944455               0.000000000               0.000000000               0.000000000               0.000000000              -0.000143823               0.003205369               0.000445493              -0.000454604               0.001219980               0.000765376               0.000000000               0.000000000               0.000000000               0.000000000              -0.000180952               0.002542573               0.000383220              -0.000385678               0.000976075               0.000590397               0.000000000               0.000000000               0.000000000               0.000000000              -0.000165574               0.001836699               0.000295633              -0.000291677               0.000709452               0.000417775               0.000000000               0.000000000               0.000000000               0.000000000              -0.000097188               0.001070512               0.000168772              -0.000170259               0.000413587               0.000243327               0.000000000               0.000000000               0.000000000               0.000000000              -0.000110579               0.000499113               0.000105352              -0.000103856               0.000200988               0.000097132               0.000000000               0.000000000               0.000000000               0.000000000               0.002326783               0.020718611              -0.002724346              -0.001717280               0.007478561               0.005761281               0.000000000               0.000000000               0.000000000               0.000000000               0.001758796               0.016080593              -0.001164836              -0.001350523               0.005810318               0.004459796               0.000000000               0.000000000               0.000000000               0.000000000               0.001845212               0.012474645               0.000347903              -0.000867374               0.004447298               0.003579924               0.000000000               0.000000000               0.000000000               0.000000000               0.001475601               0.010394983               0.000931859              -0.000746021               0.003713633               0.002967612               0.000000000               0.000000000               0.000000000               0.000000000               0.001051338               0.009029064               0.001140097              -0.000734380               0.003254451               0.002520071               0.000000000               0.000000000               0.000000000               0.000000000               0.000684715               0.008029850               0.001185491              -0.000746962               0.002925577               0.002178615               0.000000000               0.000000000               0.000000000               0.000000000               0.000392271               0.007224154               0.001156971              -0.000755916               0.002659999               0.001904083               0.000000000               0.000000000               0.000000000               0.000000000               0.000163226               0.006518124               0.001101163              -0.000753554               0.002423871               0.001670317               0.000000000               0.000000000               0.000000000               0.000000000              -0.000014129               0.005864398               0.001036060              -0.000738347               0.002200895               0.001462548               0.000000000               0.000000000               0.000000000               0.000000000              -0.000144313               0.005246458               0.000967253              -0.000709923               0.001985443               0.001275520               0.000000000               0.000000000               0.000000000               0.000000000              -0.000233750               0.004648479               0.000901492              -0.000668715               0.001772382               0.001103667               0.000000000               0.000000000               0.000000000               0.000000000              -0.000286711               0.004060694               0.000827680              -0.000615102               0.001558585               0.000943483               0.000000000               0.000000000               0.000000000               0.000000000              -0.000302824               0.003472242               0.000734667              -0.000547588               0.001339932               0.000792343               0.000000000               0.000000000               0.000000000               0.000000000              -0.000274476               0.002878121               0.000619631              -0.000462693               0.001113595               0.000650902               0.000000000               0.000000000               0.000000000               0.000000000              -0.000205789               0.002280167               0.000468781              -0.000362191               0.000880778               0.000518587               0.000000000               0.000000000               0.000000000               0.000000000              -0.000109824               0.001685397               0.000263566              -0.000251858               0.000645746               0.000393888               0.000000000               0.000000000               0.000000000               0.000000000              -0.000098498               0.001277829               0.000160833              -0.000196665               0.000491494               0.000294829               0.000000000               0.000000000               0.000000000               0.000000000               0.002394993               0.018566883              -0.003559979              -0.001422736               0.006663144               0.005240408               0.000000000               0.000000000               0.000000000               0.000000000               0.001341338               0.014764615              -0.001511303              -0.001342572               0.005369013               0.004026441               0.000000000               0.000000000               0.000000000               0.000000000               0.000915162               0.011984343               0.000443361              -0.001154854               0.004379693               0.003224838               0.000000000               0.000000000               0.000000000               0.000000000               0.000414105               0.010301107               0.001152457              -0.001132347               0.003811117               0.002678770               0.000000000               0.000000000               0.000000000               0.000000000               0.000015631               0.009127021               0.001382867              -0.001135014               0.003420648               0.002285634               0.000000000               0.000000000               0.000000000               0.000000000              -0.000263262               0.008209618               0.001418158              -0.001124923               0.003111486               0.001986563               0.000000000               0.000000000               0.000000000               0.000000000              -0.000440451               0.007430932               0.001369598              -0.001094033               0.002841630               0.001747597               0.000000000               0.000000000               0.000000000               0.000000000              -0.000546218               0.006731788               0.001288318              -0.001046303               0.002592674               0.001546371               0.000000000               0.000000000               0.000000000               0.000000000              -0.000601181               0.006084100               0.001201186              -0.000985953               0.002356664               0.001370711               0.000000000               0.000000000               0.000000000               0.000000000              -0.000614683               0.005476818               0.001112138              -0.000915106               0.002130623               0.001215517               0.000000000               0.000000000               0.000000000               0.000000000              -0.000593283               0.004900119               0.001025226              -0.000834994               0.001911688               0.001076694               0.000000000               0.000000000               0.000000000               0.000000000              -0.000543023               0.004348497               0.000931675              -0.000747194               0.001698549               0.000951355               0.000000000               0.000000000               0.000000000               0.000000000              -0.000462779               0.003825026               0.000813663              -0.000651669               0.001492219               0.000840550               0.000000000               0.000000000               0.000000000               0.000000000              -0.000355539               0.003331852               0.000666938              -0.000549807               0.001293875               0.000744068               0.000000000               0.000000000               0.000000000               0.000000000              -0.000233067               0.002880422               0.000487854              -0.000447452               0.001109282               0.000661830               0.000000000               0.000000000               0.000000000               0.000000000              -0.000112795               0.002493739               0.000267017              -0.000354015               0.000949243               0.000595228               0.000000000               0.000000000               0.000000000               0.000000000              -0.000076115               0.002269385               0.000155186              -0.000312216               0.000860526               0.000548310               0.000000000               0.000000000               0.000000000               0.000000000               0.002267330               0.015957719              -0.003906279              -0.001144466               0.005700674               0.004556208               0.000000000               0.000000000               0.000000000               0.000000000               0.000723980               0.013206963              -0.001665642              -0.001379376               0.004862069               0.003482693               0.000000000               0.000000000               0.000000000               0.000000000              -0.000219755               0.011405601               0.000435799              -0.001508105               0.004304531               0.002796426               0.000000000               0.000000000               0.000000000               0.000000000              -0.000796906               0.010149175               0.001137085              -0.001567483               0.003905519               0.002338036               0.000000000               0.000000000               0.000000000               0.000000000              -0.001107978               0.009159618               0.001335244              -0.001560441               0.003573322               0.002012882               0.000000000               0.000000000               0.000000000               0.000000000              -0.001240332               0.008317339               0.001346640              -0.001504788               0.003274015               0.001769226               0.000000000               0.000000000               0.000000000               0.000000000              -0.001262037               0.007568287               0.001284125              -0.001419296               0.002995836               0.001576539               0.000000000               0.000000000               0.000000000               0.000000000              -0.001218308               0.006885984               0.001195851              -0.001317611               0.002734508               0.001416898               0.000000000               0.000000000               0.000000000               0.000000000              -0.001130123               0.006259578               0.001103404              -0.001206241               0.002488585               0.001282345               0.000000000               0.000000000               0.000000000               0.000000000              -0.001011097               0.005676080               0.001011735              -0.001088669               0.002254897               0.001166228               0.000000000               0.000000000               0.000000000               0.000000000              -0.000866418               0.005132137               0.000922116              -0.000966422               0.002032835               0.001066414               0.000000000               0.000000000               0.000000000               0.000000000              -0.000704835               0.004628150               0.000826169              -0.000842830               0.001823644               0.000980815               0.000000000               0.000000000               0.000000000               0.000000000              -0.000534209               0.004176469               0.000705090              -0.000722385               0.001632937               0.000910552               0.000000000               0.000000000               0.000000000               0.000000000              -0.000365059               0.003789285               0.000554712              -0.000610556               0.001466601               0.000856045               0.000000000               0.000000000               0.000000000               0.000000000              -0.000209866               0.003479418               0.000383626              -0.000513626               0.001331003               0.000817377               0.000000000               0.000000000               0.000000000               0.000000000              -0.000091307               0.003265710               0.000198570              -0.000442453               0.001236043               0.000793591               0.000000000               0.000000000               0.000000000               0.000000000              -0.000046707               0.003179299               0.000105484              -0.000414926               0.001198065               0.000783138               0.000000000               0.000000000               0.000000000               0.000000000               0.001829341               0.013164829              -0.003786913              -0.000959601               0.004708099               0.003748498               0.000000000               0.000000000               0.000000000               0.000000000              -0.000079540               0.011572379              -0.001666535              -0.001476372               0.004349545               0.002873173               0.000000000               0.000000000               0.000000000               0.000000000              -0.001425848               0.010772014               0.000291300              -0.001881190               0.004217699               0.002336509               0.000000000               0.000000000               0.000000000               0.000000000              -0.001969853               0.009905263               0.000886191              -0.001976848               0.003960671               0.001983823               0.000000000               0.000000000               0.000000000               0.000000000              -0.002120801               0.009075975               0.001033071              -0.001929793               0.003668559               0.001738766               0.000000000               0.000000000               0.000000000               0.000000000              -0.002061955               0.008304330               0.001030883              -0.001811270               0.003371839               0.001560569               0.000000000               0.000000000               0.000000000               0.000000000              -0.001901969               0.007592906               0.000974875              -0.001662348               0.003085059               0.001422711               0.000000000               0.000000000               0.000000000               0.000000000              -0.001697240               0.006942563               0.000899989              -0.001504282               0.002815592               0.001311310               0.000000000               0.000000000               0.000000000               0.000000000              -0.001465147               0.006345484               0.000822058              -0.001342613               0.002562677               0.001220065               0.000000000               0.000000000               0.000000000               0.000000000              -0.001218205               0.005793319               0.000741842              -0.001180989               0.002324750               0.001143761               0.000000000               0.000000000               0.000000000               0.000000000              -0.000965598               0.005286299               0.000659295              -0.001022884               0.002103043               0.001080159               0.000000000               0.000000000               0.000000000               0.000000000              -0.000720942               0.004832709               0.000573951              -0.000874440               0.001902367               0.001027927               0.000000000               0.000000000               0.000000000               0.000000000              -0.000491868               0.004453129               0.000469520              -0.000741090               0.001731391               0.000990302               0.000000000               0.000000000               0.000000000               0.000000000              -0.000294576               0.004155003               0.000342362              -0.000629840               0.001594934               0.000965094               0.000000000               0.000000000               0.000000000               0.000000000              -0.000144750               0.003947203               0.000209708              -0.000547680               0.001498281               0.000950601               0.000000000               0.000000000               0.000000000               0.000000000              -0.000053057               0.003838223               0.000093667              -0.000499673               0.001445952               0.000946279               0.000000000               0.000000000               0.000000000               0.000000000              -0.000019745               0.003816452               0.000040857              -0.000484460               0.001433625               0.000949165               0.000000000               0.000000000               0.000000000               0.000000000               0.001032137               0.010415711              -0.003295016              -0.000914913               0.003776839               0.002861926               0.000000000               0.000000000               0.000000000               0.000000000              -0.001016896               0.009979839              -0.001573465              -0.001628813               0.003869517               0.002240704               0.000000000               0.000000000               0.000000000               0.000000000              -0.002565417               0.010095732               0.000006397              -0.002223992               0.004106541               0.001882549               0.000000000               0.000000000               0.000000000               0.000000000              -0.002949472               0.009551167               0.000455304              -0.002299942               0.003950338               0.001650396               0.000000000               0.000000000               0.000000000               0.000000000              -0.002879191               0.008856337               0.000566773              -0.002186733               0.003680994               0.001494261               0.000000000               0.000000000               0.000000000               0.000000000              -0.002615113               0.008154497               0.000574690              -0.001999975               0.003384797               0.001384822               0.000000000               0.000000000               0.000000000               0.000000000              -0.002276674               0.007494650               0.000547797              -0.001790580               0.003095052               0.001304472               0.000000000               0.000000000               0.000000000               0.000000000              -0.001919819               0.006885372               0.000504381              -0.001580600               0.002821968               0.001241368               0.000000000               0.000000000               0.000000000               0.000000000              -0.001565316               0.006320264               0.000454122              -0.001377023               0.002565741               0.001188718               0.000000000               0.000000000               0.000000000               0.000000000              -0.001225144               0.005802334               0.000397217              -0.001184718               0.002328998               0.001144280               0.000000000               0.000000000               0.000000000               0.000000000              -0.000904482               0.005342599               0.000335040              -0.001007003               0.002116516               0.001109513               0.000000000               0.000000000               0.000000000               0.000000000              -0.000615576               0.004951569               0.000276263              -0.000849785               0.001933768               0.001083983               0.000000000               0.000000000               0.000000000               0.000000000              -0.000370671               0.004640122               0.000210243              -0.000719015               0.001786363               0.001067348               0.000000000               0.000000000               0.000000000               0.000000000              -0.000182363               0.004416247               0.000132837              -0.000620416               0.001678873               0.001058457               0.000000000               0.000000000               0.000000000               0.000000000              -0.000063251               0.004285201               0.000064744              -0.000559368               0.001614842               0.001055474               0.000000000               0.000000000               0.000000000               0.000000000              -0.000012033               0.004237041               0.000020941              -0.000534141               0.001590380               0.001056239               0.000000000               0.000000000               0.000000000               0.000000000              -0.000001484               0.004238173               0.000004661              -0.000530327               0.001589486               0.001059159               0.000000000               0.000000000               0.000000000               0.000000000              -0.000090296               0.007890198              -0.002541452              -0.001020135               0.002970084               0.001949949               0.000000000               0.000000000               0.000000000               0.000000000              -0.002037729               0.008529665              -0.001436470              -0.001830353               0.003453311               0.001622958               0.000000000               0.000000000               0.000000000               0.000000000              -0.003529009               0.009382748              -0.000397152              -0.002496216               0.003959623               0.001463408               0.000000000               0.000000000               0.000000000               0.000000000              -0.003645387               0.009077010              -0.000077031              -0.002501640               0.003859520               0.001357880               0.000000000               0.000000000               0.000000000               0.000000000              -0.003324601               0.008498621               0.000036717              -0.002309047               0.003602528               0.001293480               0.000000000               0.000000000               0.000000000               0.000000000              -0.002861324               0.007878512               0.000081628              -0.002057805               0.003312079               0.001254274               0.000000000               0.000000000               0.000000000               0.000000000              -0.002367737               0.007283411               0.000097176              -0.001798323               0.003027220               0.001228897               0.000000000               0.000000000               0.000000000               0.000000000              -0.001887241               0.006717107               0.000096207              -0.001547350               0.002754797               0.001207447               0.000000000               0.000000000               0.000000000               0.000000000              -0.001442156               0.006190980               0.000086108              -0.001314678               0.002501865               0.001187187               0.000000000               0.000000000               0.000000000               0.000000000              -0.001044783               0.005718271               0.000067003              -0.001106575               0.002274930               0.001168355               0.000000000               0.000000000               0.000000000               0.000000000              -0.000698797               0.005310904               0.000045160              -0.000925909               0.002078920               0.001153011               0.000000000               0.000000000               0.000000000               0.000000000              -0.000410337               0.004983862               0.000030161              -0.000776857               0.001920223               0.001143366               0.000000000               0.000000000               0.000000000               0.000000000              -0.000189555               0.004743033               0.000019090              -0.000663961               0.001802315               0.001138355               0.000000000               0.000000000               0.000000000               0.000000000              -0.000047723               0.004597882               0.000004003              -0.000592630               0.001730155               0.001137525               0.000000000               0.000000000               0.000000000               0.000000000               0.000015567               0.004539250              -0.000005252              -0.000561567               0.001700257               0.001138690               0.000000000               0.000000000               0.000000000               0.000000000               0.000020141               0.004544626              -0.000004026              -0.000560524               0.001701701               0.001141177               0.000000000               0.000000000               0.000000000               0.000000000               0.000012130               0.004570411              -0.000004039              -0.000566751               0.001712372               0.001145621               0.000000000               0.000000000               0.000000000               0.000000000              -0.001406712               0.005779903              -0.001644670              -0.001250003               0.002343282               0.001093280               0.000000000               0.000000000               0.000000000               0.000000000              -0.003041270               0.007237136              -0.001292327              -0.002045114               0.003094059               0.001048945               0.000000000               0.000000000               0.000000000               0.000000000              -0.004292526               0.008650868              -0.000878377              -0.002691049               0.003780610               0.001089561               0.000000000               0.000000000               0.000000000               0.000000000              -0.004123077               0.008593010              -0.000638539              -0.002620273               0.003737732               0.001117459               0.000000000               0.000000000               0.000000000               0.000000000              -0.003588209               0.008158242              -0.000489919              -0.002365353               0.003507838               0.001142485               0.000000000               0.000000000               0.000000000               0.000000000              -0.002961933               0.007641070              -0.000393069              -0.002065854               0.003235616               0.001169762               0.000000000               0.000000000               0.000000000               0.000000000              -0.002346165               0.007114902              -0.000326463              -0.001769170               0.002961334               0.001192163               0.000000000               0.000000000               0.000000000               0.000000000              -0.001775554               0.006598938              -0.000277027              -0.001490696               0.002696523               0.001205827               0.000000000               0.000000000               0.000000000               0.000000000              -0.001265433               0.006118697              -0.000239754              -0.001239371               0.002452669               0.001213298               0.000000000               0.000000000               0.000000000               0.000000000              -0.000827906               0.005682360              -0.000213223              -0.001020757               0.002234354               0.001213596               0.000000000               0.000000000               0.000000000               0.000000000              -0.000464612               0.005309778              -0.000187442              -0.000837950               0.002049225               0.001211275               0.000000000               0.000000000               0.000000000               0.000000000              -0.000180068               0.005024272              -0.000150287              -0.000695558               0.001906593               0.001211035               0.000000000               0.000000000               0.000000000               0.000000000               0.000014910               0.004834235              -0.000102837              -0.000598687               0.001810958               0.001212271               0.000000000               0.000000000               0.000000000               0.000000000               0.000109274               0.004738491              -0.000060894              -0.000551332               0.001763259               0.001211927               0.000000000               0.000000000               0.000000000               0.000000000               0.000120752               0.004727676              -0.000030195              -0.000545676               0.001757768               0.001212092               0.000000000               0.000000000               0.000000000               0.000000000               0.000091796               0.004778588              -0.000007714              -0.000562899               0.001780480               0.001217581               0.000000000               0.000000000               0.000000000               0.000000000               0.000068008               0.004820703               0.000000989              -0.000577084               0.001799246               0.001222163               0.000000000               0.000000000               0.000000000               0.000000000              -0.002920654               0.003842437              -0.000719712              -0.001575546               0.001805981               0.000230435               0.000000000               0.000000000               0.000000000               0.000000000              -0.003897975               0.005735336              -0.001139654              -0.002178653               0.002637977               0.000459324               0.000000000               0.000000000               0.000000000               0.000000000              -0.004769112               0.007544830              -0.001376170              -0.002731514               0.003425423               0.000693909               0.000000000               0.000000000               0.000000000               0.000000000              -0.004443307               0.007868744              -0.001226552              -0.002649826               0.003506164               0.000856337               0.000000000               0.000000000               0.000000000               0.000000000              -0.003820161               0.007704614              -0.001046273              -0.002395631               0.003366722               0.000971091               0.000000000               0.000000000               0.000000000               0.000000000              -0.003134072               0.007386146              -0.000892888              -0.002098540               0.003161537               0.001062997               0.000000000               0.000000000               0.000000000               0.000000000              -0.002469800               0.007012042              -0.000767168              -0.001802676               0.002938216               0.001135540               0.000000000               0.000000000               0.000000000               0.000000000              -0.001863684               0.006617230              -0.000658759              -0.001526031               0.002714398               0.001188367               0.000000000               0.000000000               0.000000000               0.000000000              -0.001325037               0.006227233              -0.000570304              -0.001275290               0.002500820               0.001225530               0.000000000               0.000000000               0.000000000               0.000000000              -0.000857436               0.005850060              -0.000498739              -0.001052793               0.002300931               0.001248138               0.000000000               0.000000000               0.000000000               0.000000000              -0.000459766               0.005504086              -0.000430569              -0.000860421               0.002121484               0.001261063               0.000000000               0.000000000               0.000000000               0.000000000              -0.000140742               0.005215621              -0.000349271              -0.000704729               0.001973432               0.001268703               0.000000000               0.000000000               0.000000000               0.000000000               0.000088158               0.005006822              -0.000252707              -0.000592792               0.001866521               0.001273729               0.000000000               0.000000000               0.000000000               0.000000000               0.000222396               0.004889881              -0.000158607              -0.000527835               0.001805889               0.001278054               0.000000000               0.000000000               0.000000000               0.000000000               0.000267666               0.004859647              -0.000082261              -0.000507080               0.001788893               0.001281813               0.000000000               0.000000000               0.000000000               0.000000000               0.000251744               0.004903681              -0.000029397              -0.000518555               0.001807396               0.001288841               0.000000000               0.000000000               0.000000000               0.000000000               0.000215932               0.004933632              -0.000002881              -0.000535728               0.001823104               0.001287376               0.000000000               0.000000000               0.000000000               0.000000000              -0.004818298               0.002099809               0.000160698              -0.002069335               0.001389705              -0.000679629               0.000000000               0.000000000               0.000000000               0.000000000              -0.004863393               0.004216225              -0.000933906              -0.002350795               0.002188992              -0.000161804               0.000000000               0.000000000               0.000000000               0.000000000              -0.005175041               0.006222728              -0.001777008              -0.002718475               0.002980380               0.000261905               0.000000000               0.000000000               0.000000000               0.000000000              -0.004707723               0.006905066              -0.001782277              -0.002628523               0.003177840               0.000549316               0.000000000               0.000000000               0.000000000               0.000000000              -0.004041565               0.007049574              -0.001605931              -0.002396778               0.003148760               0.000751982               0.000000000               0.000000000               0.000000000               0.000000000              -0.003334047               0.006970551              -0.001413119              -0.002121582               0.003030687               0.000909106               0.000000000               0.000000000               0.000000000               0.000000000              -0.002649020               0.006786157              -0.001235267              -0.001841648               0.002875912               0.001034264               0.000000000               0.000000000               0.000000000               0.000000000              -0.002015002               0.006544881              -0.001073199              -0.001573732               0.002706182               0.001132450               0.000000000               0.000000000               0.000000000               0.000000000              -0.001445190               0.006275160              -0.000935592              -0.001326338               0.002533812               0.001207473               0.000000000               0.000000000               0.000000000               0.000000000              -0.000940307               0.005989017              -0.000825683              -0.001101240               0.002363399               0.001262159               0.000000000               0.000000000               0.000000000               0.000000000              -0.000494178               0.005699037              -0.000726098              -0.000897694               0.002198891               0.001301197               0.000000000               0.000000000               0.000000000               0.000000000              -0.000111650               0.005430082              -0.000612152              -0.000720627               0.002050218               0.001329591               0.000000000               0.000000000               0.000000000               0.000000000               0.000196299               0.005209756              -0.000477950              -0.000577606               0.001929103               0.001351497               0.000000000               0.000000000               0.000000000               0.000000000               0.000410736               0.005055044              -0.000336081              -0.000477853               0.001844282               0.001366429               0.000000000               0.000000000               0.000000000               0.000000000               0.000522237               0.004971334              -0.000203534              -0.000425577               0.001798954               0.001373377               0.000000000               0.000000000               0.000000000               0.000000000               0.000540203               0.004962450              -0.000092335              -0.000417729               0.001793376               0.001375647               0.000000000               0.000000000               0.000000000               0.000000000               0.000502788               0.004960660              -0.000033685              -0.000431536               0.001797382               0.001365846               0.000000000               0.000000000               0.000000000               0.000000000              -0.006971349               0.000692092               0.000911212              -0.002700765               0.001130944              -0.001569820               0.000000000               0.000000000               0.000000000               0.000000000              -0.005965442               0.002784444              -0.000667409              -0.002585092               0.001789833              -0.000795259               0.000000000               0.000000000               0.000000000               0.000000000              -0.005518380               0.004711362              -0.001981794              -0.002658307               0.002456539              -0.000201768               0.000000000               0.000000000               0.000000000               0.000000000              -0.004833953               0.005641241              -0.002173817              -0.002517882               0.002719688               0.000201806               0.000000000               0.000000000               0.000000000               0.000000000              -0.004110877               0.006069334              -0.002051730              -0.002300241               0.002789837               0.000489597               0.000000000               0.000000000               0.000000000               0.000000000              -0.003395662               0.006239030              -0.001857673              -0.002053247               0.002764071               0.000710824               0.000000000               0.000000000               0.000000000               0.000000000              -0.002708767               0.006266286              -0.001652953              -0.001799069               0.002688431               0.000889361               0.000000000               0.000000000               0.000000000               0.000000000              -0.002061310               0.006203008              -0.001457771              -0.001548364               0.002583770               0.001035406               0.000000000               0.000000000               0.000000000               0.000000000              -0.001467292               0.006080909              -0.001286178              -0.001310345               0.002463731               0.001153386               0.000000000               0.000000000               0.000000000               0.000000000              -0.000928711               0.005921071              -0.001145983              -0.001088398               0.002336470               0.001248072               0.000000000               0.000000000               0.000000000               0.000000000              -0.000442494               0.005729502              -0.001019706              -0.000882121               0.002203855               0.001321734               0.000000000               0.000000000               0.000000000               0.000000000              -0.000005167               0.005523233              -0.000884747              -0.000692340               0.002071839               0.001379499               0.000000000               0.000000000               0.000000000               0.000000000               0.000380282               0.005332365              -0.000726630              -0.000523939               0.001952084               0.001428145               0.000000000               0.000000000               0.000000000               0.000000000               0.000693000               0.005179552              -0.000546914              -0.000387568               0.001855689               0.001468121               0.000000000               0.000000000               0.000000000               0.000000000               0.000904557               0.005069900              -0.000362026              -0.000294528               0.001788126               0.001493598               0.000000000               0.000000000               0.000000000               0.000000000               0.001000706               0.005016519              -0.000181871              -0.000251800               0.001756090               0.001504290               0.000000000               0.000000000               0.000000000               0.000000000               0.000998785               0.004995506              -0.000087626              -0.000249893               0.001748450               0.001498557               0.000000000               0.000000000               0.000000000               0.000000000              -0.009234648              -0.000305642               0.001416998              -0.003424785               0.001039707              -0.002385078               0.000000000               0.000000000               0.000000000               0.000000000              -0.007146892               0.001517786              -0.000386245              -0.002869804               0.001462520              -0.001407284               0.000000000               0.000000000               0.000000000               0.000000000              -0.005823413               0.003145831              -0.001958603              -0.002577004               0.001907598              -0.000669406               0.000000000               0.000000000               0.000000000               0.000000000              -0.004843981               0.004188681              -0.002311208              -0.002340073               0.002176236              -0.000163837               0.000000000               0.000000000               0.000000000               0.000000000              -0.004026356               0.004836685              -0.002270582              -0.002114465               0.002317033               0.000202568               0.000000000               0.000000000               0.000000000               0.000000000              -0.003298941               0.005232323              -0.002109261              -0.001891139               0.002374469               0.000483330               0.000000000               0.000000000               0.000000000               0.000000000              -0.002617080               0.005470872              -0.001915186              -0.001665260               0.002378692               0.000713432               0.000000000               0.000000000               0.000000000               0.000000000              -0.001972951               0.005598461              -0.001716411              -0.001439661               0.002346022               0.000906360               0.000000000               0.000000000               0.000000000               0.000000000              -0.001369085               0.005640234              -0.001534790              -0.001218434               0.002286203               0.001067770               0.000000000               0.000000000               0.000000000               0.000000000              -0.000809309               0.005617537              -0.001382092              -0.001005681               0.002207720               0.001202039               0.000000000               0.000000000               0.000000000               0.000000000              -0.000286464               0.005548941              -0.001244155              -0.000801040               0.002116642               0.001315601               0.000000000               0.000000000               0.000000000               0.000000000               0.000206927               0.005449055              -0.001100302              -0.000603533               0.002017511               0.001413978               0.000000000               0.000000000               0.000000000               0.000000000               0.000664016               0.005329647              -0.000932566              -0.000417199               0.001915597               0.001498398               0.000000000               0.000000000               0.000000000               0.000000000               0.001076071               0.005212633              -0.000733555              -0.000248052               0.001820211               0.001572159               0.000000000               0.000000000               0.000000000               0.000000000               0.001416479               0.005113380              -0.000509530              -0.000107993               0.001740441               0.001632448               0.000000000               0.000000000               0.000000000               0.000000000               0.001656209               0.005048209              -0.000265520              -0.000009948               0.001686035               0.001676087               0.000000000               0.000000000               0.000000000               0.000000000               0.001756639               0.005030135              -0.000141288               0.000029972               0.001666704               0.001696676               0.000000000               0.000000000               0.000000000               0.000000000              -0.011385905              -0.000905758               0.001575491              -0.004156492               0.001083570              -0.003072922               0.000000000               0.000000000               0.000000000               0.000000000              -0.008305629               0.000499440              -0.000145725              -0.003177038               0.001225484              -0.001951554               0.000000000               0.000000000               0.000000000               0.000000000              -0.006104457               0.001685782              -0.001702414              -0.002499891               0.001395214              -0.001104677               0.000000000               0.000000000               0.000000000               0.000000000              -0.004776678               0.002717318              -0.002138338              -0.002130916               0.001616066              -0.000514850               0.000000000               0.000000000               0.000000000               0.000000000              -0.003829205               0.003500704              -0.002172573              -0.001873536               0.001791400              -0.000082136               0.000000000               0.000000000               0.000000000               0.000000000              -0.003064842               0.004076663              -0.002064810              -0.001658895               0.001911838               0.000252943               0.000000000               0.000000000               0.000000000               0.000000000              -0.002387800               0.004504195              -0.001906428              -0.001458446               0.001987532               0.000529085               0.000000000               0.000000000               0.000000000               0.000000000              -0.001753855               0.004807081              -0.001732129              -0.001258578               0.002021870               0.000763292               0.000000000               0.000000000               0.000000000               0.000000000              -0.001151790               0.005006281              -0.001566802              -0.001057704               0.002021311               0.000963607               0.000000000               0.000000000               0.000000000               0.000000000              -0.000580990               0.005122837              -0.001425979              -0.000858225               0.001993670               0.001135445               0.000000000               0.000000000               0.000000000               0.000000000              -0.000032864               0.005182188              -0.001302466              -0.000660097               0.001947411               0.001287314               0.000000000               0.000000000               0.000000000               0.000000000               0.000506985               0.005202601              -0.001171941              -0.000460205               0.001887584               0.001427379               0.000000000               0.000000000               0.000000000               0.000000000               0.001037144               0.005185460              -0.001015132              -0.000259253               0.001814887               0.001555634               0.000000000               0.000000000               0.000000000               0.000000000               0.001548598               0.005141076              -0.000822098              -0.000061911               0.001734312               0.001672401               0.000000000               0.000000000               0.000000000               0.000000000               0.002031370               0.005091632              -0.000588875               0.000125308               0.001655424               0.001780733               0.000000000               0.000000000               0.000000000               0.000000000               0.002462922               0.005048856              -0.000315379               0.000292486               0.001585440               0.001877926               0.000000000               0.000000000               0.000000000               0.000000000               0.002722349               0.005052654              -0.000181381               0.000389295               0.001554436               0.001943731               0.000000000               0.000000000               0.000000000               0.000000000              -0.013179357              -0.001198605               0.001342593              -0.004792430               0.001197933              -0.003594497               0.000000000               0.000000000               0.000000000               0.000000000              -0.009300810              -0.000226160               0.000001354              -0.003459531               0.001077783              -0.002381748               0.000000000               0.000000000               0.000000000               0.000000000              -0.006342862               0.000504225              -0.001245676              -0.002441599               0.000981934              -0.001459665               0.000000000               0.000000000               0.000000000               0.000000000              -0.004676478               0.001444311              -0.001647281              -0.001934216               0.001126167              -0.000808048               0.000000000               0.000000000               0.000000000               0.000000000              -0.003584014               0.002286694              -0.001719672              -0.001629839               0.001305502              -0.000324338               0.000000000               0.000000000               0.000000000               0.000000000              -0.002769443               0.002979910              -0.001663373              -0.001411027               0.001463635               0.000052608               0.000000000               0.000000000               0.000000000               0.000000000              -0.002090513               0.003539195              -0.001555976              -0.001226339               0.001588499               0.000362160               0.000000000               0.000000000               0.000000000               0.000000000              -0.001468191               0.003980231              -0.001428421              -0.001048098               0.001676096               0.000627998               0.000000000               0.000000000               0.000000000               0.000000000              -0.000869322               0.004317452              -0.001301396              -0.000865676               0.001727695               0.000862019               0.000000000               0.000000000               0.000000000               0.000000000              -0.000289777               0.004564782              -0.001191098              -0.000679263               0.001748000               0.001068737               0.000000000               0.000000000               0.000000000               0.000000000               0.000275185               0.004741364              -0.001099417              -0.000489476               0.001743597               0.001254122               0.000000000               0.000000000               0.000000000               0.000000000               0.000844288               0.004867313              -0.001007374              -0.000291806               0.001719690               0.001427884               0.000000000               0.000000000               0.000000000               0.000000000               0.001430322               0.004951758              -0.000888727              -0.000082600               0.001678103               0.001595503               0.000000000               0.000000000               0.000000000               0.000000000               0.002032570               0.004993221              -0.000733762               0.000138060               0.001618371               0.001756430               0.000000000               0.000000000               0.000000000               0.000000000               0.002658358               0.005009497              -0.000539155               0.000370693               0.001546251               0.001916945               0.000000000               0.000000000               0.000000000               0.000000000               0.003301209               0.005011917              -0.000295817               0.000611458               0.001466803               0.002078261               0.000000000               0.000000000               0.000000000               0.000000000               0.003743836               0.005053089              -0.000177800               0.000772295               0.001426915               0.002199209               0.000000000               0.000000000               0.000000000               0.000000000              -0.014378088              -0.001301683               0.000771306              -0.005229069               0.001309120              -0.003919950               0.000000000               0.000000000               0.000000000               0.000000000              -0.009984817              -0.000653260               0.000037115              -0.003662646               0.001003122              -0.002659524               0.000000000               0.000000000               0.000000000               0.000000000              -0.006509178              -0.000262598              -0.000656109              -0.002408115               0.000715167              -0.001692948               0.000000000               0.000000000               0.000000000               0.000000000              -0.004598046               0.000579027              -0.000896361              -0.001796644               0.000791884              -0.001004759               0.000000000               0.000000000               0.000000000               0.000000000              -0.003391252               0.001432673              -0.000952746              -0.001450801               0.000961151              -0.000489650               0.000000000               0.000000000               0.000000000               0.000000000              -0.002529940               0.002182187              -0.000932105              -0.001221498               0.001134554              -0.000086945               0.000000000               0.000000000               0.000000000               0.000000000              -0.001838086               0.002812700              -0.000878296              -0.001040867               0.001284513               0.000243646               0.000000000               0.000000000               0.000000000               0.000000000              -0.001224480               0.003340493              -0.000811548              -0.000876740               0.001405733               0.000528993               0.000000000               0.000000000               0.000000000               0.000000000              -0.000635355               0.003774698              -0.000743570              -0.000710094               0.001494918               0.000784824               0.000000000               0.000000000               0.000000000               0.000000000              -0.000054501               0.004116186              -0.000681416              -0.000534960               0.001550368               0.001015408               0.000000000               0.000000000               0.000000000               0.000000000               0.000525235               0.004380448              -0.000632053              -0.000350592               0.001576999               0.001226406               0.000000000               0.000000000               0.000000000               0.000000000               0.001111512               0.004583044              -0.000586197              -0.000156063               0.001579687               0.001423624               0.000000000               0.000000000               0.000000000               0.000000000               0.001726851               0.004742373              -0.000522975               0.000054772               0.001562518               0.001617290               0.000000000               0.000000000               0.000000000               0.000000000               0.002395041               0.004861533              -0.000439395               0.000290446               0.001523679               0.001814125               0.000000000               0.000000000               0.000000000               0.000000000               0.003134427               0.004942412              -0.000330855               0.000557603               0.001461587               0.002019190               0.000000000               0.000000000               0.000000000               0.000000000               0.003958171               0.004984345              -0.000183832               0.000861262               0.001374344               0.002235607               0.000000000               0.000000000               0.000000000               0.000000000               0.004570233               0.005057136              -0.000111851               0.001081684               0.001325134               0.002406818               0.000000000               0.000000000               0.000000000               0.000000000               0.000000000               0.000000000               0.000000000               0.000000000               0.000000000               0.000000000               0.000000000               0.000000000               0.000000000               0.000000000               0.000000000               0.000000000               0.000000000               0.000000000               0.000000000               0.000000000               0.000000000               0.000000000               0.000000000               0.000000000               0.000000000               0.000000000               0.000000000               0.000000000               0.000000000               0.000000000               0.000000000               0.000000000               0.000000000               0.000000000               0.000000000               0.000000000               0.000000000               0.000000000               0.000000000               0.000000000               0.000000000               0.000000000               0.000000000               0.000000000               0.000000000               0.000000000               0.000000000               0.000000000               0.000000000               0.000000000               0.000000000               0.000000000               0.000000000               0.000000000               0.000000000               0.000000000               0.000000000               0.000000000               0.000000000               0.000000000               0.000000000               0.000000000               0.000000000               0.000000000               0.000000000               0.000000000               0.000000000               0.000000000               0.000000000               0.000000000               0.000000000               0.000000000               0.000000000               0.000000000               0.000000000               0.000000000               0.000000000               0.000000000               0.000000000               0.000000000               0.000000000               0.000000000               0.000000000               0.000000000               0.000000000               0.000000000               0.000000000               0.000000000               0.000000000               0.000000000               0.000000000               0.000000000               0.000000000               0.000000000               0.000000000               0.000000000               0.000000000               0.000000000               0.000000000               0.000000000               0.000000000               0.000000000               0.000000000               0.000000000               0.000000000               0.000000000               0.000000000               0.000000000               0.000000000               0.000000000               0.000000000               0.000000000               0.000000000               0.000000000               0.000000000               0.000000000               0.000000000               0.000000000               0.000000000               0.000000000               0.000000000               0.000000000               0.000000000               0.000000000               0.000000000               0.000000000               0.000000000               0.000000000               0.000000000               0.000000000               0.000000000               0.000000000               0.000000000               0.000000000               0.000000000               0.000000000               0.000000000               0.000000000               0.000000000               0.000000000               0.000000000               0.000000000               0.000000000               0.000000000               0.000000000               0.000000000               0.000000000               0.000000000               0.000000000               0.000000000               0.000000000               0.000000000               0.000000000               0.000000000               0.000000000               0.000000000               0.000000000               0.000000000               0.000000000               0.000000000               0.000000000               0.000000000               0.000000000               0.000000000               0.000000000               0.000000000               0.000000000               0.000000000               0.000000000               0.000000000               0.000000000               0.000000000               0.000000000               0.000000000               0.000000000               0.000000000               0.000000000               0.000000000               0.000000000               0.000000000               0.000000000               0.000000000               0.000000000               0.000000000               0.000000000               0.000000000               0.000000000               0.000000000               0.000000000               0.000000000               0.000000000               0.000000000               0.000000000               0.000000000               0.000000000               0.000000000               0.000000000               0.000000000               0.000000000               0.000000000               0.000000000               0.000000000               0.000000000               0.000000000               0.000000000               0.000000000               0.000000000               0.000000000               0.000000000               0.000000000               0.000000000               0.000000000               0.000000000               0.000000000               0.000000000               0.000000000               0.000000000               0.000000000               0.000000000               0.000000000               0.000000000               0.000000000               0.000000000               0.000000000               0.000000000               0.000000000               0.000000000               0.000000000               0.000000000               0.000000000               0.000000000               0.000000000               0.000000000               0.000000000               0.000000000               0.000000000               0.000000000               0.000000000               0.000000000               0.000000000               0.000000000               0.000000000               0.000000000               0.000000000               0.000000000               0.000000000               0.000000000               0.000000000               0.000000000               0.000000000               0.000000000               0.000000000               0.000000000               0.000000000               0.000000000               0.000000000               0.000000000               0.000000000               0.000000000               0.000000000               0.000000000               0.000000000               0.000000000               0.000000000               0.000000000               0.000000000               0.000000000               0.000000000               0.000000000               0.000000000               0.000000000               0.000000000               0.000000000               0.000000000               0.000000000               0.000000000               0.000000000               0.000000000               0.000000000               0.000000000               0.000000000               0.000000000               0.000000000               0.000000000               0.000000000               0.000000000               0.000000000               0.000000000               0.000000000               0.000000000               0.000000000               0.000000000               0.000000000               0.000000000               0.000000000               0.000000000               0.000000000               0.000000000               0.000000000               0.000000000               0.000000000               0.000000000               0.000000000               0.000000000               0.000000000               0.000000000               0.000000000               0.000000000               0.000000000               0.000000000               0.000000000               0.000000000               0.000000000               0.000000000               0.000000000               0.000000000               0.000000000               0.000000000               0.000000000               0.000000000               0.000000000               0.000000000               0.000000000               0.000000000               0.000000000               0.000000000               0.000000000               0.000000000               0.000000000               0.000000000               0.000000000               0.000000000               0.000000000               0.000000000               0.000000000               0.000000000               0.000000000               0.000000000               0.000000000               0.000000000               0.000000000               0.000000000               0.000000000               0.000000000               0.002211278               0.022140303               0.001476998              -0.001938304               0.008026129               0.006087824               0.000000000               0.000000000               0.000000000               0.000000000               0.001991214               0.016967163               0.000636232              -0.001374187               0.006113727               0.004739540               0.000000000               0.000000000               0.000000000               0.000000000               0.002447991               0.012811935              -0.000189234              -0.000683494               0.004498434               0.003814940               0.000000000               0.000000000               0.000000000               0.000000000               0.002203856               0.010453467              -0.000521110              -0.000480236               0.003644533               0.003164296               0.000000000               0.000000000               0.000000000               0.000000000               0.001792495               0.008943548              -0.000645629              -0.000445757               0.003129739               0.002683982               0.000000000               0.000000000               0.000000000               0.000000000               0.001383745               0.007874886              -0.000676654              -0.000465455               0.002780087               0.002314632               0.000000000               0.000000000               0.000000000               0.000000000               0.001016634               0.007038258              -0.000663511              -0.000498543               0.002512244               0.002013700               0.000000000               0.000000000               0.000000000               0.000000000               0.000702270               0.006324418              -0.000636055              -0.000527200               0.002283852               0.001756652               0.000000000               0.000000000               0.000000000               0.000000000               0.000440597               0.005675411              -0.000602482              -0.000544201               0.002073185               0.001528984               0.000000000               0.000000000               0.000000000               0.000000000               0.000229321               0.005055514              -0.000565667              -0.000545943               0.001867135               0.001321193               0.000000000               0.000000000               0.000000000               0.000000000               0.000065066               0.004447316              -0.000530958              -0.000531514               0.001659595               0.001128081               0.000000000               0.000000000               0.000000000               0.000000000              -0.000058879               0.003836750              -0.000493018              -0.000501672               0.001446128               0.000944455               0.000000000               0.000000000               0.000000000               0.000000000              -0.000143823               0.003205369              -0.000445493              -0.000454604               0.001219980               0.000765376               0.000000000               0.000000000               0.000000000               0.000000000              -0.000180952               0.002542573              -0.000383220              -0.000385678               0.000976075               0.000590397               0.000000000               0.000000000               0.000000000               0.000000000              -0.000165574               0.001836699              -0.000295633              -0.000291677               0.000709452               0.000417775               0.000000000               0.000000000               0.000000000               0.000000000              -0.000097188               0.001070512              -0.000168772              -0.000170259               0.000413587               0.000243327               0.000000000               0.000000000               0.000000000               0.000000000              -0.000110579               0.000499113              -0.000105352              -0.000103856               0.000200988               0.000097132               0.000000000               0.000000000               0.000000000               0.000000000               0.002326783               0.020718611               0.002724346              -0.001717280               0.007478561               0.005761281               0.000000000               0.000000000               0.000000000               0.000000000               0.001758796               0.016080593               0.001164836              -0.001350523               0.005810318               0.004459796               0.000000000               0.000000000               0.000000000               0.000000000               0.001845212               0.012474645              -0.000347903              -0.000867374               0.004447298               0.003579924               0.000000000               0.000000000               0.000000000               0.000000000               0.001475601               0.010394983              -0.000931859              -0.000746021               0.003713633               0.002967612               0.000000000               0.000000000               0.000000000               0.000000000               0.001051338               0.009029064              -0.001140097              -0.000734380               0.003254451               0.002520071               0.000000000               0.000000000               0.000000000               0.000000000               0.000684715               0.008029850              -0.001185491              -0.000746962               0.002925577               0.002178615               0.000000000               0.000000000               0.000000000               0.000000000               0.000392271               0.007224154              -0.001156971              -0.000755916               0.002659999               0.001904083               0.000000000               0.000000000               0.000000000               0.000000000               0.000163226               0.006518124              -0.001101163              -0.000753554               0.002423871               0.001670317               0.000000000               0.000000000               0.000000000               0.000000000              -0.000014129               0.005864398              -0.001036060              -0.000738347               0.002200895               0.001462548               0.000000000               0.000000000               0.000000000               0.000000000              -0.000144313               0.005246458              -0.000967253              -0.000709923               0.001985443               0.001275520               0.000000000               0.000000000               0.000000000               0.000000000              -0.000233750               0.004648479              -0.000901492              -0.000668715               0.001772382               0.001103667               0.000000000               0.000000000               0.000000000               0.000000000              -0.000286711               0.004060694              -0.000827680              -0.000615102               0.001558585               0.000943483               0.000000000               0.000000000               0.000000000               0.000000000              -0.000302824               0.003472242              -0.000734667              -0.000547588               0.001339932               0.000792343               0.000000000               0.000000000               0.000000000               0.000000000              -0.000274476               0.002878121              -0.000619631              -0.000462693               0.001113595               0.000650902               0.000000000               0.000000000               0.000000000               0.000000000              -0.000205789               0.002280167              -0.000468781              -0.000362191               0.000880778               0.000518587               0.000000000               0.000000000               0.000000000               0.000000000              -0.000109824               0.001685397              -0.000263566              -0.000251858               0.000645746               0.000393888               0.000000000               0.000000000               0.000000000               0.000000000              -0.000098498               0.001277829              -0.000160833              -0.000196665               0.000491494               0.000294829               0.000000000               0.000000000               0.000000000               0.000000000               0.002394993               0.018566883               0.003559979              -0.001422736               0.006663144               0.005240408               0.000000000               0.000000000               0.000000000               0.000000000               0.001341338               0.014764615               0.001511303              -0.001342572               0.005369013               0.004026441               0.000000000               0.000000000               0.000000000               0.000000000               0.000915162               0.011984343              -0.000443361              -0.001154854               0.004379693               0.003224838               0.000000000               0.000000000               0.000000000               0.000000000               0.000414105               0.010301107              -0.001152457              -0.001132347               0.003811117               0.002678770               0.000000000               0.000000000               0.000000000               0.000000000               0.000015631               0.009127021              -0.001382867              -0.001135014               0.003420648               0.002285634               0.000000000               0.000000000               0.000000000               0.000000000              -0.000263262               0.008209618              -0.001418158              -0.001124923               0.003111486               0.001986563               0.000000000               0.000000000               0.000000000               0.000000000              -0.000440451               0.007430932              -0.001369598              -0.001094033               0.002841630               0.001747597               0.000000000               0.000000000               0.000000000               0.000000000              -0.000546218               0.006731788              -0.001288318              -0.001046303               0.002592674               0.001546371               0.000000000               0.000000000               0.000000000               0.000000000              -0.000601181               0.006084100              -0.001201186              -0.000985953               0.002356664               0.001370711               0.000000000               0.000000000               0.000000000               0.000000000              -0.000614683               0.005476818              -0.001112138              -0.000915106               0.002130623               0.001215517               0.000000000               0.000000000               0.000000000               0.000000000              -0.000593283               0.004900119              -0.001025226              -0.000834994               0.001911688               0.001076694               0.000000000               0.000000000               0.000000000               0.000000000              -0.000543023               0.004348497              -0.000931675              -0.000747194               0.001698549               0.000951355               0.000000000               0.000000000               0.000000000               0.000000000              -0.000462779               0.003825026              -0.000813663              -0.000651669               0.001492219               0.000840550               0.000000000               0.000000000               0.000000000               0.000000000              -0.000355539               0.003331852              -0.000666938              -0.000549807               0.001293875               0.000744068               0.000000000               0.000000000               0.000000000               0.000000000              -0.000233067               0.002880422              -0.000487854              -0.000447452               0.001109282               0.000661830               0.000000000               0.000000000               0.000000000               0.000000000              -0.000112795               0.002493739              -0.000267017              -0.000354015               0.000949243               0.000595228               0.000000000               0.000000000               0.000000000               0.000000000              -0.000076115               0.002269385              -0.000155186              -0.000312216               0.000860526               0.000548310               0.000000000               0.000000000               0.000000000               0.000000000               0.002267330               0.015957719               0.003906279              -0.001144466               0.005700674               0.004556208               0.000000000               0.000000000               0.000000000               0.000000000               0.000723980               0.013206963               0.001665642              -0.001379376               0.004862069               0.003482693               0.000000000               0.000000000               0.000000000               0.000000000              -0.000219755               0.011405601              -0.000435799              -0.001508105               0.004304531               0.002796426               0.000000000               0.000000000               0.000000000               0.000000000              -0.000796906               0.010149175              -0.001137085              -0.001567483               0.003905519               0.002338036               0.000000000               0.000000000               0.000000000               0.000000000              -0.001107978               0.009159618              -0.001335244              -0.001560441               0.003573322               0.002012882               0.000000000               0.000000000               0.000000000               0.000000000              -0.001240332               0.008317339              -0.001346640              -0.001504788               0.003274015               0.001769226               0.000000000               0.000000000               0.000000000               0.000000000              -0.001262037               0.007568287              -0.001284125              -0.001419296               0.002995836               0.001576539               0.000000000               0.000000000               0.000000000               0.000000000              -0.001218308               0.006885984              -0.001195851              -0.001317611               0.002734508               0.001416898               0.000000000               0.000000000               0.000000000               0.000000000              -0.001130123               0.006259578              -0.001103404              -0.001206241               0.002488585               0.001282345               0.000000000               0.000000000               0.000000000               0.000000000              -0.001011097               0.005676080              -0.001011735              -0.001088669               0.002254897               0.001166228               0.000000000               0.000000000               0.000000000               0.000000000              -0.000866418               0.005132137              -0.000922116              -0.000966422               0.002032835               0.001066414               0.000000000               0.000000000               0.000000000               0.000000000              -0.000704835               0.004628150              -0.000826169              -0.000842830               0.001823644               0.000980815               0.000000000               0.000000000               0.000000000               0.000000000              -0.000534209               0.004176469              -0.000705090              -0.000722385               0.001632937               0.000910552               0.000000000               0.000000000               0.000000000               0.000000000              -0.000365059               0.003789285              -0.000554712              -0.000610556               0.001466601               0.000856045               0.000000000               0.000000000               0.000000000               0.000000000              -0.000209866               0.003479418              -0.000383626              -0.000513626               0.001331003               0.000817377               0.000000000               0.000000000               0.000000000               0.000000000              -0.000091307               0.003265710              -0.000198570              -0.000442453               0.001236043               0.000793591               0.000000000               0.000000000               0.000000000               0.000000000              -0.000046707               0.003179299              -0.000105484              -0.000414926               0.001198065               0.000783138               0.000000000               0.000000000               0.000000000               0.000000000               0.001829341               0.013164829               0.003786913              -0.000959601               0.004708099               0.003748498               0.000000000               0.000000000               0.000000000               0.000000000              -0.000079540               0.011572379               0.001666535              -0.001476372               0.004349545               0.002873173               0.000000000               0.000000000               0.000000000               0.000000000              -0.001425848               0.010772014              -0.000291300              -0.001881190               0.004217699               0.002336509               0.000000000               0.000000000               0.000000000               0.000000000              -0.001969853               0.009905263              -0.000886191              -0.001976848               0.003960671               0.001983823               0.000000000               0.000000000               0.000000000               0.000000000              -0.002120801               0.009075975              -0.001033071              -0.001929793               0.003668559               0.001738766               0.000000000               0.000000000               0.000000000               0.000000000              -0.002061955               0.008304330              -0.001030883              -0.001811270               0.003371839               0.001560569               0.000000000               0.000000000               0.000000000               0.000000000              -0.001901969               0.007592906              -0.000974875              -0.001662348               0.003085059               0.001422711               0.000000000               0.000000000               0.000000000               0.000000000              -0.001697240               0.006942563              -0.000899989              -0.001504282               0.002815592               0.001311310               0.000000000               0.000000000               0.000000000               0.000000000              -0.001465147               0.006345484              -0.000822058              -0.001342613               0.002562677               0.001220065               0.000000000               0.000000000               0.000000000               0.000000000              -0.001218205               0.005793319              -0.000741842              -0.001180989               0.002324750               0.001143761               0.000000000               0.000000000               0.000000000               0.000000000              -0.000965598               0.005286299              -0.000659295              -0.001022884               0.002103043               0.001080159               0.000000000               0.000000000               0.000000000               0.000000000              -0.000720942               0.004832709              -0.000573951              -0.000874440               0.001902367               0.001027927               0.000000000               0.000000000               0.000000000               0.000000000              -0.000491868               0.004453129              -0.000469520              -0.000741090               0.001731391               0.000990302               0.000000000               0.000000000               0.000000000               0.000000000              -0.000294576               0.004155003              -0.000342362              -0.000629840               0.001594934               0.000965094               0.000000000               0.000000000               0.000000000               0.000000000              -0.000144750               0.003947203              -0.000209708              -0.000547680               0.001498281               0.000950601               0.000000000               0.000000000               0.000000000               0.000000000              -0.000053057               0.003838223              -0.000093667              -0.000499673               0.001445952               0.000946279               0.000000000               0.000000000               0.000000000               0.000000000              -0.000019745               0.003816452              -0.000040857              -0.000484460               0.001433625               0.000949165               0.000000000               0.000000000               0.000000000               0.000000000               0.001032137               0.010415711               0.003295016              -0.000914913               0.003776839               0.002861926               0.000000000               0.000000000               0.000000000               0.000000000              -0.001016896               0.009979839               0.001573465              -0.001628813               0.003869517               0.002240704               0.000000000               0.000000000               0.000000000               0.000000000              -0.002565417               0.010095732              -0.000006397              -0.002223992               0.004106541               0.001882549               0.000000000               0.000000000               0.000000000               0.000000000              -0.002949472               0.009551167              -0.000455304              -0.002299942               0.003950338               0.001650396               0.000000000               0.000000000               0.000000000               0.000000000              -0.002879191               0.008856337              -0.000566773              -0.002186733               0.003680994               0.001494261               0.000000000               0.000000000               0.000000000               0.000000000              -0.002615113               0.008154497              -0.000574690              -0.001999975               0.003384797               0.001384822               0.000000000               0.000000000               0.000000000               0.000000000              -0.002276674               0.007494650              -0.000547797              -0.001790580               0.003095052               0.001304472               0.000000000               0.000000000               0.000000000               0.000000000              -0.001919819               0.006885372              -0.000504381              -0.001580600               0.002821968               0.001241368               0.000000000               0.000000000               0.000000000               0.000000000              -0.001565316               0.006320264              -0.000454122              -0.001377023               0.002565741               0.001188718               0.000000000               0.000000000               0.000000000               0.000000000              -0.001225144               0.005802334              -0.000397217              -0.001184718               0.002328998               0.001144280               0.000000000               0.000000000               0.000000000               0.000000000              -0.000904482               0.005342599              -0.000335040              -0.001007003               0.002116516               0.001109513               0.000000000               0.000000000               0.000000000               0.000000000              -0.000615576               0.004951569              -0.000276263              -0.000849785               0.001933768               0.001083983               0.000000000               0.000000000               0.000000000               0.000000000              -0.000370671               0.004640122              -0.000210243              -0.000719015               0.001786363               0.001067348               0.000000000               0.000000000               0.000000000               0.000000000              -0.000182363               0.004416247              -0.000132837              -0.000620416               0.001678873               0.001058457               0.000000000               0.000000000               0.000000000               0.000000000              -0.000063251               0.004285201              -0.000064744              -0.000559368               0.001614842               0.001055474               0.000000000               0.000000000               0.000000000               0.000000000              -0.000012033               0.004237041              -0.000020941              -0.000534141               0.001590380               0.001056239               0.000000000               0.000000000               0.000000000               0.000000000              -0.000001484               0.004238173              -0.000004661              -0.000530327               0.001589486               0.001059159               0.000000000               0.000000000               0.000000000               0.000000000              -0.000090296               0.007890198               0.002541452              -0.001020135               0.002970084               0.001949949               0.000000000               0.000000000               0.000000000               0.000000000              -0.002037729               0.008529665               0.001436470              -0.001830353               0.003453311               0.001622958               0.000000000               0.000000000               0.000000000               0.000000000              -0.003529009               0.009382748               0.000397152              -0.002496216               0.003959623               0.001463408               0.000000000               0.000000000               0.000000000               0.000000000              -0.003645387               0.009077010               0.000077031              -0.002501640               0.003859520               0.001357880               0.000000000               0.000000000               0.000000000               0.000000000              -0.003324601               0.008498621              -0.000036717              -0.002309047               0.003602528               0.001293480               0.000000000               0.000000000               0.000000000               0.000000000              -0.002861324               0.007878512              -0.000081628              -0.002057805               0.003312079               0.001254274               0.000000000               0.000000000               0.000000000               0.000000000              -0.002367737               0.007283411              -0.000097176              -0.001798323               0.003027220               0.001228897               0.000000000               0.000000000               0.000000000               0.000000000              -0.001887241               0.006717107              -0.000096207              -0.001547350               0.002754797               0.001207447               0.000000000               0.000000000               0.000000000               0.000000000              -0.001442156               0.006190980              -0.000086108              -0.001314678               0.002501865               0.001187187               0.000000000               0.000000000               0.000000000               0.000000000              -0.001044783               0.005718271              -0.000067003              -0.001106575               0.002274930               0.001168355               0.000000000               0.000000000               0.000000000               0.000000000              -0.000698797               0.005310904              -0.000045160              -0.000925909               0.002078920               0.001153011               0.000000000               0.000000000               0.000000000               0.000000000              -0.000410337               0.004983862              -0.000030161              -0.000776857               0.001920223               0.001143366               0.000000000               0.000000000               0.000000000               0.000000000              -0.000189555               0.004743033              -0.000019090              -0.000663961               0.001802315               0.001138355               0.000000000               0.000000000               0.000000000               0.000000000              -0.000047723               0.004597882              -0.000004003              -0.000592630               0.001730155               0.001137525               0.000000000               0.000000000               0.000000000               0.000000000               0.000015567               0.004539250               0.000005252              -0.000561567               0.001700257               0.001138690               0.000000000               0.000000000               0.000000000               0.000000000               0.000020141               0.004544626               0.000004026              -0.000560524               0.001701701               0.001141177               0.000000000               0.000000000               0.000000000               0.000000000               0.000012130               0.004570411               0.000004039              -0.000566751               0.001712372               0.001145621               0.000000000               0.000000000               0.000000000               0.000000000              -0.001406712               0.005779903               0.001644670              -0.001250003               0.002343282               0.001093280               0.000000000               0.000000000               0.000000000               0.000000000              -0.003041270               0.007237136               0.001292327              -0.002045114               0.003094059               0.001048945               0.000000000               0.000000000               0.000000000               0.000000000              -0.004292526               0.008650868               0.000878377              -0.002691049               0.003780610               0.001089561               0.000000000               0.000000000               0.000000000               0.000000000              -0.004123077               0.008593010               0.000638539              -0.002620273               0.003737732               0.001117459               0.000000000               0.000000000               0.000000000               0.000000000              -0.003588209               0.008158242               0.000489919              -0.002365353               0.003507838               0.001142485               0.000000000               0.000000000               0.000000000               0.000000000              -0.002961933               0.007641070               0.000393069              -0.002065854               0.003235616               0.001169762               0.000000000               0.000000000               0.000000000               0.000000000              -0.002346165               0.007114902               0.000326463              -0.001769170               0.002961334               0.001192163               0.000000000               0.000000000               0.000000000               0.000000000              -0.001775554               0.006598938               0.000277027              -0.001490696               0.002696523               0.001205827               0.000000000               0.000000000               0.000000000               0.000000000              -0.001265433               0.006118697               0.000239754              -0.001239371               0.002452669               0.001213298               0.000000000               0.000000000               0.000000000               0.000000000              -0.000827906               0.005682360               0.000213223              -0.001020757               0.002234354               0.001213596               0.000000000               0.000000000               0.000000000               0.000000000              -0.000464612               0.005309778               0.000187442              -0.000837950               0.002049225               0.001211275               0.000000000               0.000000000               0.000000000               0.000000000              -0.000180068               0.005024272               0.000150287              -0.000695558               0.001906593               0.001211035               0.000000000               0.000000000               0.000000000               0.000000000               0.000014910               0.004834235               0.000102837              -0.000598687               0.001810958               0.001212271               0.000000000               0.000000000               0.000000000               0.000000000               0.000109274               0.004738491               0.000060894              -0.000551332               0.001763259               0.001211927               0.000000000               0.000000000               0.000000000               0.000000000               0.000120752               0.004727676               0.000030195              -0.000545676               0.001757768               0.001212092               0.000000000               0.000000000               0.000000000               0.000000000               0.000091796               0.004778588               0.000007714              -0.000562899               0.001780480               0.001217581               0.000000000               0.000000000               0.000000000               0.000000000               0.000068008               0.004820703              -0.000000989              -0.000577084               0.001799246               0.001222163               0.000000000               0.000000000               0.000000000               0.000000000              -0.002920654               0.003842437               0.000719712              -0.001575546               0.001805981               0.000230435               0.000000000               0.000000000               0.000000000               0.000000000              -0.003897975               0.005735336               0.001139654              -0.002178653               0.002637977               0.000459324               0.000000000               0.000000000               0.000000000               0.000000000              -0.004769112               0.007544830               0.001376170              -0.002731514               0.003425423               0.000693909               0.000000000               0.000000000               0.000000000               0.000000000              -0.004443307               0.007868744               0.001226552              -0.002649826               0.003506164               0.000856337               0.000000000               0.000000000               0.000000000               0.000000000              -0.003820161               0.007704614               0.001046273              -0.002395631               0.003366722               0.000971091               0.000000000               0.000000000               0.000000000               0.000000000              -0.003134072               0.007386146               0.000892888              -0.002098540               0.003161537               0.001062997               0.000000000               0.000000000               0.000000000               0.000000000              -0.002469800               0.007012042               0.000767168              -0.001802676               0.002938216               0.001135540               0.000000000               0.000000000               0.000000000               0.000000000              -0.001863684               0.006617230               0.000658759              -0.001526031               0.002714398               0.001188367               0.000000000               0.000000000               0.000000000               0.000000000              -0.001325037               0.006227233               0.000570304              -0.001275290               0.002500820               0.001225530               0.000000000               0.000000000               0.000000000               0.000000000              -0.000857436               0.005850060               0.000498739              -0.001052793               0.002300931               0.001248138               0.000000000               0.000000000               0.000000000               0.000000000              -0.000459766               0.005504086               0.000430569              -0.000860421               0.002121484               0.001261063               0.000000000               0.000000000               0.000000000               0.000000000              -0.000140742               0.005215621               0.000349271              -0.000704729               0.001973432               0.001268703               0.000000000               0.000000000               0.000000000               0.000000000               0.000088158               0.005006822               0.000252707              -0.000592792               0.001866521               0.001273729               0.000000000               0.000000000               0.000000000               0.000000000               0.000222396               0.004889881               0.000158607              -0.000527835               0.001805889               0.001278054               0.000000000               0.000000000               0.000000000               0.000000000               0.000267666               0.004859647               0.000082261              -0.000507080               0.001788893               0.001281813               0.000000000               0.000000000               0.000000000               0.000000000               0.000251744               0.004903681               0.000029397              -0.000518555               0.001807396               0.001288841               0.000000000               0.000000000               0.000000000               0.000000000               0.000215932               0.004933632               0.000002881              -0.000535728               0.001823104               0.001287376               0.000000000               0.000000000               0.000000000               0.000000000              -0.004818298               0.002099809              -0.000160698              -0.002069335               0.001389705              -0.000679629               0.000000000               0.000000000               0.000000000               0.000000000              -0.004863393               0.004216225               0.000933906              -0.002350795               0.002188992              -0.000161804               0.000000000               0.000000000               0.000000000               0.000000000              -0.005175041               0.006222728               0.001777008              -0.002718475               0.002980380               0.000261905               0.000000000               0.000000000               0.000000000               0.000000000              -0.004707723               0.006905066               0.001782277              -0.002628523               0.003177840               0.000549316               0.000000000               0.000000000               0.000000000               0.000000000              -0.004041565               0.007049574               0.001605931              -0.002396778               0.003148760               0.000751982               0.000000000               0.000000000               0.000000000               0.000000000              -0.003334047               0.006970551               0.001413119              -0.002121582               0.003030687               0.000909106               0.000000000               0.000000000               0.000000000               0.000000000              -0.002649020               0.006786157               0.001235267              -0.001841648               0.002875912               0.001034264               0.000000000               0.000000000               0.000000000               0.000000000              -0.002015002               0.006544881               0.001073199              -0.001573732               0.002706182               0.001132450               0.000000000               0.000000000               0.000000000               0.000000000              -0.001445190               0.006275160               0.000935592              -0.001326338               0.002533812               0.001207473               0.000000000               0.000000000               0.000000000               0.000000000              -0.000940307               0.005989017               0.000825683              -0.001101240               0.002363399               0.001262159               0.000000000               0.000000000               0.000000000               0.000000000              -0.000494178               0.005699037               0.000726098              -0.000897694               0.002198891               0.001301197               0.000000000               0.000000000               0.000000000               0.000000000              -0.000111650               0.005430082               0.000612152              -0.000720627               0.002050218               0.001329591               0.000000000               0.000000000               0.000000000               0.000000000               0.000196299               0.005209756               0.000477950              -0.000577606               0.001929103               0.001351497               0.000000000               0.000000000               0.000000000               0.000000000               0.000410736               0.005055044               0.000336081              -0.000477853               0.001844282               0.001366429               0.000000000               0.000000000               0.000000000               0.000000000               0.000522237               0.004971334               0.000203534              -0.000425577               0.001798954               0.001373377               0.000000000               0.000000000               0.000000000               0.000000000               0.000540203               0.004962450               0.000092335              -0.000417729               0.001793376               0.001375647               0.000000000               0.000000000               0.000000000               0.000000000               0.000502788               0.004960660               0.000033685              -0.000431536               0.001797382               0.001365846               0.000000000               0.000000000               0.000000000               0.000000000              -0.006971349               0.000692092              -0.000911212              -0.002700765               0.001130944              -0.001569820               0.000000000               0.000000000               0.000000000               0.000000000              -0.005965442               0.002784444               0.000667409              -0.002585092               0.001789833              -0.000795259               0.000000000               0.000000000               0.000000000               0.000000000              -0.005518380               0.004711362               0.001981794              -0.002658307               0.002456539              -0.000201768               0.000000000               0.000000000               0.000000000               0.000000000              -0.004833953               0.005641241               0.002173817              -0.002517882               0.002719688               0.000201806               0.000000000               0.000000000               0.000000000               0.000000000              -0.004110877               0.006069334               0.002051730              -0.002300241               0.002789837               0.000489597               0.000000000               0.000000000               0.000000000               0.000000000              -0.003395662               0.006239030               0.001857673              -0.002053247               0.002764071               0.000710824               0.000000000               0.000000000               0.000000000               0.000000000              -0.002708767               0.006266286               0.001652953              -0.001799069               0.002688431               0.000889361               0.000000000               0.000000000               0.000000000               0.000000000              -0.002061310               0.006203008               0.001457771              -0.001548364               0.002583770               0.001035406               0.000000000               0.000000000               0.000000000               0.000000000              -0.001467292               0.006080909               0.001286178              -0.001310345               0.002463731               0.001153386               0.000000000               0.000000000               0.000000000               0.000000000              -0.000928711               0.005921071               0.001145983              -0.001088398               0.002336470               0.001248072               0.000000000               0.000000000               0.000000000               0.000000000              -0.000442494               0.005729502               0.001019706              -0.000882121               0.002203855               0.001321734               0.000000000               0.000000000               0.000000000               0.000000000              -0.000005167               0.005523233               0.000884747              -0.000692340               0.002071839               0.001379499               0.000000000               0.000000000               0.000000000               0.000000000               0.000380282               0.005332365               0.000726630              -0.000523939               0.001952084               0.001428145               0.000000000               0.000000000               0.000000000               0.000000000               0.000693000               0.005179552               0.000546914              -0.000387568               0.001855689               0.001468121               0.000000000               0.000000000               0.000000000               0.000000000               0.000904557               0.005069900               0.000362026              -0.000294528               0.001788126               0.001493598               0.000000000               0.000000000               0.000000000               0.000000000               0.001000706               0.005016519               0.000181871              -0.000251800               0.001756090               0.001504290               0.000000000               0.000000000               0.000000000               0.000000000               0.000998785               0.004995506               0.000087626              -0.000249893               0.001748450               0.001498557               0.000000000               0.000000000               0.000000000               0.000000000              -0.009234648              -0.000305642              -0.001416998              -0.003424785               0.001039707              -0.002385078               0.000000000               0.000000000               0.000000000               0.000000000              -0.007146892               0.001517786               0.000386245              -0.002869804               0.001462520              -0.001407284               0.000000000               0.000000000               0.000000000               0.000000000              -0.005823413               0.003145831               0.001958603              -0.002577004               0.001907598              -0.000669406               0.000000000               0.000000000               0.000000000               0.000000000              -0.004843981               0.004188681               0.002311208              -0.002340073               0.002176236              -0.000163837               0.000000000               0.000000000               0.000000000               0.000000000              -0.004026356               0.004836685               0.002270582              -0.002114465               0.002317033               0.000202568               0.000000000               0.000000000               0.000000000               0.000000000              -0.003298941               0.005232323               0.002109261              -0.001891139               0.002374469               0.000483330               0.000000000               0.000000000               0.000000000               0.000000000              -0.002617080               0.005470872               0.001915186              -0.001665260               0.002378692               0.000713432               0.000000000               0.000000000               0.000000000               0.000000000              -0.001972951               0.005598461               0.001716411              -0.001439661               0.002346022               0.000906360               0.000000000               0.000000000               0.000000000               0.000000000              -0.001369085               0.005640234               0.001534790              -0.001218434               0.002286203               0.001067770               0.000000000               0.000000000               0.000000000               0.000000000              -0.000809309               0.005617537               0.001382092              -0.001005681               0.002207720               0.001202039               0.000000000               0.000000000               0.000000000               0.000000000              -0.000286464               0.005548941               0.001244155              -0.000801040               0.002116642               0.001315601               0.000000000               0.000000000               0.000000000               0.000000000               0.000206927               0.005449055               0.001100302              -0.000603533               0.002017511               0.001413978               0.000000000               0.000000000               0.000000000               0.000000000               0.000664016               0.005329647               0.000932566              -0.000417199               0.001915597               0.001498398               0.000000000               0.000000000               0.000000000               0.000000000               0.001076071               0.005212633               0.000733555              -0.000248052               0.001820211               0.001572159               0.000000000               0.000000000               0.000000000               0.000000000               0.001416479               0.005113380               0.000509530              -0.000107993               0.001740441               0.001632448               0.000000000               0.000000000               0.000000000               0.000000000               0.001656209               0.005048209               0.000265520              -0.000009948               0.001686035               0.001676087               0.000000000               0.000000000               0.000000000               0.000000000               0.001756639               0.005030135               0.000141288               0.000029972               0.001666704               0.001696676               0.000000000               0.000000000               0.000000000               0.000000000              -0.011385905              -0.000905758              -0.001575491              -0.004156492               0.001083570              -0.003072922               0.000000000               0.000000000               0.000000000               0.000000000              -0.008305629               0.000499440               0.000145725              -0.003177038               0.001225484              -0.001951554               0.000000000               0.000000000               0.000000000               0.000000000              -0.006104457               0.001685782               0.001702414              -0.002499891               0.001395214              -0.001104677               0.000000000               0.000000000               0.000000000               0.000000000              -0.004776678               0.002717318               0.002138338              -0.002130916               0.001616066              -0.000514850               0.000000000               0.000000000               0.000000000               0.000000000              -0.003829205               0.003500704               0.002172573              -0.001873536               0.001791400              -0.000082136               0.000000000               0.000000000               0.000000000               0.000000000              -0.003064842               0.004076663               0.002064810              -0.001658895               0.001911838               0.000252943               0.000000000               0.000000000               0.000000000               0.000000000              -0.002387800               0.004504195               0.001906428              -0.001458446               0.001987532               0.000529085               0.000000000               0.000000000               0.000000000               0.000000000              -0.001753855               0.004807081               0.001732129              -0.001258578               0.002021870               0.000763292               0.000000000               0.000000000               0.000000000               0.000000000              -0.001151790               0.005006281               0.001566802              -0.001057704               0.002021311               0.000963607               0.000000000               0.000000000               0.000000000               0.000000000              -0.000580990               0.005122837               0.001425979              -0.000858225               0.001993670               0.001135445               0.000000000               0.000000000               0.000000000               0.000000000              -0.000032864               0.005182188               0.001302466              -0.000660097               0.001947411               0.001287314               0.000000000               0.000000000               0.000000000               0.000000000               0.000506985               0.005202601               0.001171941              -0.000460205               0.001887584               0.001427379               0.000000000               0.000000000               0.000000000               0.000000000               0.001037144               0.005185460               0.001015132              -0.000259253               0.001814887               0.001555634               0.000000000               0.000000000               0.000000000               0.000000000               0.001548598               0.005141076               0.000822098              -0.000061911               0.001734312               0.001672401               0.000000000               0.000000000               0.000000000               0.000000000               0.002031370               0.005091632               0.000588875               0.000125308               0.001655424               0.001780733               0.000000000               0.000000000               0.000000000               0.000000000               0.002462922               0.005048856               0.000315379               0.000292486               0.001585440               0.001877926               0.000000000               0.000000000               0.000000000               0.000000000               0.002722349               0.005052654               0.000181381               0.000389295               0.001554436               0.001943731               0.000000000               0.000000000               0.000000000               0.000000000              -0.013179357              -0.001198605              -0.001342593              -0.004792430               0.001197933              -0.003594497               0.000000000               0.000000000               0.000000000               0.000000000              -0.009300810              -0.000226160              -0.000001354              -0.003459531               0.001077783              -0.002381748               0.000000000               0.000000000               0.000000000               0.000000000              -0.006342862               0.000504225               0.001245676              -0.002441599               0.000981934              -0.001459665               0.000000000               0.000000000               0.000000000               0.000000000              -0.004676478               0.001444311               0.001647281              -0.001934216               0.001126167              -0.000808048               0.000000000               0.000000000               0.000000000               0.000000000              -0.003584014               0.002286694               0.001719672              -0.001629839               0.001305502              -0.000324338               0.000000000               0.000000000               0.000000000               0.000000000              -0.002769443               0.002979910               0.001663373              -0.001411027               0.001463635               0.000052608               0.000000000               0.000000000               0.000000000               0.000000000              -0.002090513               0.003539195               0.001555976              -0.001226339               0.001588499               0.000362160               0.000000000               0.000000000               0.000000000               0.000000000              -0.001468191               0.003980231               0.001428421              -0.001048098               0.001676096               0.000627998               0.000000000               0.000000000               0.000000000               0.000000000              -0.000869322               0.004317452               0.001301396              -0.000865676               0.001727695               0.000862019               0.000000000               0.000000000               0.000000000               0.000000000              -0.000289777               0.004564782               0.001191098              -0.000679263               0.001748000               0.001068737               0.000000000               0.000000000               0.000000000               0.000000000               0.000275185               0.004741364               0.001099417              -0.000489476               0.001743597               0.001254122               0.000000000               0.000000000               0.000000000               0.000000000               0.000844288               0.004867313               0.001007374              -0.000291806               0.001719690               0.001427884               0.000000000               0.000000000               0.000000000               0.000000000               0.001430322               0.004951758               0.000888727              -0.000082600               0.001678103               0.001595503               0.000000000               0.000000000               0.000000000               0.000000000               0.002032570               0.004993221               0.000733762               0.000138060               0.001618371               0.001756430               0.000000000               0.000000000               0.000000000               0.000000000               0.002658358               0.005009497               0.000539155               0.000370693               0.001546251               0.001916945               0.000000000               0.000000000               0.000000000               0.000000000               0.003301209               0.005011917               0.000295817               0.000611458               0.001466803               0.002078261               0.000000000               0.000000000               0.000000000               0.000000000               0.003743836               0.005053089               0.000177800               0.000772295               0.001426915               0.002199209               0.000000000               0.000000000               0.000000000               0.000000000              -0.014378088              -0.001301683              -0.000771306              -0.005229069               0.001309120              -0.003919950               0.000000000               0.000000000               0.000000000               0.000000000              -0.009984817              -0.000653260              -0.000037115              -0.003662646               0.001003122              -0.002659524               0.000000000               0.000000000               0.000000000               0.000000000              -0.006509178              -0.000262598               0.000656109              -0.002408115               0.000715167              -0.001692948               0.000000000               0.000000000               0.000000000               0.000000000              -0.004598046               0.000579027               0.000896361              -0.001796644               0.000791884              -0.001004759               0.000000000               0.000000000               0.000000000               0.000000000              -0.003391252               0.001432673               0.000952746              -0.001450801               0.000961151              -0.000489650               0.000000000               0.000000000               0.000000000               0.000000000              -0.002529940               0.002182187               0.000932105              -0.001221498               0.001134554              -0.000086945               0.000000000               0.000000000               0.000000000               0.000000000              -0.001838086               0.002812700               0.000878296              -0.001040867               0.001284513               0.000243646               0.000000000               0.000000000               0.000000000               0.000000000              -0.001224480               0.003340493               0.000811548              -0.000876740               0.001405733               0.000528993               0.000000000               0.000000000               0.000000000               0.000000000              -0.000635355               0.003774698               0.000743570              -0.000710094               0.001494918               0.000784824               0.000000000               0.000000000               0.000000000               0.000000000              -0.000054501               0.004116186               0.000681416              -0.000534960               0.001550368               0.001015408               0.000000000               0.000000000               0.000000000               0.000000000               0.000525235               0.004380448               0.000632053              -0.000350592               0.001576999               0.001226406               0.000000000               0.000000000               0.000000000               0.000000000               0.001111512               0.004583044               0.000586197              -0.000156063               0.001579687               0.001423624               0.000000000               0.000000000               0.000000000               0.000000000               0.001726851               0.004742373               0.000522975               0.000054772               0.001562518               0.001617290               0.000000000               0.000000000               0.000000000               0.000000000               0.002395041               0.004861533               0.000439395               0.000290446               0.001523679               0.001814125               0.000000000               0.000000000               0.000000000               0.000000000               0.003134427               0.004942412               0.000330855               0.000557603               0.001461587               0.002019190               0.000000000               0.000000000               0.000000000               0.000000000               0.003958171               0.004984345               0.000183832               0.000861262               0.001374344               0.002235607               0.000000000               0.000000000               0.000000000               0.000000000               0.004570233               0.005057136               0.000111851               0.001081684               0.001325134               0.002406818               0.000000000               0.000000000               0.000000000               0.000000000               0.000000000               0.000000000               0.000000000               0.000000000               0.000000000               0.000000000               0.000000000               0.000000000               0.000000000               0.000000000               0.000000000               0.000000000               0.000000000               0.000000000               0.000000000               0.000000000               0.000000000               0.000000000               0.000000000               0.000000000               0.000000000               0.000000000               0.000000000               0.000000000               0.000000000               0.000000000               0.000000000               0.000000000               0.000000000               0.000000000               0.000000000               0.000000000               0.000000000               0.000000000               0.000000000               0.000000000               0.000000000               0.000000000               0.000000000               0.000000000               0.000000000               0.000000000               0.000000000               0.000000000               0.000000000               0.000000000               0.000000000               0.000000000               0.000000000               0.000000000               0.000000000               0.000000000               0.000000000               0.000000000               0.000000000               0.000000000               0.000000000               0.000000000               0.000000000               0.000000000               0.000000000               0.000000000               0.000000000               0.000000000               0.000000000               0.000000000               0.000000000               0.000000000               0.000000000               0.000000000               0.000000000               0.000000000               0.000000000               0.000000000               0.000000000               0.000000000               0.000000000               0.000000000               0.000000000               0.000000000               0.000000000               0.000000000               0.000000000               0.000000000               0.000000000               0.000000000               0.000000000               0.000000000               0.000000000               0.000000000               0.000000000               0.000000000               0.000000000               0.000000000               0.000000000               0.000000000               0.000000000               0.000000000               0.000000000               0.000000000               0.000000000               0.000000000               0.000000000               0.000000000               0.000000000               0.000000000               0.000000000               0.000000000               0.000000000               0.000000000               0.000000000               0.000000000               0.000000000               0.000000000               0.000000000               0.000000000               0.000000000               0.000000000               0.000000000               0.000000000               0.000000000               0.000000000               0.000000000               0.000000000               0.000000000               0.000000000               0.000000000               0.000000000               0.000000000               0.000000000               0.000000000               0.000000000               0.000000000               0.000000000               0.000000000               0.000000000               0.000000000               0.000000000               0.000000000               0.000000000               0.000000000               0.000000000               0.000000000               0.000000000               0.000000000               0.000000000               0.000000000               0.000000000               0.000000000               0.000000000               0.000000000               0.000000000               0.000000000               0.000000000               0.000000000               0.000000000               0.000000000               0.000000000               0.000000000               0.000000000               0.000000000               0.000000000               0.000000000               0.000000000               0.000000000               0.000000000               0.000000000               0.000000000               0.000000000               0.000000000 </DataArray>
</PointData>
</Piece>
</UnstructuredGrid> </VTKFile>
