<?xml version="1.0"?>
<VTKFile type="UnstructuredGrid" version="0.1">
<UnstructuredGrid>
<Piece NumberOfPoints="      1156" NumberOfCells="      1024">
<Points>
<DataArray type="Float64"                                    Name="coordinates"                                                      NumberOfComponents=" 3" format="ascii">
              0.133000000               0.000000000               0.000000000               0.155937500               0.000000000               0.000000000               0.178875000               0.000000000               0.000000000               0.201812500               0.000000000               0.000000000               0.224750000               0.000000000               0.000000000               0.247687500               0.000000000               0.000000000               0.270625000               0.000000000               0.000000000               0.293562500               0.000000000               0.000000000               0.316500000               0.000000000               0.000000000               0.339437500               0.000000000               0.000000000               0.362375000               0.000000000               0.000000000               0.385312500               0.000000000               0.000000000               0.408250000               0.000000000               0.000000000               0.431187500               0.000000000               0.000000000               0.454125000               0.000000000               0.000000000               0.477062500               0.000000000               0.000000000               0.500000000               0.000000000               0.000000000               0.132359569               0.013036280               0.000000000               0.155337096               0.016127762               0.000000000               0.178314623               0.019219245               0.000000000               0.201292150               0.022310727               0.000000000               0.224269676               0.025402210               0.000000000               0.247247203               0.028493692               0.000000000               0.270224730               0.031585175               0.000000000               0.293202257               0.034676657               0.000000000               0.316179784               0.037768140               0.000000000               0.339157311               0.040859622               0.000000000               0.362134838               0.043951105               0.000000000               0.385112365               0.047042587               0.000000000               0.408089892               0.050134070               0.000000000               0.431067419               0.053225552               0.000000000               0.454044946               0.056317035               0.000000000               0.477022473               0.059408517               0.000000000               0.500000000               0.062500000               0.000000000               0.130444442               0.025947013               0.000000000               0.153541665               0.032137825               0.000000000               0.176638887               0.038328636               0.000000000               0.199736109               0.044519448               0.000000000               0.222833332               0.050710260               0.000000000               0.245930554               0.056901071               0.000000000               0.269027776               0.063091883               0.000000000               0.292124999               0.069282695               0.000000000               0.315222221               0.075473506               0.000000000               0.338319444               0.081664318               0.000000000               0.361416666               0.087855130               0.000000000               0.384513888               0.094045942               0.000000000               0.407611111               0.100236753               0.000000000               0.430708333               0.106427565               0.000000000               0.453805555               0.112618377               0.000000000               0.476902778               0.118809188               0.000000000               0.500000000               0.125000000               0.000000000               0.127273065               0.038607862               0.000000000               0.150568498               0.047913621               0.000000000               0.173863932               0.057219379               0.000000000               0.197159365               0.066525138               0.000000000               0.220454798               0.075830897               0.000000000               0.243750232               0.085136655               0.000000000               0.267045665               0.094442414               0.000000000               0.290341099               0.103748172               0.000000000               0.313636532               0.113053931               0.000000000               0.336931966               0.122359690               0.000000000               0.360227399               0.131665448               0.000000000               0.383522833               0.140971207               0.000000000               0.406818266               0.150276966               0.000000000               0.430113700               0.159582724               0.000000000               0.453409133               0.168888483               0.000000000               0.476704567               0.178194241               0.000000000               0.500000000               0.187500000               0.000000000               0.122875978               0.050896897               0.000000000               0.146446229               0.063340840               0.000000000               0.170016481               0.075784784               0.000000000               0.193586732               0.088228728               0.000000000               0.217156983               0.100672672               0.000000000               0.240727235               0.113116616               0.000000000               0.264297486               0.125560560               0.000000000               0.287867738               0.138004504               0.000000000               0.311437989               0.150448448               0.000000000               0.335008240               0.162892392               0.000000000               0.358578492               0.175336336               0.000000000               0.382148743               0.187780280               0.000000000               0.405718994               0.200224224               0.000000000               0.429289246               0.212668168               0.000000000               0.452859497               0.225112112               0.000000000               0.476429749               0.237556056               0.000000000               0.500000000               0.250000000               0.000000000               0.117295528               0.062695766               0.000000000               0.141214558               0.078308531               0.000000000               0.165133587               0.093921295               0.000000000               0.189052617               0.109534060               0.000000000               0.212971646               0.125146824               0.000000000               0.236890676               0.140759589               0.000000000               0.260809705               0.156372354               0.000000000               0.284728735               0.171985118               0.000000000               0.308647764               0.187597883               0.000000000               0.332566794               0.203210648               0.000000000               0.356485823               0.218823412               0.000000000               0.380404853               0.234436177               0.000000000               0.404323882               0.250048941               0.000000000               0.428242912               0.265661706               0.000000000               0.452161941               0.281274471               0.000000000               0.476080971               0.296887235               0.000000000               0.500000000               0.312500000               0.000000000               0.110585458               0.073890841               0.000000000               0.134923867               0.092710163               0.000000000               0.159262276               0.111529486               0.000000000               0.183600685               0.130348808               0.000000000               0.207939094               0.149168131               0.000000000               0.232277503               0.167987453               0.000000000               0.256615912               0.186806776               0.000000000               0.280954320               0.205626098               0.000000000               0.305292729               0.224445420               0.000000000               0.329631138               0.243264743               0.000000000               0.353969547               0.262084065               0.000000000               0.378307956               0.280903388               0.000000000               0.402646365               0.299722710               0.000000000               0.426984773               0.318542033               0.000000000               0.451323182               0.337361355               0.000000000               0.475661591               0.356180678               0.000000000               0.500000000               0.375000000               0.000000000               0.102810390               0.084374307               0.000000000               0.127634741               0.106444663               0.000000000               0.152459092               0.128515018               0.000000000               0.177283442               0.150585374               0.000000000               0.202107793               0.172655730               0.000000000               0.226932143               0.194726086               0.000000000               0.251756494               0.216796442               0.000000000               0.276580845               0.238866798               0.000000000               0.301405195               0.260937153               0.000000000               0.326229546               0.283007509               0.000000000               0.351053896               0.305077865               0.000000000               0.375878247               0.327148221               0.000000000               0.400702598               0.349218577               0.000000000               0.425526948               0.371288933               0.000000000               0.450351299               0.393359288               0.000000000               0.475175649               0.415429644               0.000000000               0.500000000               0.437500000               0.000000000               0.094045202               0.094045202               0.000000000               0.119417377               0.119417377               0.000000000               0.144789552               0.144789552               0.000000000               0.170161727               0.170161727               0.000000000               0.195533901               0.195533901               0.000000000               0.220906076               0.220906076               0.000000000               0.246278251               0.246278251               0.000000000               0.271650426               0.271650426               0.000000000               0.297022601               0.297022601               0.000000000               0.322394776               0.322394776               0.000000000               0.347766951               0.347766951               0.000000000               0.373139126               0.373139126               0.000000000               0.398511300               0.398511300               0.000000000               0.423883475               0.423883475               0.000000000               0.449255650               0.449255650               0.000000000               0.474627825               0.474627825               0.000000000               0.500000000               0.500000000               0.000000000               0.084374307               0.102810390               0.000000000               0.106444663               0.127634741               0.000000000               0.128515018               0.152459092               0.000000000               0.150585374               0.177283442               0.000000000               0.172655730               0.202107793               0.000000000               0.194726086               0.226932143               0.000000000               0.216796442               0.251756494               0.000000000               0.238866798               0.276580845               0.000000000               0.260937153               0.301405195               0.000000000               0.283007509               0.326229546               0.000000000               0.305077865               0.351053896               0.000000000               0.327148221               0.375878247               0.000000000               0.349218577               0.400702598               0.000000000               0.371288933               0.425526948               0.000000000               0.393359288               0.450351299               0.000000000               0.415429644               0.475175649               0.000000000               0.437500000               0.500000000               0.000000000               0.073890841               0.110585458               0.000000000               0.092710163               0.134923867               0.000000000               0.111529486               0.159262276               0.000000000               0.130348808               0.183600685               0.000000000               0.149168131               0.207939094               0.000000000               0.167987453               0.232277503               0.000000000               0.186806776               0.256615912               0.000000000               0.205626098               0.280954320               0.000000000               0.224445420               0.305292729               0.000000000               0.243264743               0.329631138               0.000000000               0.262084065               0.353969547               0.000000000               0.280903388               0.378307956               0.000000000               0.299722710               0.402646365               0.000000000               0.318542033               0.426984773               0.000000000               0.337361355               0.451323182               0.000000000               0.356180678               0.475661591               0.000000000               0.375000000               0.500000000               0.000000000               0.062695766               0.117295528               0.000000000               0.078308531               0.141214558               0.000000000               0.093921295               0.165133587               0.000000000               0.109534060               0.189052617               0.000000000               0.125146824               0.212971646               0.000000000               0.140759589               0.236890676               0.000000000               0.156372354               0.260809705               0.000000000               0.171985118               0.284728735               0.000000000               0.187597883               0.308647764               0.000000000               0.203210648               0.332566794               0.000000000               0.218823412               0.356485823               0.000000000               0.234436177               0.380404853               0.000000000               0.250048941               0.404323882               0.000000000               0.265661706               0.428242912               0.000000000               0.281274471               0.452161941               0.000000000               0.296887235               0.476080971               0.000000000               0.312500000               0.500000000               0.000000000               0.050896897               0.122875978               0.000000000               0.063340840               0.146446229               0.000000000               0.075784784               0.170016481               0.000000000               0.088228728               0.193586732               0.000000000               0.100672672               0.217156983               0.000000000               0.113116616               0.240727235               0.000000000               0.125560560               0.264297486               0.000000000               0.138004504               0.287867738               0.000000000               0.150448448               0.311437989               0.000000000               0.162892392               0.335008240               0.000000000               0.175336336               0.358578492               0.000000000               0.187780280               0.382148743               0.000000000               0.200224224               0.405718994               0.000000000               0.212668168               0.429289246               0.000000000               0.225112112               0.452859497               0.000000000               0.237556056               0.476429749               0.000000000               0.250000000               0.500000000               0.000000000               0.038607862               0.127273065               0.000000000               0.047913621               0.150568498               0.000000000               0.057219379               0.173863932               0.000000000               0.066525138               0.197159365               0.000000000               0.075830897               0.220454798               0.000000000               0.085136655               0.243750232               0.000000000               0.094442414               0.267045665               0.000000000               0.103748172               0.290341099               0.000000000               0.113053931               0.313636532               0.000000000               0.122359690               0.336931966               0.000000000               0.131665448               0.360227399               0.000000000               0.140971207               0.383522833               0.000000000               0.150276966               0.406818266               0.000000000               0.159582724               0.430113700               0.000000000               0.168888483               0.453409133               0.000000000               0.178194241               0.476704567               0.000000000               0.187500000               0.500000000               0.000000000               0.025947013               0.130444442               0.000000000               0.032137825               0.153541665               0.000000000               0.038328636               0.176638887               0.000000000               0.044519448               0.199736109               0.000000000               0.050710260               0.222833332               0.000000000               0.056901071               0.245930554               0.000000000               0.063091883               0.269027776               0.000000000               0.069282695               0.292124999               0.000000000               0.075473506               0.315222221               0.000000000               0.081664318               0.338319444               0.000000000               0.087855130               0.361416666               0.000000000               0.094045942               0.384513888               0.000000000               0.100236753               0.407611111               0.000000000               0.106427565               0.430708333               0.000000000               0.112618377               0.453805555               0.000000000               0.118809188               0.476902778               0.000000000               0.125000000               0.500000000               0.000000000               0.013036280               0.132359569               0.000000000               0.016127762               0.155337096               0.000000000               0.019219245               0.178314623               0.000000000               0.022310727               0.201292150               0.000000000               0.025402210               0.224269676               0.000000000               0.028493692               0.247247203               0.000000000               0.031585175               0.270224730               0.000000000               0.034676657               0.293202257               0.000000000               0.037768140               0.316179784               0.000000000               0.040859622               0.339157311               0.000000000               0.043951105               0.362134838               0.000000000               0.047042587               0.385112365               0.000000000               0.050134070               0.408089892               0.000000000               0.053225552               0.431067419               0.000000000               0.056317035               0.454044946               0.000000000               0.059408517               0.477022473               0.000000000               0.062500000               0.500000000               0.000000000               0.000000000               0.133000000               0.000000000               0.000000000               0.155937500               0.000000000               0.000000000               0.178875000               0.000000000               0.000000000               0.201812500               0.000000000               0.000000000               0.224750000               0.000000000               0.000000000               0.247687500               0.000000000               0.000000000               0.270625000               0.000000000               0.000000000               0.293562500               0.000000000               0.000000000               0.316500000               0.000000000               0.000000000               0.339437500               0.000000000               0.000000000               0.362375000               0.000000000               0.000000000               0.385312500               0.000000000               0.000000000               0.408250000               0.000000000               0.000000000               0.431187500               0.000000000               0.000000000               0.454125000               0.000000000               0.000000000               0.477062500               0.000000000               0.000000000               0.500000000               0.000000000               0.133000000               0.000000000               0.000000000               0.155937500               0.000000000               0.000000000               0.178875000               0.000000000               0.000000000               0.201812500               0.000000000               0.000000000               0.224750000               0.000000000               0.000000000               0.247687500               0.000000000               0.000000000               0.270625000               0.000000000               0.000000000               0.293562500               0.000000000               0.000000000               0.316500000               0.000000000               0.000000000               0.339437500               0.000000000               0.000000000               0.362375000               0.000000000               0.000000000               0.385312500               0.000000000               0.000000000               0.408250000               0.000000000               0.000000000               0.431187500               0.000000000               0.000000000               0.454125000               0.000000000               0.000000000               0.477062500               0.000000000               0.000000000               0.500000000               0.000000000               0.000000000               0.132359569              -0.013036280               0.000000000               0.155337096              -0.016127762               0.000000000               0.178314623              -0.019219245               0.000000000               0.201292150              -0.022310727               0.000000000               0.224269676              -0.025402210               0.000000000               0.247247203              -0.028493692               0.000000000               0.270224730              -0.031585175               0.000000000               0.293202257              -0.034676657               0.000000000               0.316179784              -0.037768140               0.000000000               0.339157311              -0.040859622               0.000000000               0.362134838              -0.043951105               0.000000000               0.385112365              -0.047042587               0.000000000               0.408089892              -0.050134070               0.000000000               0.431067419              -0.053225552               0.000000000               0.454044946              -0.056317035               0.000000000               0.477022473              -0.059408517               0.000000000               0.500000000              -0.062500000               0.000000000               0.130444442              -0.025947013               0.000000000               0.153541665              -0.032137825               0.000000000               0.176638887              -0.038328636               0.000000000               0.199736109              -0.044519448               0.000000000               0.222833332              -0.050710260               0.000000000               0.245930554              -0.056901071               0.000000000               0.269027776              -0.063091883               0.000000000               0.292124999              -0.069282695               0.000000000               0.315222221              -0.075473506               0.000000000               0.338319444              -0.081664318               0.000000000               0.361416666              -0.087855130               0.000000000               0.384513888              -0.094045942               0.000000000               0.407611111              -0.100236753               0.000000000               0.430708333              -0.106427565               0.000000000               0.453805555              -0.112618377               0.000000000               0.476902778              -0.118809188               0.000000000               0.500000000              -0.125000000               0.000000000               0.127273065              -0.038607862               0.000000000               0.150568498              -0.047913621               0.000000000               0.173863932              -0.057219379               0.000000000               0.197159365              -0.066525138               0.000000000               0.220454798              -0.075830897               0.000000000               0.243750232              -0.085136655               0.000000000               0.267045665              -0.094442414               0.000000000               0.290341099              -0.103748172               0.000000000               0.313636532              -0.113053931               0.000000000               0.336931966              -0.122359690               0.000000000               0.360227399              -0.131665448               0.000000000               0.383522833              -0.140971207               0.000000000               0.406818266              -0.150276966               0.000000000               0.430113700              -0.159582724               0.000000000               0.453409133              -0.168888483               0.000000000               0.476704567              -0.178194241               0.000000000               0.500000000              -0.187500000               0.000000000               0.122875978              -0.050896897               0.000000000               0.146446229              -0.063340840               0.000000000               0.170016481              -0.075784784               0.000000000               0.193586732              -0.088228728               0.000000000               0.217156983              -0.100672672               0.000000000               0.240727235              -0.113116616               0.000000000               0.264297486              -0.125560560               0.000000000               0.287867738              -0.138004504               0.000000000               0.311437989              -0.150448448               0.000000000               0.335008240              -0.162892392               0.000000000               0.358578492              -0.175336336               0.000000000               0.382148743              -0.187780280               0.000000000               0.405718994              -0.200224224               0.000000000               0.429289246              -0.212668168               0.000000000               0.452859497              -0.225112112               0.000000000               0.476429749              -0.237556056               0.000000000               0.500000000              -0.250000000               0.000000000               0.117295528              -0.062695766               0.000000000               0.141214558              -0.078308531               0.000000000               0.165133587              -0.093921295               0.000000000               0.189052617              -0.109534060               0.000000000               0.212971646              -0.125146824               0.000000000               0.236890676              -0.140759589               0.000000000               0.260809705              -0.156372354               0.000000000               0.284728735              -0.171985118               0.000000000               0.308647764              -0.187597883               0.000000000               0.332566794              -0.203210648               0.000000000               0.356485823              -0.218823412               0.000000000               0.380404853              -0.234436177               0.000000000               0.404323882              -0.250048941               0.000000000               0.428242912              -0.265661706               0.000000000               0.452161941              -0.281274471               0.000000000               0.476080971              -0.296887235               0.000000000               0.500000000              -0.312500000               0.000000000               0.110585458              -0.073890841               0.000000000               0.134923867              -0.092710163               0.000000000               0.159262276              -0.111529486               0.000000000               0.183600685              -0.130348808               0.000000000               0.207939094              -0.149168131               0.000000000               0.232277503              -0.167987453               0.000000000               0.256615912              -0.186806776               0.000000000               0.280954320              -0.205626098               0.000000000               0.305292729              -0.224445420               0.000000000               0.329631138              -0.243264743               0.000000000               0.353969547              -0.262084065               0.000000000               0.378307956              -0.280903388               0.000000000               0.402646365              -0.299722710               0.000000000               0.426984773              -0.318542033               0.000000000               0.451323182              -0.337361355               0.000000000               0.475661591              -0.356180678               0.000000000               0.500000000              -0.375000000               0.000000000               0.102810390              -0.084374307               0.000000000               0.127634741              -0.106444663               0.000000000               0.152459092              -0.128515018               0.000000000               0.177283442              -0.150585374               0.000000000               0.202107793              -0.172655730               0.000000000               0.226932143              -0.194726086               0.000000000               0.251756494              -0.216796442               0.000000000               0.276580845              -0.238866798               0.000000000               0.301405195              -0.260937153               0.000000000               0.326229546              -0.283007509               0.000000000               0.351053896              -0.305077865               0.000000000               0.375878247              -0.327148221               0.000000000               0.400702598              -0.349218577               0.000000000               0.425526948              -0.371288933               0.000000000               0.450351299              -0.393359288               0.000000000               0.475175649              -0.415429644               0.000000000               0.500000000              -0.437500000               0.000000000               0.094045202              -0.094045202               0.000000000               0.119417377              -0.119417377               0.000000000               0.144789552              -0.144789552               0.000000000               0.170161727              -0.170161727               0.000000000               0.195533901              -0.195533901               0.000000000               0.220906076              -0.220906076               0.000000000               0.246278251              -0.246278251               0.000000000               0.271650426              -0.271650426               0.000000000               0.297022601              -0.297022601               0.000000000               0.322394776              -0.322394776               0.000000000               0.347766951              -0.347766951               0.000000000               0.373139126              -0.373139126               0.000000000               0.398511300              -0.398511300               0.000000000               0.423883475              -0.423883475               0.000000000               0.449255650              -0.449255650               0.000000000               0.474627825              -0.474627825               0.000000000               0.500000000              -0.500000000               0.000000000               0.084374307              -0.102810390               0.000000000               0.106444663              -0.127634741               0.000000000               0.128515018              -0.152459092               0.000000000               0.150585374              -0.177283442               0.000000000               0.172655730              -0.202107793               0.000000000               0.194726086              -0.226932143               0.000000000               0.216796442              -0.251756494               0.000000000               0.238866798              -0.276580845               0.000000000               0.260937153              -0.301405195               0.000000000               0.283007509              -0.326229546               0.000000000               0.305077865              -0.351053896               0.000000000               0.327148221              -0.375878247               0.000000000               0.349218577              -0.400702598               0.000000000               0.371288933              -0.425526948               0.000000000               0.393359288              -0.450351299               0.000000000               0.415429644              -0.475175649               0.000000000               0.437500000              -0.500000000               0.000000000               0.073890841              -0.110585458               0.000000000               0.092710163              -0.134923867               0.000000000               0.111529486              -0.159262276               0.000000000               0.130348808              -0.183600685               0.000000000               0.149168131              -0.207939094               0.000000000               0.167987453              -0.232277503               0.000000000               0.186806776              -0.256615912               0.000000000               0.205626098              -0.280954320               0.000000000               0.224445420              -0.305292729               0.000000000               0.243264743              -0.329631138               0.000000000               0.262084065              -0.353969547               0.000000000               0.280903388              -0.378307956               0.000000000               0.299722710              -0.402646365               0.000000000               0.318542033              -0.426984773               0.000000000               0.337361355              -0.451323182               0.000000000               0.356180678              -0.475661591               0.000000000               0.375000000              -0.500000000               0.000000000               0.062695766              -0.117295528               0.000000000               0.078308531              -0.141214558               0.000000000               0.093921295              -0.165133587               0.000000000               0.109534060              -0.189052617               0.000000000               0.125146824              -0.212971646               0.000000000               0.140759589              -0.236890676               0.000000000               0.156372354              -0.260809705               0.000000000               0.171985118              -0.284728735               0.000000000               0.187597883              -0.308647764               0.000000000               0.203210648              -0.332566794               0.000000000               0.218823412              -0.356485823               0.000000000               0.234436177              -0.380404853               0.000000000               0.250048941              -0.404323882               0.000000000               0.265661706              -0.428242912               0.000000000               0.281274471              -0.452161941               0.000000000               0.296887235              -0.476080971               0.000000000               0.312500000              -0.500000000               0.000000000               0.050896897              -0.122875978               0.000000000               0.063340840              -0.146446229               0.000000000               0.075784784              -0.170016481               0.000000000               0.088228728              -0.193586732               0.000000000               0.100672672              -0.217156983               0.000000000               0.113116616              -0.240727235               0.000000000               0.125560560              -0.264297486               0.000000000               0.138004504              -0.287867738               0.000000000               0.150448448              -0.311437989               0.000000000               0.162892392              -0.335008240               0.000000000               0.175336336              -0.358578492               0.000000000               0.187780280              -0.382148743               0.000000000               0.200224224              -0.405718994               0.000000000               0.212668168              -0.429289246               0.000000000               0.225112112              -0.452859497               0.000000000               0.237556056              -0.476429749               0.000000000               0.250000000              -0.500000000               0.000000000               0.038607862              -0.127273065               0.000000000               0.047913621              -0.150568498               0.000000000               0.057219379              -0.173863932               0.000000000               0.066525138              -0.197159365               0.000000000               0.075830897              -0.220454798               0.000000000               0.085136655              -0.243750232               0.000000000               0.094442414              -0.267045665               0.000000000               0.103748172              -0.290341099               0.000000000               0.113053931              -0.313636532               0.000000000               0.122359690              -0.336931966               0.000000000               0.131665448              -0.360227399               0.000000000               0.140971207              -0.383522833               0.000000000               0.150276966              -0.406818266               0.000000000               0.159582724              -0.430113700               0.000000000               0.168888483              -0.453409133               0.000000000               0.178194241              -0.476704567               0.000000000               0.187500000              -0.500000000               0.000000000               0.025947013              -0.130444442               0.000000000               0.032137825              -0.153541665               0.000000000               0.038328636              -0.176638887               0.000000000               0.044519448              -0.199736109               0.000000000               0.050710260              -0.222833332               0.000000000               0.056901071              -0.245930554               0.000000000               0.063091883              -0.269027776               0.000000000               0.069282695              -0.292124999               0.000000000               0.075473506              -0.315222221               0.000000000               0.081664318              -0.338319444               0.000000000               0.087855130              -0.361416666               0.000000000               0.094045942              -0.384513888               0.000000000               0.100236753              -0.407611111               0.000000000               0.106427565              -0.430708333               0.000000000               0.112618377              -0.453805555               0.000000000               0.118809188              -0.476902778               0.000000000               0.125000000              -0.500000000               0.000000000               0.013036280              -0.132359569               0.000000000               0.016127762              -0.155337096               0.000000000               0.019219245              -0.178314623               0.000000000               0.022310727              -0.201292150               0.000000000               0.025402210              -0.224269676               0.000000000               0.028493692              -0.247247203               0.000000000               0.031585175              -0.270224730               0.000000000               0.034676657              -0.293202257               0.000000000               0.037768140              -0.316179784               0.000000000               0.040859622              -0.339157311               0.000000000               0.043951105              -0.362134838               0.000000000               0.047042587              -0.385112365               0.000000000               0.050134070              -0.408089892               0.000000000               0.053225552              -0.431067419               0.000000000               0.056317035              -0.454044946               0.000000000               0.059408517              -0.477022473               0.000000000               0.062500000              -0.500000000               0.000000000               0.000000000              -0.133000000               0.000000000               0.000000000              -0.155937500               0.000000000               0.000000000              -0.178875000               0.000000000               0.000000000              -0.201812500               0.000000000               0.000000000              -0.224750000               0.000000000               0.000000000              -0.247687500               0.000000000               0.000000000              -0.270625000               0.000000000               0.000000000              -0.293562500               0.000000000               0.000000000              -0.316500000               0.000000000               0.000000000              -0.339437500               0.000000000               0.000000000              -0.362375000               0.000000000               0.000000000              -0.385312500               0.000000000               0.000000000              -0.408250000               0.000000000               0.000000000              -0.431187500               0.000000000               0.000000000              -0.454125000               0.000000000               0.000000000              -0.477062500               0.000000000               0.000000000              -0.500000000               0.000000000              -0.133000000               0.000000000               0.000000000              -0.155937500               0.000000000               0.000000000              -0.178875000               0.000000000               0.000000000              -0.201812500               0.000000000               0.000000000              -0.224750000               0.000000000               0.000000000              -0.247687500               0.000000000               0.000000000              -0.270625000               0.000000000               0.000000000              -0.293562500               0.000000000               0.000000000              -0.316500000               0.000000000               0.000000000              -0.339437500               0.000000000               0.000000000              -0.362375000               0.000000000               0.000000000              -0.385312500               0.000000000               0.000000000              -0.408250000               0.000000000               0.000000000              -0.431187500               0.000000000               0.000000000              -0.454125000               0.000000000               0.000000000              -0.477062500               0.000000000               0.000000000              -0.500000000               0.000000000               0.000000000              -0.132359569              -0.013036280               0.000000000              -0.155337096              -0.016127762               0.000000000              -0.178314623              -0.019219245               0.000000000              -0.201292150              -0.022310727               0.000000000              -0.224269676              -0.025402210               0.000000000              -0.247247203              -0.028493692               0.000000000              -0.270224730              -0.031585175               0.000000000              -0.293202257              -0.034676657               0.000000000              -0.316179784              -0.037768140               0.000000000              -0.339157311              -0.040859622               0.000000000              -0.362134838              -0.043951105               0.000000000              -0.385112365              -0.047042587               0.000000000              -0.408089892              -0.050134070               0.000000000              -0.431067419              -0.053225552               0.000000000              -0.454044946              -0.056317035               0.000000000              -0.477022473              -0.059408517               0.000000000              -0.500000000              -0.062500000               0.000000000              -0.130444442              -0.025947013               0.000000000              -0.153541665              -0.032137825               0.000000000              -0.176638887              -0.038328636               0.000000000              -0.199736109              -0.044519448               0.000000000              -0.222833332              -0.050710260               0.000000000              -0.245930554              -0.056901071               0.000000000              -0.269027776              -0.063091883               0.000000000              -0.292124999              -0.069282695               0.000000000              -0.315222221              -0.075473506               0.000000000              -0.338319444              -0.081664318               0.000000000              -0.361416666              -0.087855130               0.000000000              -0.384513888              -0.094045942               0.000000000              -0.407611111              -0.100236753               0.000000000              -0.430708333              -0.106427565               0.000000000              -0.453805555              -0.112618377               0.000000000              -0.476902778              -0.118809188               0.000000000              -0.500000000              -0.125000000               0.000000000              -0.127273065              -0.038607862               0.000000000              -0.150568498              -0.047913621               0.000000000              -0.173863932              -0.057219379               0.000000000              -0.197159365              -0.066525138               0.000000000              -0.220454798              -0.075830897               0.000000000              -0.243750232              -0.085136655               0.000000000              -0.267045665              -0.094442414               0.000000000              -0.290341099              -0.103748172               0.000000000              -0.313636532              -0.113053931               0.000000000              -0.336931966              -0.122359690               0.000000000              -0.360227399              -0.131665448               0.000000000              -0.383522833              -0.140971207               0.000000000              -0.406818266              -0.150276966               0.000000000              -0.430113700              -0.159582724               0.000000000              -0.453409133              -0.168888483               0.000000000              -0.476704567              -0.178194241               0.000000000              -0.500000000              -0.187500000               0.000000000              -0.122875978              -0.050896897               0.000000000              -0.146446229              -0.063340840               0.000000000              -0.170016481              -0.075784784               0.000000000              -0.193586732              -0.088228728               0.000000000              -0.217156983              -0.100672672               0.000000000              -0.240727235              -0.113116616               0.000000000              -0.264297486              -0.125560560               0.000000000              -0.287867738              -0.138004504               0.000000000              -0.311437989              -0.150448448               0.000000000              -0.335008240              -0.162892392               0.000000000              -0.358578492              -0.175336336               0.000000000              -0.382148743              -0.187780280               0.000000000              -0.405718994              -0.200224224               0.000000000              -0.429289246              -0.212668168               0.000000000              -0.452859497              -0.225112112               0.000000000              -0.476429749              -0.237556056               0.000000000              -0.500000000              -0.250000000               0.000000000              -0.117295528              -0.062695766               0.000000000              -0.141214558              -0.078308531               0.000000000              -0.165133587              -0.093921295               0.000000000              -0.189052617              -0.109534060               0.000000000              -0.212971646              -0.125146824               0.000000000              -0.236890676              -0.140759589               0.000000000              -0.260809705              -0.156372354               0.000000000              -0.284728735              -0.171985118               0.000000000              -0.308647764              -0.187597883               0.000000000              -0.332566794              -0.203210648               0.000000000              -0.356485823              -0.218823412               0.000000000              -0.380404853              -0.234436177               0.000000000              -0.404323882              -0.250048941               0.000000000              -0.428242912              -0.265661706               0.000000000              -0.452161941              -0.281274471               0.000000000              -0.476080971              -0.296887235               0.000000000              -0.500000000              -0.312500000               0.000000000              -0.110585458              -0.073890841               0.000000000              -0.134923867              -0.092710163               0.000000000              -0.159262276              -0.111529486               0.000000000              -0.183600685              -0.130348808               0.000000000              -0.207939094              -0.149168131               0.000000000              -0.232277503              -0.167987453               0.000000000              -0.256615912              -0.186806776               0.000000000              -0.280954320              -0.205626098               0.000000000              -0.305292729              -0.224445420               0.000000000              -0.329631138              -0.243264743               0.000000000              -0.353969547              -0.262084065               0.000000000              -0.378307956              -0.280903388               0.000000000              -0.402646365              -0.299722710               0.000000000              -0.426984773              -0.318542033               0.000000000              -0.451323182              -0.337361355               0.000000000              -0.475661591              -0.356180678               0.000000000              -0.500000000              -0.375000000               0.000000000              -0.102810390              -0.084374307               0.000000000              -0.127634741              -0.106444663               0.000000000              -0.152459092              -0.128515018               0.000000000              -0.177283442              -0.150585374               0.000000000              -0.202107793              -0.172655730               0.000000000              -0.226932143              -0.194726086               0.000000000              -0.251756494              -0.216796442               0.000000000              -0.276580845              -0.238866798               0.000000000              -0.301405195              -0.260937153               0.000000000              -0.326229546              -0.283007509               0.000000000              -0.351053896              -0.305077865               0.000000000              -0.375878247              -0.327148221               0.000000000              -0.400702598              -0.349218577               0.000000000              -0.425526948              -0.371288933               0.000000000              -0.450351299              -0.393359288               0.000000000              -0.475175649              -0.415429644               0.000000000              -0.500000000              -0.437500000               0.000000000              -0.094045202              -0.094045202               0.000000000              -0.119417377              -0.119417377               0.000000000              -0.144789552              -0.144789552               0.000000000              -0.170161727              -0.170161727               0.000000000              -0.195533901              -0.195533901               0.000000000              -0.220906076              -0.220906076               0.000000000              -0.246278251              -0.246278251               0.000000000              -0.271650426              -0.271650426               0.000000000              -0.297022601              -0.297022601               0.000000000              -0.322394776              -0.322394776               0.000000000              -0.347766951              -0.347766951               0.000000000              -0.373139126              -0.373139126               0.000000000              -0.398511300              -0.398511300               0.000000000              -0.423883475              -0.423883475               0.000000000              -0.449255650              -0.449255650               0.000000000              -0.474627825              -0.474627825               0.000000000              -0.500000000              -0.500000000               0.000000000              -0.084374307              -0.102810390               0.000000000              -0.106444663              -0.127634741               0.000000000              -0.128515018              -0.152459092               0.000000000              -0.150585374              -0.177283442               0.000000000              -0.172655730              -0.202107793               0.000000000              -0.194726086              -0.226932143               0.000000000              -0.216796442              -0.251756494               0.000000000              -0.238866798              -0.276580845               0.000000000              -0.260937153              -0.301405195               0.000000000              -0.283007509              -0.326229546               0.000000000              -0.305077865              -0.351053896               0.000000000              -0.327148221              -0.375878247               0.000000000              -0.349218577              -0.400702598               0.000000000              -0.371288933              -0.425526948               0.000000000              -0.393359288              -0.450351299               0.000000000              -0.415429644              -0.475175649               0.000000000              -0.437500000              -0.500000000               0.000000000              -0.073890841              -0.110585458               0.000000000              -0.092710163              -0.134923867               0.000000000              -0.111529486              -0.159262276               0.000000000              -0.130348808              -0.183600685               0.000000000              -0.149168131              -0.207939094               0.000000000              -0.167987453              -0.232277503               0.000000000              -0.186806776              -0.256615912               0.000000000              -0.205626098              -0.280954320               0.000000000              -0.224445420              -0.305292729               0.000000000              -0.243264743              -0.329631138               0.000000000              -0.262084065              -0.353969547               0.000000000              -0.280903388              -0.378307956               0.000000000              -0.299722710              -0.402646365               0.000000000              -0.318542033              -0.426984773               0.000000000              -0.337361355              -0.451323182               0.000000000              -0.356180678              -0.475661591               0.000000000              -0.375000000              -0.500000000               0.000000000              -0.062695766              -0.117295528               0.000000000              -0.078308531              -0.141214558               0.000000000              -0.093921295              -0.165133587               0.000000000              -0.109534060              -0.189052617               0.000000000              -0.125146824              -0.212971646               0.000000000              -0.140759589              -0.236890676               0.000000000              -0.156372354              -0.260809705               0.000000000              -0.171985118              -0.284728735               0.000000000              -0.187597883              -0.308647764               0.000000000              -0.203210648              -0.332566794               0.000000000              -0.218823412              -0.356485823               0.000000000              -0.234436177              -0.380404853               0.000000000              -0.250048941              -0.404323882               0.000000000              -0.265661706              -0.428242912               0.000000000              -0.281274471              -0.452161941               0.000000000              -0.296887235              -0.476080971               0.000000000              -0.312500000              -0.500000000               0.000000000              -0.050896897              -0.122875978               0.000000000              -0.063340840              -0.146446229               0.000000000              -0.075784784              -0.170016481               0.000000000              -0.088228728              -0.193586732               0.000000000              -0.100672672              -0.217156983               0.000000000              -0.113116616              -0.240727235               0.000000000              -0.125560560              -0.264297486               0.000000000              -0.138004504              -0.287867738               0.000000000              -0.150448448              -0.311437989               0.000000000              -0.162892392              -0.335008240               0.000000000              -0.175336336              -0.358578492               0.000000000              -0.187780280              -0.382148743               0.000000000              -0.200224224              -0.405718994               0.000000000              -0.212668168              -0.429289246               0.000000000              -0.225112112              -0.452859497               0.000000000              -0.237556056              -0.476429749               0.000000000              -0.250000000              -0.500000000               0.000000000              -0.038607862              -0.127273065               0.000000000              -0.047913621              -0.150568498               0.000000000              -0.057219379              -0.173863932               0.000000000              -0.066525138              -0.197159365               0.000000000              -0.075830897              -0.220454798               0.000000000              -0.085136655              -0.243750232               0.000000000              -0.094442414              -0.267045665               0.000000000              -0.103748172              -0.290341099               0.000000000              -0.113053931              -0.313636532               0.000000000              -0.122359690              -0.336931966               0.000000000              -0.131665448              -0.360227399               0.000000000              -0.140971207              -0.383522833               0.000000000              -0.150276966              -0.406818266               0.000000000              -0.159582724              -0.430113700               0.000000000              -0.168888483              -0.453409133               0.000000000              -0.178194241              -0.476704567               0.000000000              -0.187500000              -0.500000000               0.000000000              -0.025947013              -0.130444442               0.000000000              -0.032137825              -0.153541665               0.000000000              -0.038328636              -0.176638887               0.000000000              -0.044519448              -0.199736109               0.000000000              -0.050710260              -0.222833332               0.000000000              -0.056901071              -0.245930554               0.000000000              -0.063091883              -0.269027776               0.000000000              -0.069282695              -0.292124999               0.000000000              -0.075473506              -0.315222221               0.000000000              -0.081664318              -0.338319444               0.000000000              -0.087855130              -0.361416666               0.000000000              -0.094045942              -0.384513888               0.000000000              -0.100236753              -0.407611111               0.000000000              -0.106427565              -0.430708333               0.000000000              -0.112618377              -0.453805555               0.000000000              -0.118809188              -0.476902778               0.000000000              -0.125000000              -0.500000000               0.000000000              -0.013036280              -0.132359569               0.000000000              -0.016127762              -0.155337096               0.000000000              -0.019219245              -0.178314623               0.000000000              -0.022310727              -0.201292150               0.000000000              -0.025402210              -0.224269676               0.000000000              -0.028493692              -0.247247203               0.000000000              -0.031585175              -0.270224730               0.000000000              -0.034676657              -0.293202257               0.000000000              -0.037768140              -0.316179784               0.000000000              -0.040859622              -0.339157311               0.000000000              -0.043951105              -0.362134838               0.000000000              -0.047042587              -0.385112365               0.000000000              -0.050134070              -0.408089892               0.000000000              -0.053225552              -0.431067419               0.000000000              -0.056317035              -0.454044946               0.000000000              -0.059408517              -0.477022473               0.000000000              -0.062500000              -0.500000000               0.000000000               0.000000000              -0.133000000               0.000000000               0.000000000              -0.155937500               0.000000000               0.000000000              -0.178875000               0.000000000               0.000000000              -0.201812500               0.000000000               0.000000000              -0.224750000               0.000000000               0.000000000              -0.247687500               0.000000000               0.000000000              -0.270625000               0.000000000               0.000000000              -0.293562500               0.000000000               0.000000000              -0.316500000               0.000000000               0.000000000              -0.339437500               0.000000000               0.000000000              -0.362375000               0.000000000               0.000000000              -0.385312500               0.000000000               0.000000000              -0.408250000               0.000000000               0.000000000              -0.431187500               0.000000000               0.000000000              -0.454125000               0.000000000               0.000000000              -0.477062500               0.000000000               0.000000000              -0.500000000               0.000000000              -0.133000000               0.000000000               0.000000000              -0.155937500               0.000000000               0.000000000              -0.178875000               0.000000000               0.000000000              -0.201812500               0.000000000               0.000000000              -0.224750000               0.000000000               0.000000000              -0.247687500               0.000000000               0.000000000              -0.270625000               0.000000000               0.000000000              -0.293562500               0.000000000               0.000000000              -0.316500000               0.000000000               0.000000000              -0.339437500               0.000000000               0.000000000              -0.362375000               0.000000000               0.000000000              -0.385312500               0.000000000               0.000000000              -0.408250000               0.000000000               0.000000000              -0.431187500               0.000000000               0.000000000              -0.454125000               0.000000000               0.000000000              -0.477062500               0.000000000               0.000000000              -0.500000000               0.000000000               0.000000000              -0.132359569               0.013036280               0.000000000              -0.155337096               0.016127762               0.000000000              -0.178314623               0.019219245               0.000000000              -0.201292150               0.022310727               0.000000000              -0.224269676               0.025402210               0.000000000              -0.247247203               0.028493692               0.000000000              -0.270224730               0.031585175               0.000000000              -0.293202257               0.034676657               0.000000000              -0.316179784               0.037768140               0.000000000              -0.339157311               0.040859622               0.000000000              -0.362134838               0.043951105               0.000000000              -0.385112365               0.047042587               0.000000000              -0.408089892               0.050134070               0.000000000              -0.431067419               0.053225552               0.000000000              -0.454044946               0.056317035               0.000000000              -0.477022473               0.059408517               0.000000000              -0.500000000               0.062500000               0.000000000              -0.130444442               0.025947013               0.000000000              -0.153541665               0.032137825               0.000000000              -0.176638887               0.038328636               0.000000000              -0.199736109               0.044519448               0.000000000              -0.222833332               0.050710260               0.000000000              -0.245930554               0.056901071               0.000000000              -0.269027776               0.063091883               0.000000000              -0.292124999               0.069282695               0.000000000              -0.315222221               0.075473506               0.000000000              -0.338319444               0.081664318               0.000000000              -0.361416666               0.087855130               0.000000000              -0.384513888               0.094045942               0.000000000              -0.407611111               0.100236753               0.000000000              -0.430708333               0.106427565               0.000000000              -0.453805555               0.112618377               0.000000000              -0.476902778               0.118809188               0.000000000              -0.500000000               0.125000000               0.000000000              -0.127273065               0.038607862               0.000000000              -0.150568498               0.047913621               0.000000000              -0.173863932               0.057219379               0.000000000              -0.197159365               0.066525138               0.000000000              -0.220454798               0.075830897               0.000000000              -0.243750232               0.085136655               0.000000000              -0.267045665               0.094442414               0.000000000              -0.290341099               0.103748172               0.000000000              -0.313636532               0.113053931               0.000000000              -0.336931966               0.122359690               0.000000000              -0.360227399               0.131665448               0.000000000              -0.383522833               0.140971207               0.000000000              -0.406818266               0.150276966               0.000000000              -0.430113700               0.159582724               0.000000000              -0.453409133               0.168888483               0.000000000              -0.476704567               0.178194241               0.000000000              -0.500000000               0.187500000               0.000000000              -0.122875978               0.050896897               0.000000000              -0.146446229               0.063340840               0.000000000              -0.170016481               0.075784784               0.000000000              -0.193586732               0.088228728               0.000000000              -0.217156983               0.100672672               0.000000000              -0.240727235               0.113116616               0.000000000              -0.264297486               0.125560560               0.000000000              -0.287867738               0.138004504               0.000000000              -0.311437989               0.150448448               0.000000000              -0.335008240               0.162892392               0.000000000              -0.358578492               0.175336336               0.000000000              -0.382148743               0.187780280               0.000000000              -0.405718994               0.200224224               0.000000000              -0.429289246               0.212668168               0.000000000              -0.452859497               0.225112112               0.000000000              -0.476429749               0.237556056               0.000000000              -0.500000000               0.250000000               0.000000000              -0.117295528               0.062695766               0.000000000              -0.141214558               0.078308531               0.000000000              -0.165133587               0.093921295               0.000000000              -0.189052617               0.109534060               0.000000000              -0.212971646               0.125146824               0.000000000              -0.236890676               0.140759589               0.000000000              -0.260809705               0.156372354               0.000000000              -0.284728735               0.171985118               0.000000000              -0.308647764               0.187597883               0.000000000              -0.332566794               0.203210648               0.000000000              -0.356485823               0.218823412               0.000000000              -0.380404853               0.234436177               0.000000000              -0.404323882               0.250048941               0.000000000              -0.428242912               0.265661706               0.000000000              -0.452161941               0.281274471               0.000000000              -0.476080971               0.296887235               0.000000000              -0.500000000               0.312500000               0.000000000              -0.110585458               0.073890841               0.000000000              -0.134923867               0.092710163               0.000000000              -0.159262276               0.111529486               0.000000000              -0.183600685               0.130348808               0.000000000              -0.207939094               0.149168131               0.000000000              -0.232277503               0.167987453               0.000000000              -0.256615912               0.186806776               0.000000000              -0.280954320               0.205626098               0.000000000              -0.305292729               0.224445420               0.000000000              -0.329631138               0.243264743               0.000000000              -0.353969547               0.262084065               0.000000000              -0.378307956               0.280903388               0.000000000              -0.402646365               0.299722710               0.000000000              -0.426984773               0.318542033               0.000000000              -0.451323182               0.337361355               0.000000000              -0.475661591               0.356180678               0.000000000              -0.500000000               0.375000000               0.000000000              -0.102810390               0.084374307               0.000000000              -0.127634741               0.106444663               0.000000000              -0.152459092               0.128515018               0.000000000              -0.177283442               0.150585374               0.000000000              -0.202107793               0.172655730               0.000000000              -0.226932143               0.194726086               0.000000000              -0.251756494               0.216796442               0.000000000              -0.276580845               0.238866798               0.000000000              -0.301405195               0.260937153               0.000000000              -0.326229546               0.283007509               0.000000000              -0.351053896               0.305077865               0.000000000              -0.375878247               0.327148221               0.000000000              -0.400702598               0.349218577               0.000000000              -0.425526948               0.371288933               0.000000000              -0.450351299               0.393359288               0.000000000              -0.475175649               0.415429644               0.000000000              -0.500000000               0.437500000               0.000000000              -0.094045202               0.094045202               0.000000000              -0.119417377               0.119417377               0.000000000              -0.144789552               0.144789552               0.000000000              -0.170161727               0.170161727               0.000000000              -0.195533901               0.195533901               0.000000000              -0.220906076               0.220906076               0.000000000              -0.246278251               0.246278251               0.000000000              -0.271650426               0.271650426               0.000000000              -0.297022601               0.297022601               0.000000000              -0.322394776               0.322394776               0.000000000              -0.347766951               0.347766951               0.000000000              -0.373139126               0.373139126               0.000000000              -0.398511300               0.398511300               0.000000000              -0.423883475               0.423883475               0.000000000              -0.449255650               0.449255650               0.000000000              -0.474627825               0.474627825               0.000000000              -0.500000000               0.500000000               0.000000000              -0.084374307               0.102810390               0.000000000              -0.106444663               0.127634741               0.000000000              -0.128515018               0.152459092               0.000000000              -0.150585374               0.177283442               0.000000000              -0.172655730               0.202107793               0.000000000              -0.194726086               0.226932143               0.000000000              -0.216796442               0.251756494               0.000000000              -0.238866798               0.276580845               0.000000000              -0.260937153               0.301405195               0.000000000              -0.283007509               0.326229546               0.000000000              -0.305077865               0.351053896               0.000000000              -0.327148221               0.375878247               0.000000000              -0.349218577               0.400702598               0.000000000              -0.371288933               0.425526948               0.000000000              -0.393359288               0.450351299               0.000000000              -0.415429644               0.475175649               0.000000000              -0.437500000               0.500000000               0.000000000              -0.073890841               0.110585458               0.000000000              -0.092710163               0.134923867               0.000000000              -0.111529486               0.159262276               0.000000000              -0.130348808               0.183600685               0.000000000              -0.149168131               0.207939094               0.000000000              -0.167987453               0.232277503               0.000000000              -0.186806776               0.256615912               0.000000000              -0.205626098               0.280954320               0.000000000              -0.224445420               0.305292729               0.000000000              -0.243264743               0.329631138               0.000000000              -0.262084065               0.353969547               0.000000000              -0.280903388               0.378307956               0.000000000              -0.299722710               0.402646365               0.000000000              -0.318542033               0.426984773               0.000000000              -0.337361355               0.451323182               0.000000000              -0.356180678               0.475661591               0.000000000              -0.375000000               0.500000000               0.000000000              -0.062695766               0.117295528               0.000000000              -0.078308531               0.141214558               0.000000000              -0.093921295               0.165133587               0.000000000              -0.109534060               0.189052617               0.000000000              -0.125146824               0.212971646               0.000000000              -0.140759589               0.236890676               0.000000000              -0.156372354               0.260809705               0.000000000              -0.171985118               0.284728735               0.000000000              -0.187597883               0.308647764               0.000000000              -0.203210648               0.332566794               0.000000000              -0.218823412               0.356485823               0.000000000              -0.234436177               0.380404853               0.000000000              -0.250048941               0.404323882               0.000000000              -0.265661706               0.428242912               0.000000000              -0.281274471               0.452161941               0.000000000              -0.296887235               0.476080971               0.000000000              -0.312500000               0.500000000               0.000000000              -0.050896897               0.122875978               0.000000000              -0.063340840               0.146446229               0.000000000              -0.075784784               0.170016481               0.000000000              -0.088228728               0.193586732               0.000000000              -0.100672672               0.217156983               0.000000000              -0.113116616               0.240727235               0.000000000              -0.125560560               0.264297486               0.000000000              -0.138004504               0.287867738               0.000000000              -0.150448448               0.311437989               0.000000000              -0.162892392               0.335008240               0.000000000              -0.175336336               0.358578492               0.000000000              -0.187780280               0.382148743               0.000000000              -0.200224224               0.405718994               0.000000000              -0.212668168               0.429289246               0.000000000              -0.225112112               0.452859497               0.000000000              -0.237556056               0.476429749               0.000000000              -0.250000000               0.500000000               0.000000000              -0.038607862               0.127273065               0.000000000              -0.047913621               0.150568498               0.000000000              -0.057219379               0.173863932               0.000000000              -0.066525138               0.197159365               0.000000000              -0.075830897               0.220454798               0.000000000              -0.085136655               0.243750232               0.000000000              -0.094442414               0.267045665               0.000000000              -0.103748172               0.290341099               0.000000000              -0.113053931               0.313636532               0.000000000              -0.122359690               0.336931966               0.000000000              -0.131665448               0.360227399               0.000000000              -0.140971207               0.383522833               0.000000000              -0.150276966               0.406818266               0.000000000              -0.159582724               0.430113700               0.000000000              -0.168888483               0.453409133               0.000000000              -0.178194241               0.476704567               0.000000000              -0.187500000               0.500000000               0.000000000              -0.025947013               0.130444442               0.000000000              -0.032137825               0.153541665               0.000000000              -0.038328636               0.176638887               0.000000000              -0.044519448               0.199736109               0.000000000              -0.050710260               0.222833332               0.000000000              -0.056901071               0.245930554               0.000000000              -0.063091883               0.269027776               0.000000000              -0.069282695               0.292124999               0.000000000              -0.075473506               0.315222221               0.000000000              -0.081664318               0.338319444               0.000000000              -0.087855130               0.361416666               0.000000000              -0.094045942               0.384513888               0.000000000              -0.100236753               0.407611111               0.000000000              -0.106427565               0.430708333               0.000000000              -0.112618377               0.453805555               0.000000000              -0.118809188               0.476902778               0.000000000              -0.125000000               0.500000000               0.000000000              -0.013036280               0.132359569               0.000000000              -0.016127762               0.155337096               0.000000000              -0.019219245               0.178314623               0.000000000              -0.022310727               0.201292150               0.000000000              -0.025402210               0.224269676               0.000000000              -0.028493692               0.247247203               0.000000000              -0.031585175               0.270224730               0.000000000              -0.034676657               0.293202257               0.000000000              -0.037768140               0.316179784               0.000000000              -0.040859622               0.339157311               0.000000000              -0.043951105               0.362134838               0.000000000              -0.047042587               0.385112365               0.000000000              -0.050134070               0.408089892               0.000000000              -0.053225552               0.431067419               0.000000000              -0.056317035               0.454044946               0.000000000              -0.059408517               0.477022473               0.000000000              -0.062500000               0.500000000               0.000000000               0.000000000               0.133000000               0.000000000               0.000000000               0.155937500               0.000000000               0.000000000               0.178875000               0.000000000               0.000000000               0.201812500               0.000000000               0.000000000               0.224750000               0.000000000               0.000000000               0.247687500               0.000000000               0.000000000               0.270625000               0.000000000               0.000000000               0.293562500               0.000000000               0.000000000               0.316500000               0.000000000               0.000000000               0.339437500               0.000000000               0.000000000               0.362375000               0.000000000               0.000000000               0.385312500               0.000000000               0.000000000               0.408250000               0.000000000               0.000000000               0.431187500               0.000000000               0.000000000               0.454125000               0.000000000               0.000000000               0.477062500               0.000000000               0.000000000               0.500000000               0.000000000 </DataArray>
</Points>
<Cells>
<DataArray type="Int32"                                    Name="connectivity"                                                      NumberOfComponents=" 1" format="ascii">
         0          1         18         17          1          2         19         18          2          3         20         19          3          4         21         20          4          5         22         21          5          6         23         22          6          7         24         23          7          8         25         24          8          9         26         25          9         10         27         26         10         11         28         27         11         12         29         28         12         13         30         29         13         14         31         30         14         15         32         31         15         16         33         32         17         18         35         34         18         19         36         35         19         20         37         36         20         21         38         37         21         22         39         38         22         23         40         39         23         24         41         40         24         25         42         41         25         26         43         42         26         27         44         43         27         28         45         44         28         29         46         45         29         30         47         46         30         31         48         47         31         32         49         48         32         33         50         49         34         35         52         51         35         36         53         52         36         37         54         53         37         38         55         54         38         39         56         55         39         40         57         56         40         41         58         57         41         42         59         58         42         43         60         59         43         44         61         60         44         45         62         61         45         46         63         62         46         47         64         63         47         48         65         64         48         49         66         65         49         50         67         66         51         52         69         68         52         53         70         69         53         54         71         70         54         55         72         71         55         56         73         72         56         57         74         73         57         58         75         74         58         59         76         75         59         60         77         76         60         61         78         77         61         62         79         78         62         63         80         79         63         64         81         80         64         65         82         81         65         66         83         82         66         67         84         83         68         69         86         85         69         70         87         86         70         71         88         87         71         72         89         88         72         73         90         89         73         74         91         90         74         75         92         91         75         76         93         92         76         77         94         93         77         78         95         94         78         79         96         95         79         80         97         96         80         81         98         97         81         82         99         98         82         83        100         99         83         84        101        100         85         86        103        102         86         87        104        103         87         88        105        104         88         89        106        105         89         90        107        106         90         91        108        107         91         92        109        108         92         93        110        109         93         94        111        110         94         95        112        111         95         96        113        112         96         97        114        113         97         98        115        114         98         99        116        115         99        100        117        116        100        101        118        117        102        103        120        119        103        104        121        120        104        105        122        121        105        106        123        122        106        107        124        123        107        108        125        124        108        109        126        125        109        110        127        126        110        111        128        127        111        112        129        128        112        113        130        129        113        114        131        130        114        115        132        131        115        116        133        132        116        117        134        133        117        118        135        134        119        120        137        136        120        121        138        137        121        122        139        138        122        123        140        139        123        124        141        140        124        125        142        141        125        126        143        142        126        127        144        143        127        128        145        144        128        129        146        145        129        130        147        146        130        131        148        147        131        132        149        148        132        133        150        149        133        134        151        150        134        135        152        151        136        137        154        153        137        138        155        154        138        139        156        155        139        140        157        156        140        141        158        157        141        142        159        158        142        143        160        159        143        144        161        160        144        145        162        161        145        146        163        162        146        147        164        163        147        148        165        164        148        149        166        165        149        150        167        166        150        151        168        167        151        152        169        168        153        154        171        170        154        155        172        171        155        156        173        172        156        157        174        173        157        158        175        174        158        159        176        175        159        160        177        176        160        161        178        177        161        162        179        178        162        163        180        179        163        164        181        180        164        165        182        181        165        166        183        182        166        167        184        183        167        168        185        184        168        169        186        185        170        171        188        187        171        172        189        188        172        173        190        189        173        174        191        190        174        175        192        191        175        176        193        192        176        177        194        193        177        178        195        194        178        179        196        195        179        180        197        196        180        181        198        197        181        182        199        198        182        183        200        199        183        184        201        200        184        185        202        201        185        186        203        202        187        188        205        204        188        189        206        205        189        190        207        206        190        191        208        207        191        192        209        208        192        193        210        209        193        194        211        210        194        195        212        211        195        196        213        212        196        197        214        213        197        198        215        214        198        199        216        215        199        200        217        216        200        201        218        217        201        202        219        218        202        203        220        219        204        205        222        221        205        206        223        222        206        207        224        223        207        208        225        224        208        209        226        225        209        210        227        226        210        211        228        227        211        212        229        228        212        213        230        229        213        214        231        230        214        215        232        231        215        216        233        232        216        217        234        233        217        218        235        234        218        219        236        235        219        220        237        236        221        222        239        238        222        223        240        239        223        224        241        240        224        225        242        241        225        226        243        242        226        227        244        243        227        228        245        244        228        229        246        245        229        230        247        246        230        231        248        247        231        232        249        248        232        233        250        249        233        234        251        250        234        235        252        251        235        236        253        252        236        237        254        253        238        239        256        255        239        240        257        256        240        241        258        257        241        242        259        258        242        243        260        259        243        244        261        260        244        245        262        261        245        246        263        262        246        247        264        263        247        248        265        264        248        249        266        265        249        250        267        266        250        251        268        267        251        252        269        268        252        253        270        269        253        254        271        270        255        256        273        272        256        257        274        273        257        258        275        274        258        259        276        275        259        260        277        276        260        261        278        277        261        262        279        278        262        263        280        279        263        264        281        280        264        265        282        281        265        266        283        282        266        267        284        283        267        268        285        284        268        269        286        285        269        270        287        286        270        271        288        287        306        307          1          0        307        308          2          1        308        309          3          2        309        310          4          3        310        311          5          4        311        312          6          5        312        313          7          6        313        314          8          7        314        315          9          8        315        316         10          9        316        317         11         10        317        318         12         11        318        319         13         12        319        320         14         13        320        321         15         14        321        322         16         15        323        324        307        306        324        325        308        307        325        326        309        308        326        327        310        309        327        328        311        310        328        329        312        311        329        330        313        312        330        331        314        313        331        332        315        314        332        333        316        315        333        334        317        316        334        335        318        317        335        336        319        318        336        337        320        319        337        338        321        320        338        339        322        321        340        341        324        323        341        342        325        324        342        343        326        325        343        344        327        326        344        345        328        327        345        346        329        328        346        347        330        329        347        348        331        330        348        349        332        331        349        350        333        332        350        351        334        333        351        352        335        334        352        353        336        335        353        354        337        336        354        355        338        337        355        356        339        338        357        358        341        340        358        359        342        341        359        360        343        342        360        361        344        343        361        362        345        344        362        363        346        345        363        364        347        346        364        365        348        347        365        366        349        348        366        367        350        349        367        368        351        350        368        369        352        351        369        370        353        352        370        371        354        353        371        372        355        354        372        373        356        355        374        375        358        357        375        376        359        358        376        377        360        359        377        378        361        360        378        379        362        361        379        380        363        362        380        381        364        363        381        382        365        364        382        383        366        365        383        384        367        366        384        385        368        367        385        386        369        368        386        387        370        369        387        388        371        370        388        389        372        371        389        390        373        372        391        392        375        374        392        393        376        375        393        394        377        376        394        395        378        377        395        396        379        378        396        397        380        379        397        398        381        380        398        399        382        381        399        400        383        382        400        401        384        383        401        402        385        384        402        403        386        385        403        404        387        386        404        405        388        387        405        406        389        388        406        407        390        389        408        409        392        391        409        410        393        392        410        411        394        393        411        412        395        394        412        413        396        395        413        414        397        396        414        415        398        397        415        416        399        398        416        417        400        399        417        418        401        400        418        419        402        401        419        420        403        402        420        421        404        403        421        422        405        404        422        423        406        405        423        424        407        406        425        426        409        408        426        427        410        409        427        428        411        410        428        429        412        411        429        430        413        412        430        431        414        413        431        432        415        414        432        433        416        415        433        434        417        416        434        435        418        417        435        436        419        418        436        437        420        419        437        438        421        420        438        439        422        421        439        440        423        422        440        441        424        423        442        443        426        425        443        444        427        426        444        445        428        427        445        446        429        428        446        447        430        429        447        448        431        430        448        449        432        431        449        450        433        432        450        451        434        433        451        452        435        434        452        453        436        435        453        454        437        436        454        455        438        437        455        456        439        438        456        457        440        439        457        458        441        440        459        460        443        442        460        461        444        443        461        462        445        444        462        463        446        445        463        464        447        446        464        465        448        447        465        466        449        448        466        467        450        449        467        468        451        450        468        469        452        451        469        470        453        452        470        471        454        453        471        472        455        454        472        473        456        455        473        474        457        456        474        475        458        457        476        477        460        459        477        478        461        460        478        479        462        461        479        480        463        462        480        481        464        463        481        482        465        464        482        483        466        465        483        484        467        466        484        485        468        467        485        486        469        468        486        487        470        469        487        488        471        470        488        489        472        471        489        490        473        472        490        491        474        473        491        492        475        474        493        494        477        476        494        495        478        477        495        496        479        478        496        497        480        479        497        498        481        480        498        499        482        481        499        500        483        482        500        501        484        483        501        502        485        484        502        503        486        485        503        504        487        486        504        505        488        487        505        506        489        488        506        507        490        489        507        508        491        490        508        509        492        491        510        511        494        493        511        512        495        494        512        513        496        495        513        514        497        496        514        515        498        497        515        516        499        498        516        517        500        499        517        518        501        500        518        519        502        501        519        520        503        502        520        521        504        503        521        522        505        504        522        523        506        505        523        524        507        506        524        525        508        507        525        526        509        508        527        528        511        510        528        529        512        511        529        530        513        512        530        531        514        513        531        532        515        514        532        533        516        515        533        534        517        516        534        535        518        517        535        536        519        518        536        537        520        519        537        538        521        520        538        539        522        521        539        540        523        522        540        541        524        523        541        542        525        524        542        543        526        525        544        545        528        527        545        546        529        528        546        547        530        529        547        548        531        530        548        549        532        531        549        550        533        532        550        551        534        533        551        552        535        534        552        553        536        535        553        554        537        536        554        555        538        537        555        556        539        538        556        557        540        539        557        558        541        540        558        559        542        541        559        560        543        542        561        562        545        544        562        563        546        545        563        564        547        546        564        565        548        547        565        566        549        548        566        567        550        549        567        568        551        550        568        569        552        551        569        570        553        552        570        571        554        553        571        572        555        554        572        573        556        555        573        574        557        556        574        575        558        557        575        576        559        558        576        577        560        559        578        579        596        595        579        580        597        596        580        581        598        597        581        582        599        598        582        583        600        599        583        584        601        600        584        585        602        601        585        586        603        602        586        587        604        603        587        588        605        604        588        589        606        605        589        590        607        606        590        591        608        607        591        592        609        608        592        593        610        609        593        594        611        610        595        596        613        612        596        597        614        613        597        598        615        614        598        599        616        615        599        600        617        616        600        601        618        617        601        602        619        618        602        603        620        619        603        604        621        620        604        605        622        621        605        606        623        622        606        607        624        623        607        608        625        624        608        609        626        625        609        610        627        626        610        611        628        627        612        613        630        629        613        614        631        630        614        615        632        631        615        616        633        632        616        617        634        633        617        618        635        634        618        619        636        635        619        620        637        636        620        621        638        637        621        622        639        638        622        623        640        639        623        624        641        640        624        625        642        641        625        626        643        642        626        627        644        643        627        628        645        644        629        630        647        646        630        631        648        647        631        632        649        648        632        633        650        649        633        634        651        650        634        635        652        651        635        636        653        652        636        637        654        653        637        638        655        654        638        639        656        655        639        640        657        656        640        641        658        657        641        642        659        658        642        643        660        659        643        644        661        660        644        645        662        661        646        647        664        663        647        648        665        664        648        649        666        665        649        650        667        666        650        651        668        667        651        652        669        668        652        653        670        669        653        654        671        670        654        655        672        671        655        656        673        672        656        657        674        673        657        658        675        674        658        659        676        675        659        660        677        676        660        661        678        677        661        662        679        678        663        664        681        680        664        665        682        681        665        666        683        682        666        667        684        683        667        668        685        684        668        669        686        685        669        670        687        686        670        671        688        687        671        672        689        688        672        673        690        689        673        674        691        690        674        675        692        691        675        676        693        692        676        677        694        693        677        678        695        694        678        679        696        695        680        681        698        697        681        682        699        698        682        683        700        699        683        684        701        700        684        685        702        701        685        686        703        702        686        687        704        703        687        688        705        704        688        689        706        705        689        690        707        706        690        691        708        707        691        692        709        708        692        693        710        709        693        694        711        710        694        695        712        711        695        696        713        712        697        698        715        714        698        699        716        715        699        700        717        716        700        701        718        717        701        702        719        718        702        703        720        719        703        704        721        720        704        705        722        721        705        706        723        722        706        707        724        723        707        708        725        724        708        709        726        725        709        710        727        726        710        711        728        727        711        712        729        728        712        713        730        729        714        715        732        731        715        716        733        732        716        717        734        733        717        718        735        734        718        719        736        735        719        720        737        736        720        721        738        737        721        722        739        738        722        723        740        739        723        724        741        740        724        725        742        741        725        726        743        742        726        727        744        743        727        728        745        744        728        729        746        745        729        730        747        746        731        732        749        748        732        733        750        749        733        734        751        750        734        735        752        751        735        736        753        752        736        737        754        753        737        738        755        754        738        739        756        755        739        740        757        756        740        741        758        757        741        742        759        758        742        743        760        759        743        744        761        760        744        745        762        761        745        746        763        762        746        747        764        763        748        749        766        765        749        750        767        766        750        751        768        767        751        752        769        768        752        753        770        769        753        754        771        770        754        755        772        771        755        756        773        772        756        757        774        773        757        758        775        774        758        759        776        775        759        760        777        776        760        761        778        777        761        762        779        778        762        763        780        779        763        764        781        780        765        766        783        782        766        767        784        783        767        768        785        784        768        769        786        785        769        770        787        786        770        771        788        787        771        772        789        788        772        773        790        789        773        774        791        790        774        775        792        791        775        776        793        792        776        777        794        793        777        778        795        794        778        779        796        795        779        780        797        796        780        781        798        797        782        783        800        799        783        784        801        800        784        785        802        801        785        786        803        802        786        787        804        803        787        788        805        804        788        789        806        805        789        790        807        806        790        791        808        807        791        792        809        808        792        793        810        809        793        794        811        810        794        795        812        811        795        796        813        812        796        797        814        813        797        798        815        814        799        800        817        816        800        801        818        817        801        802        819        818        802        803        820        819        803        804        821        820        804        805        822        821        805        806        823        822        806        807        824        823        807        808        825        824        808        809        826        825        809        810        827        826        810        811        828        827        811        812        829        828        812        813        830        829        813        814        831        830        814        815        832        831        816        817        834        833        817        818        835        834        818        819        836        835        819        820        837        836        820        821        838        837        821        822        839        838        822        823        840        839        823        824        841        840        824        825        842        841        825        826        843        842        826        827        844        843        827        828        845        844        828        829        846        845        829        830        847        846        830        831        848        847        831        832        849        848        833        834        562        561        834        835        563        562        835        836        564        563        836        837        565        564        837        838        566        565        838        839        567        566        839        840        568        567        840        841        569        568        841        842        570        569        842        843        571        570        843        844        572        571        844        845        573        572        845        846        574        573        846        847        575        574        847        848        576        575        848        849        577        576        884        885        579        578        885        886        580        579        886        887        581        580        887        888        582        581        888        889        583        582        889        890        584        583        890        891        585        584        891        892        586        585        892        893        587        586        893        894        588        587        894        895        589        588        895        896        590        589        896        897        591        590        897        898        592        591        898        899        593        592        899        900        594        593        901        902        885        884        902        903        886        885        903        904        887        886        904        905        888        887        905        906        889        888        906        907        890        889        907        908        891        890        908        909        892        891        909        910        893        892        910        911        894        893        911        912        895        894        912        913        896        895        913        914        897        896        914        915        898        897        915        916        899        898        916        917        900        899        918        919        902        901        919        920        903        902        920        921        904        903        921        922        905        904        922        923        906        905        923        924        907        906        924        925        908        907        925        926        909        908        926        927        910        909        927        928        911        910        928        929        912        911        929        930        913        912        930        931        914        913        931        932        915        914        932        933        916        915        933        934        917        916        935        936        919        918        936        937        920        919        937        938        921        920        938        939        922        921        939        940        923        922        940        941        924        923        941        942        925        924        942        943        926        925        943        944        927        926        944        945        928        927        945        946        929        928        946        947        930        929        947        948        931        930        948        949        932        931        949        950        933        932        950        951        934        933        952        953        936        935        953        954        937        936        954        955        938        937        955        956        939        938        956        957        940        939        957        958        941        940        958        959        942        941        959        960        943        942        960        961        944        943        961        962        945        944        962        963        946        945        963        964        947        946        964        965        948        947        965        966        949        948        966        967        950        949        967        968        951        950        969        970        953        952        970        971        954        953        971        972        955        954        972        973        956        955        973        974        957        956        974        975        958        957        975        976        959        958        976        977        960        959        977        978        961        960        978        979        962        961        979        980        963        962        980        981        964        963        981        982        965        964        982        983        966        965        983        984        967        966        984        985        968        967        986        987        970        969        987        988        971        970        988        989        972        971        989        990        973        972        990        991        974        973        991        992        975        974        992        993        976        975        993        994        977        976        994        995        978        977        995        996        979        978        996        997        980        979        997        998        981        980        998        999        982        981        999       1000        983        982       1000       1001        984        983       1001       1002        985        984       1003       1004        987        986       1004       1005        988        987       1005       1006        989        988       1006       1007        990        989       1007       1008        991        990       1008       1009        992        991       1009       1010        993        992       1010       1011        994        993       1011       1012        995        994       1012       1013        996        995       1013       1014        997        996       1014       1015        998        997       1015       1016        999        998       1016       1017       1000        999       1017       1018       1001       1000       1018       1019       1002       1001       1020       1021       1004       1003       1021       1022       1005       1004       1022       1023       1006       1005       1023       1024       1007       1006       1024       1025       1008       1007       1025       1026       1009       1008       1026       1027       1010       1009       1027       1028       1011       1010       1028       1029       1012       1011       1029       1030       1013       1012       1030       1031       1014       1013       1031       1032       1015       1014       1032       1033       1016       1015       1033       1034       1017       1016       1034       1035       1018       1017       1035       1036       1019       1018       1037       1038       1021       1020       1038       1039       1022       1021       1039       1040       1023       1022       1040       1041       1024       1023       1041       1042       1025       1024       1042       1043       1026       1025       1043       1044       1027       1026       1044       1045       1028       1027       1045       1046       1029       1028       1046       1047       1030       1029       1047       1048       1031       1030       1048       1049       1032       1031       1049       1050       1033       1032       1050       1051       1034       1033       1051       1052       1035       1034       1052       1053       1036       1035       1054       1055       1038       1037       1055       1056       1039       1038       1056       1057       1040       1039       1057       1058       1041       1040       1058       1059       1042       1041       1059       1060       1043       1042       1060       1061       1044       1043       1061       1062       1045       1044       1062       1063       1046       1045       1063       1064       1047       1046       1064       1065       1048       1047       1065       1066       1049       1048       1066       1067       1050       1049       1067       1068       1051       1050       1068       1069       1052       1051       1069       1070       1053       1052       1071       1072       1055       1054       1072       1073       1056       1055       1073       1074       1057       1056       1074       1075       1058       1057       1075       1076       1059       1058       1076       1077       1060       1059       1077       1078       1061       1060       1078       1079       1062       1061       1079       1080       1063       1062       1080       1081       1064       1063       1081       1082       1065       1064       1082       1083       1066       1065       1083       1084       1067       1066       1084       1085       1068       1067       1085       1086       1069       1068       1086       1087       1070       1069       1088       1089       1072       1071       1089       1090       1073       1072       1090       1091       1074       1073       1091       1092       1075       1074       1092       1093       1076       1075       1093       1094       1077       1076       1094       1095       1078       1077       1095       1096       1079       1078       1096       1097       1080       1079       1097       1098       1081       1080       1098       1099       1082       1081       1099       1100       1083       1082       1100       1101       1084       1083       1101       1102       1085       1084       1102       1103       1086       1085       1103       1104       1087       1086       1105       1106       1089       1088       1106       1107       1090       1089       1107       1108       1091       1090       1108       1109       1092       1091       1109       1110       1093       1092       1110       1111       1094       1093       1111       1112       1095       1094       1112       1113       1096       1095       1113       1114       1097       1096       1114       1115       1098       1097       1115       1116       1099       1098       1116       1117       1100       1099       1117       1118       1101       1100       1118       1119       1102       1101       1119       1120       1103       1102       1120       1121       1104       1103       1122       1123       1106       1105       1123       1124       1107       1106       1124       1125       1108       1107       1125       1126       1109       1108       1126       1127       1110       1109       1127       1128       1111       1110       1128       1129       1112       1111       1129       1130       1113       1112       1130       1131       1114       1113       1131       1132       1115       1114       1132       1133       1116       1115       1133       1134       1117       1116       1134       1135       1118       1117       1135       1136       1119       1118       1136       1137       1120       1119       1137       1138       1121       1120        272        273       1123       1122        273        274       1124       1123        274        275       1125       1124        275        276       1126       1125        276        277       1127       1126        277        278       1128       1127        278        279       1129       1128        279        280       1130       1129        280        281       1131       1130        281        282       1132       1131        282        283       1133       1132        283        284       1134       1133        284        285       1135       1134        285        286       1136       1135        286        287       1137       1136        287        288       1138       1137 </DataArray>
<DataArray type="Int32"                                    Name="offsets"                                                      NumberOfComponents=" 1" format="ascii">
         4          8         12         16         20         24         28         32         36         40         44         48         52         56         60         64         68         72         76         80         84         88         92         96        100        104        108        112        116        120        124        128        132        136        140        144        148        152        156        160        164        168        172        176        180        184        188        192        196        200        204        208        212        216        220        224        228        232        236        240        244        248        252        256        260        264        268        272        276        280        284        288        292        296        300        304        308        312        316        320        324        328        332        336        340        344        348        352        356        360        364        368        372        376        380        384        388        392        396        400        404        408        412        416        420        424        428        432        436        440        444        448        452        456        460        464        468        472        476        480        484        488        492        496        500        504        508        512        516        520        524        528        532        536        540        544        548        552        556        560        564        568        572        576        580        584        588        592        596        600        604        608        612        616        620        624        628        632        636        640        644        648        652        656        660        664        668        672        676        680        684        688        692        696        700        704        708        712        716        720        724        728        732        736        740        744        748        752        756        760        764        768        772        776        780        784        788        792        796        800        804        808        812        816        820        824        828        832        836        840        844        848        852        856        860        864        868        872        876        880        884        888        892        896        900        904        908        912        916        920        924        928        932        936        940        944        948        952        956        960        964        968        972        976        980        984        988        992        996       1000       1004       1008       1012       1016       1020       1024       1028       1032       1036       1040       1044       1048       1052       1056       1060       1064       1068       1072       1076       1080       1084       1088       1092       1096       1100       1104       1108       1112       1116       1120       1124       1128       1132       1136       1140       1144       1148       1152       1156       1160       1164       1168       1172       1176       1180       1184       1188       1192       1196       1200       1204       1208       1212       1216       1220       1224       1228       1232       1236       1240       1244       1248       1252       1256       1260       1264       1268       1272       1276       1280       1284       1288       1292       1296       1300       1304       1308       1312       1316       1320       1324       1328       1332       1336       1340       1344       1348       1352       1356       1360       1364       1368       1372       1376       1380       1384       1388       1392       1396       1400       1404       1408       1412       1416       1420       1424       1428       1432       1436       1440       1444       1448       1452       1456       1460       1464       1468       1472       1476       1480       1484       1488       1492       1496       1500       1504       1508       1512       1516       1520       1524       1528       1532       1536       1540       1544       1548       1552       1556       1560       1564       1568       1572       1576       1580       1584       1588       1592       1596       1600       1604       1608       1612       1616       1620       1624       1628       1632       1636       1640       1644       1648       1652       1656       1660       1664       1668       1672       1676       1680       1684       1688       1692       1696       1700       1704       1708       1712       1716       1720       1724       1728       1732       1736       1740       1744       1748       1752       1756       1760       1764       1768       1772       1776       1780       1784       1788       1792       1796       1800       1804       1808       1812       1816       1820       1824       1828       1832       1836       1840       1844       1848       1852       1856       1860       1864       1868       1872       1876       1880       1884       1888       1892       1896       1900       1904       1908       1912       1916       1920       1924       1928       1932       1936       1940       1944       1948       1952       1956       1960       1964       1968       1972       1976       1980       1984       1988       1992       1996       2000       2004       2008       2012       2016       2020       2024       2028       2032       2036       2040       2044       2048       2052       2056       2060       2064       2068       2072       2076       2080       2084       2088       2092       2096       2100       2104       2108       2112       2116       2120       2124       2128       2132       2136       2140       2144       2148       2152       2156       2160       2164       2168       2172       2176       2180       2184       2188       2192       2196       2200       2204       2208       2212       2216       2220       2224       2228       2232       2236       2240       2244       2248       2252       2256       2260       2264       2268       2272       2276       2280       2284       2288       2292       2296       2300       2304       2308       2312       2316       2320       2324       2328       2332       2336       2340       2344       2348       2352       2356       2360       2364       2368       2372       2376       2380       2384       2388       2392       2396       2400       2404       2408       2412       2416       2420       2424       2428       2432       2436       2440       2444       2448       2452       2456       2460       2464       2468       2472       2476       2480       2484       2488       2492       2496       2500       2504       2508       2512       2516       2520       2524       2528       2532       2536       2540       2544       2548       2552       2556       2560       2564       2568       2572       2576       2580       2584       2588       2592       2596       2600       2604       2608       2612       2616       2620       2624       2628       2632       2636       2640       2644       2648       2652       2656       2660       2664       2668       2672       2676       2680       2684       2688       2692       2696       2700       2704       2708       2712       2716       2720       2724       2728       2732       2736       2740       2744       2748       2752       2756       2760       2764       2768       2772       2776       2780       2784       2788       2792       2796       2800       2804       2808       2812       2816       2820       2824       2828       2832       2836       2840       2844       2848       2852       2856       2860       2864       2868       2872       2876       2880       2884       2888       2892       2896       2900       2904       2908       2912       2916       2920       2924       2928       2932       2936       2940       2944       2948       2952       2956       2960       2964       2968       2972       2976       2980       2984       2988       2992       2996       3000       3004       3008       3012       3016       3020       3024       3028       3032       3036       3040       3044       3048       3052       3056       3060       3064       3068       3072       3076       3080       3084       3088       3092       3096       3100       3104       3108       3112       3116       3120       3124       3128       3132       3136       3140       3144       3148       3152       3156       3160       3164       3168       3172       3176       3180       3184       3188       3192       3196       3200       3204       3208       3212       3216       3220       3224       3228       3232       3236       3240       3244       3248       3252       3256       3260       3264       3268       3272       3276       3280       3284       3288       3292       3296       3300       3304       3308       3312       3316       3320       3324       3328       3332       3336       3340       3344       3348       3352       3356       3360       3364       3368       3372       3376       3380       3384       3388       3392       3396       3400       3404       3408       3412       3416       3420       3424       3428       3432       3436       3440       3444       3448       3452       3456       3460       3464       3468       3472       3476       3480       3484       3488       3492       3496       3500       3504       3508       3512       3516       3520       3524       3528       3532       3536       3540       3544       3548       3552       3556       3560       3564       3568       3572       3576       3580       3584       3588       3592       3596       3600       3604       3608       3612       3616       3620       3624       3628       3632       3636       3640       3644       3648       3652       3656       3660       3664       3668       3672       3676       3680       3684       3688       3692       3696       3700       3704       3708       3712       3716       3720       3724       3728       3732       3736       3740       3744       3748       3752       3756       3760       3764       3768       3772       3776       3780       3784       3788       3792       3796       3800       3804       3808       3812       3816       3820       3824       3828       3832       3836       3840       3844       3848       3852       3856       3860       3864       3868       3872       3876       3880       3884       3888       3892       3896       3900       3904       3908       3912       3916       3920       3924       3928       3932       3936       3940       3944       3948       3952       3956       3960       3964       3968       3972       3976       3980       3984       3988       3992       3996       4000       4004       4008       4012       4016       4020       4024       4028       4032       4036       4040       4044       4048       4052       4056       4060       4064       4068       4072       4076       4080       4084       4088       4092       4096 </DataArray>
<DataArray type="UInt8"                                    Name="types"                                                      NumberOfComponents=" 1" format="ascii">
         9          9          9          9          9          9          9          9          9          9          9          9          9          9          9          9          9          9          9          9          9          9          9          9          9          9          9          9          9          9          9          9          9          9          9          9          9          9          9          9          9          9          9          9          9          9          9          9          9          9          9          9          9          9          9          9          9          9          9          9          9          9          9          9          9          9          9          9          9          9          9          9          9          9          9          9          9          9          9          9          9          9          9          9          9          9          9          9          9          9          9          9          9          9          9          9          9          9          9          9          9          9          9          9          9          9          9          9          9          9          9          9          9          9          9          9          9          9          9          9          9          9          9          9          9          9          9          9          9          9          9          9          9          9          9          9          9          9          9          9          9          9          9          9          9          9          9          9          9          9          9          9          9          9          9          9          9          9          9          9          9          9          9          9          9          9          9          9          9          9          9          9          9          9          9          9          9          9          9          9          9          9          9          9          9          9          9          9          9          9          9          9          9          9          9          9          9          9          9          9          9          9          9          9          9          9          9          9          9          9          9          9          9          9          9          9          9          9          9          9          9          9          9          9          9          9          9          9          9          9          9          9          9          9          9          9          9          9          9          9          9          9          9          9          9          9          9          9          9          9          9          9          9          9          9          9          9          9          9          9          9          9          9          9          9          9          9          9          9          9          9          9          9          9          9          9          9          9          9          9          9          9          9          9          9          9          9          9          9          9          9          9          9          9          9          9          9          9          9          9          9          9          9          9          9          9          9          9          9          9          9          9          9          9          9          9          9          9          9          9          9          9          9          9          9          9          9          9          9          9          9          9          9          9          9          9          9          9          9          9          9          9          9          9          9          9          9          9          9          9          9          9          9          9          9          9          9          9          9          9          9          9          9          9          9          9          9          9          9          9          9          9          9          9          9          9          9          9          9          9          9          9          9          9          9          9          9          9          9          9          9          9          9          9          9          9          9          9          9          9          9          9          9          9          9          9          9          9          9          9          9          9          9          9          9          9          9          9          9          9          9          9          9          9          9          9          9          9          9          9          9          9          9          9          9          9          9          9          9          9          9          9          9          9          9          9          9          9          9          9          9          9          9          9          9          9          9          9          9          9          9          9          9          9          9          9          9          9          9          9          9          9          9          9          9          9          9          9          9          9          9          9          9          9          9          9          9          9          9          9          9          9          9          9          9          9          9          9          9          9          9          9          9          9          9          9          9          9          9          9          9          9          9          9          9          9          9          9          9          9          9          9          9          9          9          9          9          9          9          9          9          9          9          9          9          9          9          9          9          9          9          9          9          9          9          9          9          9          9          9          9          9          9          9          9          9          9          9          9          9          9          9          9          9          9          9          9          9          9          9          9          9          9          9          9          9          9          9          9          9          9          9          9          9          9          9          9          9          9          9          9          9          9          9          9          9          9          9          9          9          9          9          9          9          9          9          9          9          9          9          9          9          9          9          9          9          9          9          9          9          9          9          9          9          9          9          9          9          9          9          9          9          9          9          9          9          9          9          9          9          9          9          9          9          9          9          9          9          9          9          9          9          9          9          9          9          9          9          9          9          9          9          9          9          9          9          9          9          9          9          9          9          9          9          9          9          9          9          9          9          9          9          9          9          9          9          9          9          9          9          9          9          9          9          9          9          9          9          9          9          9          9          9          9          9          9          9          9          9          9          9          9          9          9          9          9          9          9          9          9          9          9          9          9          9          9          9          9          9          9          9          9          9          9          9          9          9          9          9          9          9          9          9          9          9          9          9          9          9          9          9          9          9          9          9          9          9          9          9          9          9          9          9          9          9          9          9          9          9          9          9          9          9          9          9          9          9          9          9          9          9          9          9          9          9          9          9          9          9          9          9          9          9          9          9          9          9          9          9          9          9          9          9          9          9          9          9          9          9          9          9          9          9          9          9          9          9          9          9          9          9          9          9          9          9          9          9          9          9          9          9          9          9          9          9          9          9          9          9          9          9          9          9          9          9          9          9          9          9          9          9          9          9          9          9          9          9          9          9          9          9          9          9          9          9          9          9          9          9          9          9          9          9          9          9          9          9          9          9          9          9          9          9          9          9          9          9          9          9          9          9          9          9          9          9          9          9          9          9          9          9          9          9          9          9          9          9          9          9          9          9          9          9          9          9          9          9          9          9          9          9          9          9          9          9          9          9          9          9          9          9          9          9          9          9          9          9          9          9          9          9          9          9          9          9          9          9          9          9          9          9          9          9          9          9          9          9          9          9          9          9          9          9          9          9          9          9          9          9          9          9          9          9          9          9          9          9          9          9          9          9          9          9          9          9          9          9          9          9          9          9          9          9          9          9          9          9          9          9          9          9          9          9          9          9          9          9          9          9          9          9          9          9          9          9          9          9          9          9          9          9          9          9          9 </DataArray>
</Cells>
<CellData>
<DataArray type="Int32"                                    Name="material"                                                      NumberOfComponents=" 1" format="ascii">
         1          1          1          1          1          1          1          1          1          1          1          1          1          1          1          1          1          1          1          1          1          1          1          1          1          1          1          1          1          1          1          1          1          1          1          1          1          1          1          1          1          1          1          1          1          1          1          1          1          1          1          1          1          1          1          1          1          1          1          1          1          1          1          1          1          1          1          1          1          1          1          1          1          1          1          1          1          1          1          1          1          1          1          1          1          1          1          1          1          1          1          1          1          1          1          1          1          1          1          1          1          1          1          1          1          1          1          1          1          1          1          1          1          1          1          1          1          1          1          1          1          1          1          1          1          1          1          1          1          1          1          1          1          1          1          1          1          1          1          1          1          1          1          1          1          1          1          1          1          1          1          1          1          1          1          1          1          1          1          1          1          1          1          1          1          1          1          1          1          1          1          1          1          1          1          1          1          1          1          1          1          1          1          1          1          1          1          1          1          1          1          1          1          1          1          1          1          1          1          1          1          1          1          1          1          1          1          1          1          1          1          1          1          1          1          1          1          1          1          1          1          1          1          1          1          1          1          1          1          1          1          1          1          1          1          1          1          1          1          1          1          1          1          1          1          1          1          1          1          1          1          1          1          1          1          1          1          1          1          1          1          1          1          1          1          1          1          1          1          1          1          1          1          1          1          1          1          1          1          1          1          1          1          1          1          1          1          1          1          1          1          1          1          1          1          1          1          1          1          1          1          1          1          1          1          1          1          1          1          1          1          1          1          1          1          1          1          1          1          1          1          1          1          1          1          1          1          1          1          1          1          1          1          1          1          1          1          1          1          1          1          1          1          1          1          1          1          1          1          1          1          1          1          1          1          1          1          1          1          1          1          1          1          1          1          1          1          1          1          1          1          1          1          1          1          1          1          1          1          1          1          1          1          1          1          1          1          1          1          1          1          1          1          1          1          1          1          1          1          1          1          1          1          1          1          1          1          1          1          1          1          1          1          1          1          1          1          1          1          1          1          1          1          1          1          1          1          1          1          1          1          1          1          1          1          1          1          1          1          1          1          1          1          1          1          1          1          1          1          1          1          1          1          1          1          1          1          1          1          1          1          1          1          1          1          1          1          1          1          1          1          1          1          1          1          1          1          1          1          1          1          1          1          1          1          1          1          1          1          1          1          1          1          1          1          1          1          1          1          1          1          1          1          1          1          1          1          1          1          1          1          1          1          1          1          1          1          1          1          1          1          1          1          1          1          1          1          1          1          1          1          1          1          1          1          1          1          1          1          1          1          1          1          1          1          1          1          1          1          1          1          1          1          1          1          1          1          1          1          1          1          1          1          1          1          1          1          1          1          1          1          1          1          1          1          1          1          1          1          1          1          1          1          1          1          1          1          1          1          1          1          1          1          1          1          1          1          1          1          1          1          1          1          1          1          1          1          1          1          1          1          1          1          1          1          1          1          1          1          1          1          1          1          1          1          1          1          1          1          1          1          1          1          1          1          1          1          1          1          1          1          1          1          1          1          1          1          1          1          1          1          1          1          1          1          1          1          1          1          1          1          1          1          1          1          1          1          1          1          1          1          1          1          1          1          1          1          1          1          1          1          1          1          1          1          1          1          1          1          1          1          1          1          1          1          1          1          1          1          1          1          1          1          1          1          1          1          1          1          1          1          1          1          1          1          1          1          1          1          1          1          1          1          1          1          1          1          1          1          1          1          1          1          1          1          1          1          1          1          1          1          1          1          1          1          1          1          1          1          1          1          1          1          1          1          1          1          1          1          1          1          1          1          1          1          1          1          1          1          1          1          1          1          1          1          1          1          1          1          1          1          1          1          1          1          1          1          1          1          1          1          1          1          1          1          1          1          1          1          1          1          1          1          1          1          1          1          1          1          1          1          1          1          1          1          1          1          1          1          1          1          1          1          1          1          1          1          1          1          1          1          1          1          1          1          1          1          1          1          1          1          1          1          1          1          1          1          1          1          1          1          1          1          1          1          1          1          1          1          1          1          1          1          1          1          1          1          1          1          1          1          1          1          1          1          1          1          1          1          1          1          1          1          1          1          1          1          1          1          1          1          1          1          1          1          1          1          1          1          1          1          1          1          1          1          1          1          1          1          1          1          1          1          1          1          1          1          1          1          1          1          1          1          1          1          1          1          1          1          1          1          1          1          1          1          1          1          1          1          1          1          1          1          1          1          1          1          1          1          1          1          1          1          1          1          1          1          1          1          1          1          1          1          1          1          1          1          1          1          1          1          1          1          1          1          1          1          1          1          1          1          1          1          1          1          1          1          1          1          1          1          1          1          1          1          1          1          1          1          1          1          1          1          1          1          1          1          1          1          1          1          1          1          1          1          1          1          1          1          1          1          1          1          1 </DataArray>
</CellData>
<PointData>
<DataArray type="Float64"                                    Name="u"                                                      NumberOfComponents=" 3" format="ascii">
             -0.000192548              -0.000000000               0.999999990              -0.000223639               0.000000000               0.999999990              -0.000238247               0.000000000               0.999999990              -0.000246661               0.000000000               0.999999990              -0.000252991              -0.000000000               0.999999990              -0.000258925               0.000000000               0.999999990              -0.000265344              -0.000000000               0.999999990              -0.000272736               0.000000000               0.999999990              -0.000281288               0.000000000               0.999999990              -0.000290977               0.000000000               0.999999990              -0.000301808               0.000000000               0.999999990              -0.000313784               0.000000000               0.999999990              -0.000326838               0.000000000               0.999999990              -0.000340862               0.000000000               0.999999990              -0.000355655               0.000000000               0.999999990              -0.000370962              -0.000000000               0.999999990              -0.000386462               0.000000000               0.999999990              -0.000191523               0.000077951               0.999999990              -0.000220923               0.000067186               0.999999990              -0.000234484               0.000063470               0.999999990              -0.000242285               0.000063501               0.999999990              -0.000248323               0.000065560               0.999999990              -0.000254285               0.000069013               0.999999990              -0.000260871               0.000073383               0.999999990              -0.000268401               0.000078394               0.999999990              -0.000277058               0.000083887               0.999999990              -0.000286890               0.000089694               0.999999990              -0.000297864               0.000095727               0.999999990              -0.000309888               0.000101942               0.999999990              -0.000322913               0.000108091               0.999999990              -0.000336827               0.000113791               0.999999990              -0.000351407               0.000118801               0.999999990              -0.000366366               0.000122928               0.999999990              -0.000381361               0.000125781               0.999999990              -0.000188492               0.000155017               0.999999990              -0.000213056               0.000133659               0.999999990              -0.000223806               0.000126687               0.999999990              -0.000230088               0.000127078               0.999999990              -0.000235424               0.000131653               0.999999990              -0.000241219               0.000138776               0.999999990              -0.000247983               0.000147647               0.999999990              -0.000255899               0.000157779               0.999999990              -0.000264941               0.000168794               0.999999990              -0.000275093               0.000180334               0.999999990              -0.000286227               0.000192350               0.999999990              -0.000298144               0.000204659               0.999999990              -0.000310767               0.000216595               0.999999990              -0.000323888               0.000227728               0.999999990              -0.000337288               0.000237683               0.999999990              -0.000350847               0.000245961               0.999999990              -0.000364441               0.000251997               0.999999990              -0.000183636               0.000230363               0.999999990              -0.000200564               0.000198796               0.999999990              -0.000207254               0.000189396               0.999999990              -0.000211563               0.000190860               0.999999990              -0.000216152               0.000198372               0.999999990              -0.000221866               0.000209627               0.999999990              -0.000228980               0.000223263               0.999999990              -0.000237356               0.000238572               0.999999990              -0.000246875               0.000255036               0.999999990              -0.000257309               0.000272250               0.999999990              -0.000268473               0.000289974               0.999999990              -0.000280213               0.000307689               0.999999990              -0.000292218               0.000324865               0.999999990              -0.000304318               0.000340986               0.999999990              -0.000316455               0.000355671               0.999999990              -0.000328556               0.000368626               0.999999990              -0.000340655               0.000379519               0.999999990              -0.000176901               0.000303273               0.999999990              -0.000183849               0.000262218               0.999999990              -0.000185964               0.000251467               0.999999990              -0.000188507               0.000254817               0.999999990              -0.000192756               0.000265746               0.999999990              -0.000198835               0.000281344               0.999999990              -0.000206597               0.000299878               0.999999990              -0.000215697               0.000320278               0.999999990              -0.000225850               0.000341956               0.999999990              -0.000236752               0.000364466               0.999999990              -0.000248211               0.000387267               0.999999990              -0.000259870               0.000409888               0.999999990              -0.000271409               0.000431688               0.999999990              -0.000282775               0.000452294               0.999999990              -0.000293960               0.000471562               0.999999990              -0.000305009               0.000489439               0.999999990              -0.000315899               0.000505846               0.999999990              -0.000168173               0.000373081               0.999999990              -0.000163711               0.000323762               0.999999990              -0.000161708               0.000312685               0.999999990              -0.000163332               0.000318520               0.999999990              -0.000168014               0.000333123               0.999999990              -0.000175100               0.000353016               0.999999990              -0.000183947               0.000376272               0.999999990              -0.000194105               0.000401489               0.999999990              -0.000205150               0.000428033               0.999999990              -0.000216704               0.000455407               0.999999990              -0.000228380               0.000482897               0.999999990              -0.000239831               0.000509913               0.999999990              -0.000250934               0.000535964               0.999999990              -0.000261669               0.000560892               0.999999990              -0.000272015               0.000584716               0.999999990              -0.000282020               0.000607471               0.999999990              -0.000291672               0.000629069               0.999999990              -0.000157666               0.000439011               0.999999990              -0.000141370               0.000383304               0.999999990              -0.000136401               0.000372713               0.999999990              -0.000138190               0.000381298               0.999999990              -0.000144090               0.000399540               0.999999990              -0.000152682               0.000423605               0.999999990              -0.000163057               0.000451204               0.999999990              -0.000174497               0.000480827               0.999999990              -0.000186420               0.000511904               0.999999990              -0.000198404               0.000543894               0.999999990              -0.000210071               0.000575658               0.999999990              -0.000221211               0.000606662               0.999999990              -0.000231657               0.000636794               0.999999990              -0.000241453               0.000666065               0.999999990              -0.000250691               0.000694479               0.999999990              -0.000259436               0.000721999               0.999999990              -0.000267763               0.000748634               0.999999990              -0.000145627               0.000500340               0.999999990              -0.000118108               0.000440675               0.999999990              -0.000111639               0.000431132               0.999999990              -0.000114708               0.000442369               0.999999990              -0.000122461               0.000464051               0.999999990              -0.000132893               0.000491886               0.999999990              -0.000144775               0.000523539               0.999999990              -0.000157314               0.000557515               0.999999990              -0.000169936               0.000593026               0.999999990              -0.000182215               0.000629098               0.999999990              -0.000193721               0.000664665               0.999999990              -0.000204156               0.000699512               0.999999990              -0.000213589               0.000733652               0.999999990              -0.000222252               0.000767132               0.999999990              -0.000230257               0.000799907               0.999999990              -0.000237782               0.000831875               0.999999990              -0.000244919               0.000863069               0.999999990              -0.000132688               0.000556038               0.999999990              -0.000094913               0.000495770               0.999999990              -0.000088913               0.000487297               0.999999990              -0.000093958               0.000500868               0.999999990              -0.000103761               0.000525716               0.999999990              -0.000115913               0.000557241               0.999999990              -0.000129148               0.000592880               0.999999990              -0.000142694               0.000631092               0.999999990              -0.000155989               0.000670575               0.999999990              -0.000168266               0.000710295               0.999999990              -0.000179025               0.000749492               0.999999990              -0.000188299               0.000787989               0.999999990              -0.000196537               0.000825940               0.999999990              -0.000203994               0.000863364               0.999999990              -0.000211026               0.000900096               0.999999990              -0.000217800               0.000936063               0.999999990              -0.000224410               0.000971250               0.999999990              -0.000119887               0.000608038               0.999999990              -0.000076669               0.000554559               0.999999990              -0.000068083               0.000541775               0.999999990              -0.000071588               0.000550059               0.999999990              -0.000079918               0.000569842               0.999999990              -0.000090626               0.000596686               0.999999990              -0.000102559               0.000628145               0.999999990              -0.000115006               0.000662610               0.999999990              -0.000127423               0.000698981               0.999999990              -0.000139120               0.000736216               0.999999990              -0.000149450               0.000773612               0.999999990              -0.000158004               0.000810680               0.999999990              -0.000165230               0.000847352               0.999999990              -0.000171460               0.000883676               0.999999990              -0.000177018               0.000919780               0.999999990              -0.000182439               0.000955371               0.999999990              -0.000187961               0.000990361               0.999999990              -0.000105605               0.000654922               0.999999990              -0.000060666               0.000610742               0.999999990              -0.000049480               0.000597034               0.999999990              -0.000050893               0.000601360               0.999999990              -0.000057391               0.000616888               0.999999990              -0.000066454               0.000639515               0.999999990              -0.000076914               0.000667040               0.999999990              -0.000088024               0.000697964               0.999999990              -0.000099316               0.000731162               0.999999990              -0.000110149               0.000765733               0.999999990              -0.000119860               0.000801035               0.999999990              -0.000127809               0.000836382               0.999999990              -0.000134047               0.000871488               0.999999990              -0.000138922               0.000906435               0.999999990              -0.000142767               0.000941256               0.999999990              -0.000146158               0.000976038               0.999999990              -0.000149497               0.001010665               0.999999990              -0.000090175               0.000695792               0.999999990              -0.000046770               0.000662868               0.999999990              -0.000033826               0.000650754               0.999999990              -0.000033063               0.000653080               0.999999990              -0.000037548               0.000665344               0.999999990              -0.000044708               0.000684561               0.999999990              -0.000053376               0.000708741               0.999999990              -0.000062909               0.000736535               0.999999990              -0.000072673               0.000766923               0.999999990              -0.000082238               0.000799032               0.999999990              -0.000091053               0.000832269               0.999999990              -0.000098405               0.000865981               0.999999990              -0.000103824               0.000899676               0.999999990              -0.000107379               0.000933176               0.999999990              -0.000109352               0.000966534               0.999999990              -0.000110177               0.000999974               0.999999990              -0.000110350               0.001033677               0.999999990              -0.000073655               0.000730013               0.999999990              -0.000034881               0.000709033               0.999999990              -0.000021505               0.000700390               0.999999990              -0.000019038               0.000702570               0.999999990              -0.000021533               0.000713038               0.999999990              -0.000026627               0.000729817               0.999999990              -0.000033398               0.000751357               0.999999990              -0.000040996               0.000776578               0.999999990              -0.000049016               0.000804578               0.999999990              -0.000057014               0.000834655               0.999999990              -0.000064520               0.000866214               0.999999990              -0.000070947               0.000898725               0.999999990              -0.000075485               0.000931587               0.999999990              -0.000078061               0.000964293               0.999999990              -0.000078453               0.000996792               0.999999990              -0.000076618               0.001029175               0.999999990              -0.000072782               0.001061843               0.999999990              -0.000056117               0.000757122               0.999999990              -0.000024703               0.000747291               0.999999990              -0.000012558               0.000743139               0.999999990              -0.000009202               0.000746512               0.999999990              -0.000010103               0.000756571               0.999999990              -0.000013349               0.000772044               0.999999990              -0.000018084               0.000791832               0.999999990              -0.000023711               0.000815206               0.999999990              -0.000029744               0.000841391               0.999999990              -0.000035807               0.000869872               0.999999990              -0.000041592               0.000900220               0.999999990              -0.000046679               0.000931974               0.999999990              -0.000050283               0.000964547               0.999999990              -0.000051999               0.000997406               0.999999990              -0.000051399               0.001030172               0.999999990              -0.000047866               0.001062782               0.999999990              -0.000040911               0.001095358               0.999999990              -0.000037813               0.000776671               0.999999990              -0.000015829               0.000775811               0.999999990              -0.000006588               0.000776086               0.999999990              -0.000003382               0.000781365               0.999999990              -0.000003386               0.000791919               0.999999990              -0.000005146               0.000807076               0.999999990              -0.000008000               0.000826058               0.999999990              -0.000011667               0.000848340               0.999999990              -0.000015607               0.000873444               0.999999990              -0.000019550               0.000900947               0.999999990              -0.000023295               0.000930474               0.999999990              -0.000026698               0.000961705               0.999999990              -0.000029209               0.000994197               0.999999990              -0.000030259               0.001027474               0.999999990              -0.000029446               0.001061126               0.999999990              -0.000025962               0.001094762               0.999999990              -0.000018895               0.001128156               0.999999990              -0.000019032               0.000788424               0.999999990              -0.000007743               0.000793359               0.999999990              -0.000002742               0.000796865               0.999999990              -0.000000774               0.000803783               0.999999990              -0.000000583               0.000815020               0.999999990              -0.000001320               0.000830290               0.999999990              -0.000002647               0.000849139               0.999999990              -0.000004399               0.000871108               0.999999990              -0.000006282               0.000895764               0.999999990              -0.000008149               0.000922786               0.999999990              -0.000009952               0.000951841               0.999999990              -0.000011572               0.000982662               0.999999990              -0.000012856               0.001014945               0.999999990              -0.000013425               0.001048363               0.999999990              -0.000012952               0.001082519               0.999999990              -0.000010947               0.001117028               0.999999990              -0.000006616               0.001151452               0.999999990               0.000000000               0.000792367               0.999999990               0.000000000               0.000799301               0.999999990               0.000000000               0.000803968               0.999999990              -0.000000000               0.000811495               0.999999990               0.000000000               0.000822997               0.999999990               0.000000000               0.000838383               0.999999990              -0.000000000               0.000857271               0.999999990              -0.000000000               0.000879224               0.999999990              -0.000000000               0.000903828               0.999999990              -0.000000000               0.000930692               0.999999990               0.000000000               0.000959575               0.999999990               0.000000000               0.000990209               0.999999990               0.000000000               0.001022354               0.999999990              -0.000000000               0.001055781               0.999999990              -0.000000000               0.001090177               0.999999990               0.000000000               0.001125066               0.999999990              -0.000000000               0.001159853               0.999999990              -0.000192548              -0.000000000               0.999999990              -0.000223639               0.000000000               0.999999990              -0.000238247               0.000000000               0.999999990              -0.000246661               0.000000000               0.999999990              -0.000252991              -0.000000000               0.999999990              -0.000258925               0.000000000               0.999999990              -0.000265344              -0.000000000               0.999999990              -0.000272736               0.000000000               0.999999990              -0.000281288               0.000000000               0.999999990              -0.000290977               0.000000000               0.999999990              -0.000301808               0.000000000               0.999999990              -0.000313784               0.000000000               0.999999990              -0.000326838               0.000000000               0.999999990              -0.000340862               0.000000000               0.999999990              -0.000355655               0.000000000               0.999999990              -0.000370962              -0.000000000               0.999999990              -0.000386462               0.000000000               0.999999990              -0.000191523              -0.000077951               0.999999990              -0.000220923              -0.000067186               0.999999990              -0.000234484              -0.000063470               0.999999990              -0.000242285              -0.000063501               0.999999990              -0.000248323              -0.000065560               0.999999990              -0.000254285              -0.000069013               0.999999990              -0.000260871              -0.000073383               0.999999990              -0.000268401              -0.000078394               0.999999990              -0.000277058              -0.000083887               0.999999990              -0.000286890              -0.000089694               0.999999990              -0.000297864              -0.000095727               0.999999990              -0.000309888              -0.000101942               0.999999990              -0.000322913              -0.000108091               0.999999990              -0.000336827              -0.000113791               0.999999990              -0.000351407              -0.000118801               0.999999990              -0.000366366              -0.000122928               0.999999990              -0.000381361              -0.000125781               0.999999990              -0.000188492              -0.000155017               0.999999990              -0.000213056              -0.000133659               0.999999990              -0.000223806              -0.000126687               0.999999990              -0.000230088              -0.000127078               0.999999990              -0.000235424              -0.000131653               0.999999990              -0.000241219              -0.000138776               0.999999990              -0.000247983              -0.000147647               0.999999990              -0.000255899              -0.000157779               0.999999990              -0.000264941              -0.000168794               0.999999990              -0.000275093              -0.000180334               0.999999990              -0.000286227              -0.000192350               0.999999990              -0.000298144              -0.000204659               0.999999990              -0.000310767              -0.000216595               0.999999990              -0.000323888              -0.000227728               0.999999990              -0.000337288              -0.000237683               0.999999990              -0.000350847              -0.000245961               0.999999990              -0.000364441              -0.000251997               0.999999990              -0.000183636              -0.000230363               0.999999990              -0.000200564              -0.000198796               0.999999990              -0.000207254              -0.000189396               0.999999990              -0.000211563              -0.000190860               0.999999990              -0.000216152              -0.000198372               0.999999990              -0.000221866              -0.000209627               0.999999990              -0.000228980              -0.000223263               0.999999990              -0.000237356              -0.000238572               0.999999990              -0.000246875              -0.000255036               0.999999990              -0.000257309              -0.000272250               0.999999990              -0.000268473              -0.000289974               0.999999990              -0.000280213              -0.000307689               0.999999990              -0.000292218              -0.000324865               0.999999990              -0.000304318              -0.000340986               0.999999990              -0.000316455              -0.000355671               0.999999990              -0.000328556              -0.000368626               0.999999990              -0.000340655              -0.000379519               0.999999990              -0.000176901              -0.000303273               0.999999990              -0.000183849              -0.000262218               0.999999990              -0.000185964              -0.000251467               0.999999990              -0.000188507              -0.000254817               0.999999990              -0.000192756              -0.000265746               0.999999990              -0.000198835              -0.000281344               0.999999990              -0.000206597              -0.000299878               0.999999990              -0.000215697              -0.000320278               0.999999990              -0.000225850              -0.000341956               0.999999990              -0.000236752              -0.000364466               0.999999990              -0.000248211              -0.000387267               0.999999990              -0.000259870              -0.000409888               0.999999990              -0.000271409              -0.000431688               0.999999990              -0.000282775              -0.000452294               0.999999990              -0.000293960              -0.000471562               0.999999990              -0.000305009              -0.000489439               0.999999990              -0.000315899              -0.000505846               0.999999990              -0.000168173              -0.000373081               0.999999990              -0.000163711              -0.000323762               0.999999990              -0.000161708              -0.000312685               0.999999990              -0.000163332              -0.000318520               0.999999990              -0.000168014              -0.000333123               0.999999990              -0.000175100              -0.000353016               0.999999990              -0.000183947              -0.000376272               0.999999990              -0.000194105              -0.000401489               0.999999990              -0.000205150              -0.000428033               0.999999990              -0.000216704              -0.000455407               0.999999990              -0.000228380              -0.000482897               0.999999990              -0.000239831              -0.000509913               0.999999990              -0.000250934              -0.000535964               0.999999990              -0.000261669              -0.000560892               0.999999990              -0.000272015              -0.000584716               0.999999990              -0.000282020              -0.000607471               0.999999990              -0.000291672              -0.000629069               0.999999990              -0.000157666              -0.000439011               0.999999990              -0.000141370              -0.000383304               0.999999990              -0.000136401              -0.000372713               0.999999990              -0.000138190              -0.000381298               0.999999990              -0.000144090              -0.000399540               0.999999990              -0.000152682              -0.000423605               0.999999990              -0.000163057              -0.000451204               0.999999990              -0.000174497              -0.000480827               0.999999990              -0.000186420              -0.000511904               0.999999990              -0.000198404              -0.000543894               0.999999990              -0.000210071              -0.000575658               0.999999990              -0.000221211              -0.000606662               0.999999990              -0.000231657              -0.000636794               0.999999990              -0.000241453              -0.000666065               0.999999990              -0.000250691              -0.000694479               0.999999990              -0.000259436              -0.000721999               0.999999990              -0.000267763              -0.000748634               0.999999990              -0.000145627              -0.000500340               0.999999990              -0.000118108              -0.000440675               0.999999990              -0.000111639              -0.000431132               0.999999990              -0.000114708              -0.000442369               0.999999990              -0.000122461              -0.000464051               0.999999990              -0.000132893              -0.000491886               0.999999990              -0.000144775              -0.000523539               0.999999990              -0.000157314              -0.000557515               0.999999990              -0.000169936              -0.000593026               0.999999990              -0.000182215              -0.000629098               0.999999990              -0.000193721              -0.000664665               0.999999990              -0.000204156              -0.000699512               0.999999990              -0.000213589              -0.000733652               0.999999990              -0.000222252              -0.000767132               0.999999990              -0.000230257              -0.000799907               0.999999990              -0.000237782              -0.000831875               0.999999990              -0.000244919              -0.000863069               0.999999990              -0.000132688              -0.000556038               0.999999990              -0.000094913              -0.000495770               0.999999990              -0.000088913              -0.000487297               0.999999990              -0.000093958              -0.000500868               0.999999990              -0.000103761              -0.000525716               0.999999990              -0.000115913              -0.000557241               0.999999990              -0.000129148              -0.000592880               0.999999990              -0.000142694              -0.000631092               0.999999990              -0.000155989              -0.000670575               0.999999990              -0.000168266              -0.000710295               0.999999990              -0.000179025              -0.000749492               0.999999990              -0.000188299              -0.000787989               0.999999990              -0.000196537              -0.000825940               0.999999990              -0.000203994              -0.000863364               0.999999990              -0.000211026              -0.000900096               0.999999990              -0.000217800              -0.000936063               0.999999990              -0.000224410              -0.000971250               0.999999990              -0.000119887              -0.000608038               0.999999990              -0.000076669              -0.000554559               0.999999990              -0.000068083              -0.000541775               0.999999990              -0.000071588              -0.000550059               0.999999990              -0.000079918              -0.000569842               0.999999990              -0.000090626              -0.000596686               0.999999990              -0.000102559              -0.000628145               0.999999990              -0.000115006              -0.000662610               0.999999990              -0.000127423              -0.000698981               0.999999990              -0.000139120              -0.000736216               0.999999990              -0.000149450              -0.000773612               0.999999990              -0.000158004              -0.000810680               0.999999990              -0.000165230              -0.000847352               0.999999990              -0.000171460              -0.000883676               0.999999990              -0.000177018              -0.000919780               0.999999990              -0.000182439              -0.000955371               0.999999990              -0.000187961              -0.000990361               0.999999990              -0.000105605              -0.000654922               0.999999990              -0.000060666              -0.000610742               0.999999990              -0.000049480              -0.000597034               0.999999990              -0.000050893              -0.000601360               0.999999990              -0.000057391              -0.000616888               0.999999990              -0.000066454              -0.000639515               0.999999990              -0.000076914              -0.000667040               0.999999990              -0.000088024              -0.000697964               0.999999990              -0.000099316              -0.000731162               0.999999990              -0.000110149              -0.000765733               0.999999990              -0.000119860              -0.000801035               0.999999990              -0.000127809              -0.000836382               0.999999990              -0.000134047              -0.000871488               0.999999990              -0.000138922              -0.000906435               0.999999990              -0.000142767              -0.000941256               0.999999990              -0.000146158              -0.000976038               0.999999990              -0.000149497              -0.001010665               0.999999990              -0.000090175              -0.000695792               0.999999990              -0.000046770              -0.000662868               0.999999990              -0.000033826              -0.000650754               0.999999990              -0.000033063              -0.000653080               0.999999990              -0.000037548              -0.000665344               0.999999990              -0.000044708              -0.000684561               0.999999990              -0.000053376              -0.000708741               0.999999990              -0.000062909              -0.000736535               0.999999990              -0.000072673              -0.000766923               0.999999990              -0.000082238              -0.000799032               0.999999990              -0.000091053              -0.000832269               0.999999990              -0.000098405              -0.000865981               0.999999990              -0.000103824              -0.000899676               0.999999990              -0.000107379              -0.000933176               0.999999990              -0.000109352              -0.000966534               0.999999990              -0.000110177              -0.000999974               0.999999990              -0.000110350              -0.001033677               0.999999990              -0.000073655              -0.000730013               0.999999990              -0.000034881              -0.000709033               0.999999990              -0.000021505              -0.000700390               0.999999990              -0.000019038              -0.000702570               0.999999990              -0.000021533              -0.000713038               0.999999990              -0.000026627              -0.000729817               0.999999990              -0.000033398              -0.000751357               0.999999990              -0.000040996              -0.000776578               0.999999990              -0.000049016              -0.000804578               0.999999990              -0.000057014              -0.000834655               0.999999990              -0.000064520              -0.000866214               0.999999990              -0.000070947              -0.000898725               0.999999990              -0.000075485              -0.000931587               0.999999990              -0.000078061              -0.000964293               0.999999990              -0.000078453              -0.000996792               0.999999990              -0.000076618              -0.001029175               0.999999990              -0.000072782              -0.001061843               0.999999990              -0.000056117              -0.000757122               0.999999990              -0.000024703              -0.000747291               0.999999990              -0.000012558              -0.000743139               0.999999990              -0.000009202              -0.000746512               0.999999990              -0.000010103              -0.000756571               0.999999990              -0.000013349              -0.000772044               0.999999990              -0.000018084              -0.000791832               0.999999990              -0.000023711              -0.000815206               0.999999990              -0.000029744              -0.000841391               0.999999990              -0.000035807              -0.000869872               0.999999990              -0.000041592              -0.000900220               0.999999990              -0.000046679              -0.000931974               0.999999990              -0.000050283              -0.000964547               0.999999990              -0.000051999              -0.000997406               0.999999990              -0.000051399              -0.001030172               0.999999990              -0.000047866              -0.001062782               0.999999990              -0.000040911              -0.001095358               0.999999990              -0.000037813              -0.000776671               0.999999990              -0.000015829              -0.000775811               0.999999990              -0.000006588              -0.000776086               0.999999990              -0.000003382              -0.000781365               0.999999990              -0.000003386              -0.000791919               0.999999990              -0.000005146              -0.000807076               0.999999990              -0.000008000              -0.000826058               0.999999990              -0.000011667              -0.000848340               0.999999990              -0.000015607              -0.000873444               0.999999990              -0.000019550              -0.000900947               0.999999990              -0.000023295              -0.000930474               0.999999990              -0.000026698              -0.000961705               0.999999990              -0.000029209              -0.000994197               0.999999990              -0.000030259              -0.001027474               0.999999990              -0.000029446              -0.001061126               0.999999990              -0.000025962              -0.001094762               0.999999990              -0.000018895              -0.001128156               0.999999990              -0.000019032              -0.000788424               0.999999990              -0.000007743              -0.000793359               0.999999990              -0.000002742              -0.000796865               0.999999990              -0.000000774              -0.000803783               0.999999990              -0.000000583              -0.000815020               0.999999990              -0.000001320              -0.000830290               0.999999990              -0.000002647              -0.000849139               0.999999990              -0.000004399              -0.000871108               0.999999990              -0.000006282              -0.000895764               0.999999990              -0.000008149              -0.000922786               0.999999990              -0.000009952              -0.000951841               0.999999990              -0.000011572              -0.000982662               0.999999990              -0.000012856              -0.001014945               0.999999990              -0.000013425              -0.001048363               0.999999990              -0.000012952              -0.001082519               0.999999990              -0.000010947              -0.001117028               0.999999990              -0.000006616              -0.001151452               0.999999990              -0.000000000              -0.000792367               0.999999990              -0.000000000              -0.000799301               0.999999990              -0.000000000              -0.000803968               0.999999990               0.000000000              -0.000811495               0.999999990              -0.000000000              -0.000822997               0.999999990              -0.000000000              -0.000838383               0.999999990               0.000000000              -0.000857271               0.999999990               0.000000000              -0.000879224               0.999999990              -0.000000000              -0.000903828               0.999999990               0.000000000              -0.000930692               0.999999990              -0.000000000              -0.000959575               0.999999990              -0.000000000              -0.000990209               0.999999990              -0.000000000              -0.001022354               0.999999990              -0.000000000              -0.001055781               0.999999990              -0.000000000              -0.001090177               0.999999990               0.000000000              -0.001125066               0.999999990              -0.000000000              -0.001159853               0.999999990               0.000192548              -0.000000000               0.999999990               0.000223639              -0.000000000               0.999999990               0.000238247              -0.000000000               0.999999990               0.000246661              -0.000000000               0.999999990               0.000252991              -0.000000000               0.999999990               0.000258925              -0.000000000               0.999999990               0.000265344              -0.000000000               0.999999990               0.000272736              -0.000000000               0.999999990               0.000281288              -0.000000000               0.999999990               0.000290977               0.000000000               0.999999990               0.000301808              -0.000000000               0.999999990               0.000313784               0.000000000               0.999999990               0.000326838              -0.000000000               0.999999990               0.000340862               0.000000000               0.999999990               0.000355655              -0.000000000               0.999999990               0.000370962              -0.000000000               0.999999990               0.000386462               0.000000000               0.999999990               0.000191523              -0.000077951               0.999999990               0.000220923              -0.000067186               0.999999990               0.000234484              -0.000063470               0.999999990               0.000242285              -0.000063501               0.999999990               0.000248323              -0.000065560               0.999999990               0.000254285              -0.000069013               0.999999990               0.000260871              -0.000073383               0.999999990               0.000268401              -0.000078394               0.999999990               0.000277058              -0.000083887               0.999999990               0.000286890              -0.000089694               0.999999990               0.000297864              -0.000095727               0.999999990               0.000309888              -0.000101942               0.999999990               0.000322913              -0.000108091               0.999999990               0.000336827              -0.000113791               0.999999990               0.000351407              -0.000118801               0.999999990               0.000366366              -0.000122928               0.999999990               0.000381361              -0.000125781               0.999999990               0.000188492              -0.000155017               0.999999990               0.000213056              -0.000133659               0.999999990               0.000223806              -0.000126687               0.999999990               0.000230088              -0.000127078               0.999999990               0.000235424              -0.000131653               0.999999990               0.000241219              -0.000138776               0.999999990               0.000247983              -0.000147647               0.999999990               0.000255899              -0.000157779               0.999999990               0.000264941              -0.000168794               0.999999990               0.000275093              -0.000180334               0.999999990               0.000286227              -0.000192350               0.999999990               0.000298144              -0.000204659               0.999999990               0.000310767              -0.000216595               0.999999990               0.000323888              -0.000227728               0.999999990               0.000337288              -0.000237683               0.999999990               0.000350847              -0.000245961               0.999999990               0.000364441              -0.000251997               0.999999990               0.000183636              -0.000230363               0.999999990               0.000200564              -0.000198796               0.999999990               0.000207254              -0.000189396               0.999999990               0.000211563              -0.000190860               0.999999990               0.000216152              -0.000198372               0.999999990               0.000221866              -0.000209627               0.999999990               0.000228980              -0.000223263               0.999999990               0.000237356              -0.000238572               0.999999990               0.000246875              -0.000255036               0.999999990               0.000257309              -0.000272250               0.999999990               0.000268473              -0.000289974               0.999999990               0.000280213              -0.000307689               0.999999990               0.000292218              -0.000324865               0.999999990               0.000304318              -0.000340986               0.999999990               0.000316455              -0.000355671               0.999999990               0.000328556              -0.000368626               0.999999990               0.000340655              -0.000379519               0.999999990               0.000176901              -0.000303273               0.999999990               0.000183849              -0.000262218               0.999999990               0.000185964              -0.000251467               0.999999990               0.000188507              -0.000254817               0.999999990               0.000192756              -0.000265746               0.999999990               0.000198835              -0.000281344               0.999999990               0.000206597              -0.000299878               0.999999990               0.000215697              -0.000320278               0.999999990               0.000225850              -0.000341956               0.999999990               0.000236752              -0.000364466               0.999999990               0.000248211              -0.000387267               0.999999990               0.000259870              -0.000409888               0.999999990               0.000271409              -0.000431688               0.999999990               0.000282775              -0.000452294               0.999999990               0.000293960              -0.000471562               0.999999990               0.000305009              -0.000489439               0.999999990               0.000315899              -0.000505846               0.999999990               0.000168173              -0.000373081               0.999999990               0.000163711              -0.000323762               0.999999990               0.000161708              -0.000312685               0.999999990               0.000163332              -0.000318520               0.999999990               0.000168014              -0.000333123               0.999999990               0.000175100              -0.000353016               0.999999990               0.000183947              -0.000376272               0.999999990               0.000194105              -0.000401489               0.999999990               0.000205150              -0.000428033               0.999999990               0.000216704              -0.000455407               0.999999990               0.000228380              -0.000482897               0.999999990               0.000239831              -0.000509913               0.999999990               0.000250934              -0.000535964               0.999999990               0.000261669              -0.000560892               0.999999990               0.000272015              -0.000584716               0.999999990               0.000282020              -0.000607471               0.999999990               0.000291672              -0.000629069               0.999999990               0.000157666              -0.000439011               0.999999990               0.000141370              -0.000383304               0.999999990               0.000136401              -0.000372713               0.999999990               0.000138190              -0.000381298               0.999999990               0.000144090              -0.000399540               0.999999990               0.000152682              -0.000423605               0.999999990               0.000163057              -0.000451204               0.999999990               0.000174497              -0.000480827               0.999999990               0.000186420              -0.000511904               0.999999990               0.000198404              -0.000543894               0.999999990               0.000210071              -0.000575658               0.999999990               0.000221211              -0.000606662               0.999999990               0.000231657              -0.000636794               0.999999990               0.000241453              -0.000666065               0.999999990               0.000250691              -0.000694479               0.999999990               0.000259436              -0.000721999               0.999999990               0.000267763              -0.000748634               0.999999990               0.000145627              -0.000500340               0.999999990               0.000118108              -0.000440675               0.999999990               0.000111639              -0.000431132               0.999999990               0.000114708              -0.000442369               0.999999990               0.000122461              -0.000464051               0.999999990               0.000132893              -0.000491886               0.999999990               0.000144775              -0.000523539               0.999999990               0.000157314              -0.000557515               0.999999990               0.000169936              -0.000593026               0.999999990               0.000182215              -0.000629098               0.999999990               0.000193721              -0.000664665               0.999999990               0.000204156              -0.000699512               0.999999990               0.000213589              -0.000733652               0.999999990               0.000222252              -0.000767132               0.999999990               0.000230257              -0.000799907               0.999999990               0.000237782              -0.000831875               0.999999990               0.000244919              -0.000863069               0.999999990               0.000132688              -0.000556038               0.999999990               0.000094913              -0.000495770               0.999999990               0.000088913              -0.000487297               0.999999990               0.000093958              -0.000500868               0.999999990               0.000103761              -0.000525716               0.999999990               0.000115913              -0.000557241               0.999999990               0.000129148              -0.000592880               0.999999990               0.000142694              -0.000631092               0.999999990               0.000155989              -0.000670575               0.999999990               0.000168266              -0.000710295               0.999999990               0.000179025              -0.000749492               0.999999990               0.000188299              -0.000787989               0.999999990               0.000196537              -0.000825940               0.999999990               0.000203994              -0.000863364               0.999999990               0.000211026              -0.000900096               0.999999990               0.000217800              -0.000936063               0.999999990               0.000224410              -0.000971250               0.999999990               0.000119887              -0.000608038               0.999999990               0.000076669              -0.000554559               0.999999990               0.000068083              -0.000541775               0.999999990               0.000071588              -0.000550059               0.999999990               0.000079918              -0.000569842               0.999999990               0.000090626              -0.000596686               0.999999990               0.000102559              -0.000628145               0.999999990               0.000115006              -0.000662610               0.999999990               0.000127423              -0.000698981               0.999999990               0.000139120              -0.000736216               0.999999990               0.000149450              -0.000773612               0.999999990               0.000158004              -0.000810680               0.999999990               0.000165230              -0.000847352               0.999999990               0.000171460              -0.000883676               0.999999990               0.000177018              -0.000919780               0.999999990               0.000182439              -0.000955371               0.999999990               0.000187961              -0.000990361               0.999999990               0.000105605              -0.000654922               0.999999990               0.000060666              -0.000610742               0.999999990               0.000049480              -0.000597034               0.999999990               0.000050893              -0.000601360               0.999999990               0.000057391              -0.000616888               0.999999990               0.000066454              -0.000639515               0.999999990               0.000076914              -0.000667040               0.999999990               0.000088024              -0.000697964               0.999999990               0.000099316              -0.000731162               0.999999990               0.000110149              -0.000765733               0.999999990               0.000119860              -0.000801035               0.999999990               0.000127809              -0.000836382               0.999999990               0.000134047              -0.000871488               0.999999990               0.000138922              -0.000906435               0.999999990               0.000142767              -0.000941256               0.999999990               0.000146158              -0.000976038               0.999999990               0.000149497              -0.001010665               0.999999990               0.000090175              -0.000695792               0.999999990               0.000046770              -0.000662868               0.999999990               0.000033826              -0.000650754               0.999999990               0.000033063              -0.000653080               0.999999990               0.000037548              -0.000665344               0.999999990               0.000044708              -0.000684561               0.999999990               0.000053376              -0.000708741               0.999999990               0.000062909              -0.000736535               0.999999990               0.000072673              -0.000766923               0.999999990               0.000082238              -0.000799032               0.999999990               0.000091053              -0.000832269               0.999999990               0.000098405              -0.000865981               0.999999990               0.000103824              -0.000899676               0.999999990               0.000107379              -0.000933176               0.999999990               0.000109352              -0.000966534               0.999999990               0.000110177              -0.000999974               0.999999990               0.000110350              -0.001033677               0.999999990               0.000073655              -0.000730013               0.999999990               0.000034881              -0.000709033               0.999999990               0.000021505              -0.000700390               0.999999990               0.000019038              -0.000702570               0.999999990               0.000021533              -0.000713038               0.999999990               0.000026627              -0.000729817               0.999999990               0.000033398              -0.000751357               0.999999990               0.000040996              -0.000776578               0.999999990               0.000049016              -0.000804578               0.999999990               0.000057014              -0.000834655               0.999999990               0.000064520              -0.000866214               0.999999990               0.000070947              -0.000898725               0.999999990               0.000075485              -0.000931587               0.999999990               0.000078061              -0.000964293               0.999999990               0.000078453              -0.000996792               0.999999990               0.000076618              -0.001029175               0.999999990               0.000072782              -0.001061843               0.999999990               0.000056117              -0.000757122               0.999999990               0.000024703              -0.000747291               0.999999990               0.000012558              -0.000743139               0.999999990               0.000009202              -0.000746512               0.999999990               0.000010103              -0.000756571               0.999999990               0.000013349              -0.000772044               0.999999990               0.000018084              -0.000791832               0.999999990               0.000023711              -0.000815206               0.999999990               0.000029744              -0.000841391               0.999999990               0.000035807              -0.000869872               0.999999990               0.000041592              -0.000900220               0.999999990               0.000046679              -0.000931974               0.999999990               0.000050283              -0.000964547               0.999999990               0.000051999              -0.000997406               0.999999990               0.000051399              -0.001030172               0.999999990               0.000047866              -0.001062782               0.999999990               0.000040911              -0.001095358               0.999999990               0.000037813              -0.000776671               0.999999990               0.000015829              -0.000775811               0.999999990               0.000006588              -0.000776086               0.999999990               0.000003382              -0.000781365               0.999999990               0.000003386              -0.000791919               0.999999990               0.000005146              -0.000807076               0.999999990               0.000008000              -0.000826058               0.999999990               0.000011667              -0.000848340               0.999999990               0.000015607              -0.000873444               0.999999990               0.000019550              -0.000900947               0.999999990               0.000023295              -0.000930474               0.999999990               0.000026698              -0.000961705               0.999999990               0.000029209              -0.000994197               0.999999990               0.000030259              -0.001027474               0.999999990               0.000029446              -0.001061126               0.999999990               0.000025962              -0.001094762               0.999999990               0.000018895              -0.001128156               0.999999990               0.000019032              -0.000788424               0.999999990               0.000007743              -0.000793359               0.999999990               0.000002742              -0.000796865               0.999999990               0.000000774              -0.000803783               0.999999990               0.000000583              -0.000815020               0.999999990               0.000001320              -0.000830290               0.999999990               0.000002647              -0.000849139               0.999999990               0.000004399              -0.000871108               0.999999990               0.000006282              -0.000895764               0.999999990               0.000008149              -0.000922786               0.999999990               0.000009952              -0.000951841               0.999999990               0.000011572              -0.000982662               0.999999990               0.000012856              -0.001014945               0.999999990               0.000013425              -0.001048363               0.999999990               0.000012952              -0.001082519               0.999999990               0.000010947              -0.001117028               0.999999990               0.000006616              -0.001151452               0.999999990              -0.000000000              -0.000792367               0.999999990              -0.000000000              -0.000799301               0.999999990              -0.000000000              -0.000803968               0.999999990               0.000000000              -0.000811495               0.999999990              -0.000000000              -0.000822997               0.999999990              -0.000000000              -0.000838383               0.999999990               0.000000000              -0.000857271               0.999999990               0.000000000              -0.000879224               0.999999990              -0.000000000              -0.000903828               0.999999990               0.000000000              -0.000930692               0.999999990              -0.000000000              -0.000959575               0.999999990              -0.000000000              -0.000990209               0.999999990              -0.000000000              -0.001022354               0.999999990              -0.000000000              -0.001055781               0.999999990              -0.000000000              -0.001090177               0.999999990               0.000000000              -0.001125066               0.999999990              -0.000000000              -0.001159853               0.999999990               0.000192548              -0.000000000               0.999999990               0.000223639              -0.000000000               0.999999990               0.000238247              -0.000000000               0.999999990               0.000246661              -0.000000000               0.999999990               0.000252991              -0.000000000               0.999999990               0.000258925              -0.000000000               0.999999990               0.000265344              -0.000000000               0.999999990               0.000272736              -0.000000000               0.999999990               0.000281288              -0.000000000               0.999999990               0.000290977               0.000000000               0.999999990               0.000301808              -0.000000000               0.999999990               0.000313784               0.000000000               0.999999990               0.000326838              -0.000000000               0.999999990               0.000340862               0.000000000               0.999999990               0.000355655              -0.000000000               0.999999990               0.000370962              -0.000000000               0.999999990               0.000386462               0.000000000               0.999999990               0.000191523               0.000077951               0.999999990               0.000220923               0.000067186               0.999999990               0.000234484               0.000063470               0.999999990               0.000242285               0.000063501               0.999999990               0.000248323               0.000065560               0.999999990               0.000254285               0.000069013               0.999999990               0.000260871               0.000073383               0.999999990               0.000268401               0.000078394               0.999999990               0.000277058               0.000083887               0.999999990               0.000286890               0.000089694               0.999999990               0.000297864               0.000095727               0.999999990               0.000309888               0.000101942               0.999999990               0.000322913               0.000108091               0.999999990               0.000336827               0.000113791               0.999999990               0.000351407               0.000118801               0.999999990               0.000366366               0.000122928               0.999999990               0.000381361               0.000125781               0.999999990               0.000188492               0.000155017               0.999999990               0.000213056               0.000133659               0.999999990               0.000223806               0.000126687               0.999999990               0.000230088               0.000127078               0.999999990               0.000235424               0.000131653               0.999999990               0.000241219               0.000138776               0.999999990               0.000247983               0.000147647               0.999999990               0.000255899               0.000157779               0.999999990               0.000264941               0.000168794               0.999999990               0.000275093               0.000180334               0.999999990               0.000286227               0.000192350               0.999999990               0.000298144               0.000204659               0.999999990               0.000310767               0.000216595               0.999999990               0.000323888               0.000227728               0.999999990               0.000337288               0.000237683               0.999999990               0.000350847               0.000245961               0.999999990               0.000364441               0.000251997               0.999999990               0.000183636               0.000230363               0.999999990               0.000200564               0.000198796               0.999999990               0.000207254               0.000189396               0.999999990               0.000211563               0.000190860               0.999999990               0.000216152               0.000198372               0.999999990               0.000221866               0.000209627               0.999999990               0.000228980               0.000223263               0.999999990               0.000237356               0.000238572               0.999999990               0.000246875               0.000255036               0.999999990               0.000257309               0.000272250               0.999999990               0.000268473               0.000289974               0.999999990               0.000280213               0.000307689               0.999999990               0.000292218               0.000324865               0.999999990               0.000304318               0.000340986               0.999999990               0.000316455               0.000355671               0.999999990               0.000328556               0.000368626               0.999999990               0.000340655               0.000379519               0.999999990               0.000176901               0.000303273               0.999999990               0.000183849               0.000262218               0.999999990               0.000185964               0.000251467               0.999999990               0.000188507               0.000254817               0.999999990               0.000192756               0.000265746               0.999999990               0.000198835               0.000281344               0.999999990               0.000206597               0.000299878               0.999999990               0.000215697               0.000320278               0.999999990               0.000225850               0.000341956               0.999999990               0.000236752               0.000364466               0.999999990               0.000248211               0.000387267               0.999999990               0.000259870               0.000409888               0.999999990               0.000271409               0.000431688               0.999999990               0.000282775               0.000452294               0.999999990               0.000293960               0.000471562               0.999999990               0.000305009               0.000489439               0.999999990               0.000315899               0.000505846               0.999999990               0.000168173               0.000373081               0.999999990               0.000163711               0.000323762               0.999999990               0.000161708               0.000312685               0.999999990               0.000163332               0.000318520               0.999999990               0.000168014               0.000333123               0.999999990               0.000175100               0.000353016               0.999999990               0.000183947               0.000376272               0.999999990               0.000194105               0.000401489               0.999999990               0.000205150               0.000428033               0.999999990               0.000216704               0.000455407               0.999999990               0.000228380               0.000482897               0.999999990               0.000239831               0.000509913               0.999999990               0.000250934               0.000535964               0.999999990               0.000261669               0.000560892               0.999999990               0.000272015               0.000584716               0.999999990               0.000282020               0.000607471               0.999999990               0.000291672               0.000629069               0.999999990               0.000157666               0.000439011               0.999999990               0.000141370               0.000383304               0.999999990               0.000136401               0.000372713               0.999999990               0.000138190               0.000381298               0.999999990               0.000144090               0.000399540               0.999999990               0.000152682               0.000423605               0.999999990               0.000163057               0.000451204               0.999999990               0.000174497               0.000480827               0.999999990               0.000186420               0.000511904               0.999999990               0.000198404               0.000543894               0.999999990               0.000210071               0.000575658               0.999999990               0.000221211               0.000606662               0.999999990               0.000231657               0.000636794               0.999999990               0.000241453               0.000666065               0.999999990               0.000250691               0.000694479               0.999999990               0.000259436               0.000721999               0.999999990               0.000267763               0.000748634               0.999999990               0.000145627               0.000500340               0.999999990               0.000118108               0.000440675               0.999999990               0.000111639               0.000431132               0.999999990               0.000114708               0.000442369               0.999999990               0.000122461               0.000464051               0.999999990               0.000132893               0.000491886               0.999999990               0.000144775               0.000523539               0.999999990               0.000157314               0.000557515               0.999999990               0.000169936               0.000593026               0.999999990               0.000182215               0.000629098               0.999999990               0.000193721               0.000664665               0.999999990               0.000204156               0.000699512               0.999999990               0.000213589               0.000733652               0.999999990               0.000222252               0.000767132               0.999999990               0.000230257               0.000799907               0.999999990               0.000237782               0.000831875               0.999999990               0.000244919               0.000863069               0.999999990               0.000132688               0.000556038               0.999999990               0.000094913               0.000495770               0.999999990               0.000088913               0.000487297               0.999999990               0.000093958               0.000500868               0.999999990               0.000103761               0.000525716               0.999999990               0.000115913               0.000557241               0.999999990               0.000129148               0.000592880               0.999999990               0.000142694               0.000631092               0.999999990               0.000155989               0.000670575               0.999999990               0.000168266               0.000710295               0.999999990               0.000179025               0.000749492               0.999999990               0.000188299               0.000787989               0.999999990               0.000196537               0.000825940               0.999999990               0.000203994               0.000863364               0.999999990               0.000211026               0.000900096               0.999999990               0.000217800               0.000936063               0.999999990               0.000224410               0.000971250               0.999999990               0.000119887               0.000608038               0.999999990               0.000076669               0.000554559               0.999999990               0.000068083               0.000541775               0.999999990               0.000071588               0.000550059               0.999999990               0.000079918               0.000569842               0.999999990               0.000090626               0.000596686               0.999999990               0.000102559               0.000628145               0.999999990               0.000115006               0.000662610               0.999999990               0.000127423               0.000698981               0.999999990               0.000139120               0.000736216               0.999999990               0.000149450               0.000773612               0.999999990               0.000158004               0.000810680               0.999999990               0.000165230               0.000847352               0.999999990               0.000171460               0.000883676               0.999999990               0.000177018               0.000919780               0.999999990               0.000182439               0.000955371               0.999999990               0.000187961               0.000990361               0.999999990               0.000105605               0.000654922               0.999999990               0.000060666               0.000610742               0.999999990               0.000049480               0.000597034               0.999999990               0.000050893               0.000601360               0.999999990               0.000057391               0.000616888               0.999999990               0.000066454               0.000639515               0.999999990               0.000076914               0.000667040               0.999999990               0.000088024               0.000697964               0.999999990               0.000099316               0.000731162               0.999999990               0.000110149               0.000765733               0.999999990               0.000119860               0.000801035               0.999999990               0.000127809               0.000836382               0.999999990               0.000134047               0.000871488               0.999999990               0.000138922               0.000906435               0.999999990               0.000142767               0.000941256               0.999999990               0.000146158               0.000976038               0.999999990               0.000149497               0.001010665               0.999999990               0.000090175               0.000695792               0.999999990               0.000046770               0.000662868               0.999999990               0.000033826               0.000650754               0.999999990               0.000033063               0.000653080               0.999999990               0.000037548               0.000665344               0.999999990               0.000044708               0.000684561               0.999999990               0.000053376               0.000708741               0.999999990               0.000062909               0.000736535               0.999999990               0.000072673               0.000766923               0.999999990               0.000082238               0.000799032               0.999999990               0.000091053               0.000832269               0.999999990               0.000098405               0.000865981               0.999999990               0.000103824               0.000899676               0.999999990               0.000107379               0.000933176               0.999999990               0.000109352               0.000966534               0.999999990               0.000110177               0.000999974               0.999999990               0.000110350               0.001033677               0.999999990               0.000073655               0.000730013               0.999999990               0.000034881               0.000709033               0.999999990               0.000021505               0.000700390               0.999999990               0.000019038               0.000702570               0.999999990               0.000021533               0.000713038               0.999999990               0.000026627               0.000729817               0.999999990               0.000033398               0.000751357               0.999999990               0.000040996               0.000776578               0.999999990               0.000049016               0.000804578               0.999999990               0.000057014               0.000834655               0.999999990               0.000064520               0.000866214               0.999999990               0.000070947               0.000898725               0.999999990               0.000075485               0.000931587               0.999999990               0.000078061               0.000964293               0.999999990               0.000078453               0.000996792               0.999999990               0.000076618               0.001029175               0.999999990               0.000072782               0.001061843               0.999999990               0.000056117               0.000757122               0.999999990               0.000024703               0.000747291               0.999999990               0.000012558               0.000743139               0.999999990               0.000009202               0.000746512               0.999999990               0.000010103               0.000756571               0.999999990               0.000013349               0.000772044               0.999999990               0.000018084               0.000791832               0.999999990               0.000023711               0.000815206               0.999999990               0.000029744               0.000841391               0.999999990               0.000035807               0.000869872               0.999999990               0.000041592               0.000900220               0.999999990               0.000046679               0.000931974               0.999999990               0.000050283               0.000964547               0.999999990               0.000051999               0.000997406               0.999999990               0.000051399               0.001030172               0.999999990               0.000047866               0.001062782               0.999999990               0.000040911               0.001095358               0.999999990               0.000037813               0.000776671               0.999999990               0.000015829               0.000775811               0.999999990               0.000006588               0.000776086               0.999999990               0.000003382               0.000781365               0.999999990               0.000003386               0.000791919               0.999999990               0.000005146               0.000807076               0.999999990               0.000008000               0.000826058               0.999999990               0.000011667               0.000848340               0.999999990               0.000015607               0.000873444               0.999999990               0.000019550               0.000900947               0.999999990               0.000023295               0.000930474               0.999999990               0.000026698               0.000961705               0.999999990               0.000029209               0.000994197               0.999999990               0.000030259               0.001027474               0.999999990               0.000029446               0.001061126               0.999999990               0.000025962               0.001094762               0.999999990               0.000018895               0.001128156               0.999999990               0.000019032               0.000788424               0.999999990               0.000007743               0.000793359               0.999999990               0.000002742               0.000796865               0.999999990               0.000000774               0.000803783               0.999999990               0.000000583               0.000815020               0.999999990               0.000001320               0.000830290               0.999999990               0.000002647               0.000849139               0.999999990               0.000004399               0.000871108               0.999999990               0.000006282               0.000895764               0.999999990               0.000008149               0.000922786               0.999999990               0.000009952               0.000951841               0.999999990               0.000011572               0.000982662               0.999999990               0.000012856               0.001014945               0.999999990               0.000013425               0.001048363               0.999999990               0.000012952               0.001082519               0.999999990               0.000010947               0.001117028               0.999999990               0.000006616               0.001151452               0.999999990               0.000000000               0.000792367               0.999999990               0.000000000               0.000799301               0.999999990               0.000000000               0.000803968               0.999999990              -0.000000000               0.000811495               0.999999990               0.000000000               0.000822997               0.999999990               0.000000000               0.000838383               0.999999990              -0.000000000               0.000857271               0.999999990              -0.000000000               0.000879224               0.999999990              -0.000000000               0.000903828               0.999999990              -0.000000000               0.000930692               0.999999990               0.000000000               0.000959575               0.999999990               0.000000000               0.000990209               0.999999990               0.000000000               0.001022354               0.999999990              -0.000000000               0.001055781               0.999999990              -0.000000000               0.001090177               0.999999990               0.000000000               0.001125066               0.999999990              -0.000000000               0.001159853               0.999999990 </DataArray>
<DataArray type="Float64"                                    Name="defo"                                                      NumberOfComponents=" 3" format="ascii">
             -0.000192548              -0.000000000               0.999999990              -0.000223639               0.000000000               0.999999990              -0.000238247               0.000000000               0.999999990              -0.000246661               0.000000000               0.999999990              -0.000252991              -0.000000000               0.999999990              -0.000258925               0.000000000               0.999999990              -0.000265344              -0.000000000               0.999999990              -0.000272736               0.000000000               0.999999990              -0.000281288               0.000000000               0.999999990              -0.000290977               0.000000000               0.999999990              -0.000301808               0.000000000               0.999999990              -0.000313784               0.000000000               0.999999990              -0.000326838               0.000000000               0.999999990              -0.000340862               0.000000000               0.999999990              -0.000355655               0.000000000               0.999999990              -0.000370962              -0.000000000               0.999999990              -0.000386462               0.000000000               0.999999990              -0.000191523               0.000077951               0.999999990              -0.000220923               0.000067186               0.999999990              -0.000234484               0.000063470               0.999999990              -0.000242285               0.000063501               0.999999990              -0.000248323               0.000065560               0.999999990              -0.000254285               0.000069013               0.999999990              -0.000260871               0.000073383               0.999999990              -0.000268401               0.000078394               0.999999990              -0.000277058               0.000083887               0.999999990              -0.000286890               0.000089694               0.999999990              -0.000297864               0.000095727               0.999999990              -0.000309888               0.000101942               0.999999990              -0.000322913               0.000108091               0.999999990              -0.000336827               0.000113791               0.999999990              -0.000351407               0.000118801               0.999999990              -0.000366366               0.000122928               0.999999990              -0.000381361               0.000125781               0.999999990              -0.000188492               0.000155017               0.999999990              -0.000213056               0.000133659               0.999999990              -0.000223806               0.000126687               0.999999990              -0.000230088               0.000127078               0.999999990              -0.000235424               0.000131653               0.999999990              -0.000241219               0.000138776               0.999999990              -0.000247983               0.000147647               0.999999990              -0.000255899               0.000157779               0.999999990              -0.000264941               0.000168794               0.999999990              -0.000275093               0.000180334               0.999999990              -0.000286227               0.000192350               0.999999990              -0.000298144               0.000204659               0.999999990              -0.000310767               0.000216595               0.999999990              -0.000323888               0.000227728               0.999999990              -0.000337288               0.000237683               0.999999990              -0.000350847               0.000245961               0.999999990              -0.000364441               0.000251997               0.999999990              -0.000183636               0.000230363               0.999999990              -0.000200564               0.000198796               0.999999990              -0.000207254               0.000189396               0.999999990              -0.000211563               0.000190860               0.999999990              -0.000216152               0.000198372               0.999999990              -0.000221866               0.000209627               0.999999990              -0.000228980               0.000223263               0.999999990              -0.000237356               0.000238572               0.999999990              -0.000246875               0.000255036               0.999999990              -0.000257309               0.000272250               0.999999990              -0.000268473               0.000289974               0.999999990              -0.000280213               0.000307689               0.999999990              -0.000292218               0.000324865               0.999999990              -0.000304318               0.000340986               0.999999990              -0.000316455               0.000355671               0.999999990              -0.000328556               0.000368626               0.999999990              -0.000340655               0.000379519               0.999999990              -0.000176901               0.000303273               0.999999990              -0.000183849               0.000262218               0.999999990              -0.000185964               0.000251467               0.999999990              -0.000188507               0.000254817               0.999999990              -0.000192756               0.000265746               0.999999990              -0.000198835               0.000281344               0.999999990              -0.000206597               0.000299878               0.999999990              -0.000215697               0.000320278               0.999999990              -0.000225850               0.000341956               0.999999990              -0.000236752               0.000364466               0.999999990              -0.000248211               0.000387267               0.999999990              -0.000259870               0.000409888               0.999999990              -0.000271409               0.000431688               0.999999990              -0.000282775               0.000452294               0.999999990              -0.000293960               0.000471562               0.999999990              -0.000305009               0.000489439               0.999999990              -0.000315899               0.000505846               0.999999990              -0.000168173               0.000373081               0.999999990              -0.000163711               0.000323762               0.999999990              -0.000161708               0.000312685               0.999999990              -0.000163332               0.000318520               0.999999990              -0.000168014               0.000333123               0.999999990              -0.000175100               0.000353016               0.999999990              -0.000183947               0.000376272               0.999999990              -0.000194105               0.000401489               0.999999990              -0.000205150               0.000428033               0.999999990              -0.000216704               0.000455407               0.999999990              -0.000228380               0.000482897               0.999999990              -0.000239831               0.000509913               0.999999990              -0.000250934               0.000535964               0.999999990              -0.000261669               0.000560892               0.999999990              -0.000272015               0.000584716               0.999999990              -0.000282020               0.000607471               0.999999990              -0.000291672               0.000629069               0.999999990              -0.000157666               0.000439011               0.999999990              -0.000141370               0.000383304               0.999999990              -0.000136401               0.000372713               0.999999990              -0.000138190               0.000381298               0.999999990              -0.000144090               0.000399540               0.999999990              -0.000152682               0.000423605               0.999999990              -0.000163057               0.000451204               0.999999990              -0.000174497               0.000480827               0.999999990              -0.000186420               0.000511904               0.999999990              -0.000198404               0.000543894               0.999999990              -0.000210071               0.000575658               0.999999990              -0.000221211               0.000606662               0.999999990              -0.000231657               0.000636794               0.999999990              -0.000241453               0.000666065               0.999999990              -0.000250691               0.000694479               0.999999990              -0.000259436               0.000721999               0.999999990              -0.000267763               0.000748634               0.999999990              -0.000145627               0.000500340               0.999999990              -0.000118108               0.000440675               0.999999990              -0.000111639               0.000431132               0.999999990              -0.000114708               0.000442369               0.999999990              -0.000122461               0.000464051               0.999999990              -0.000132893               0.000491886               0.999999990              -0.000144775               0.000523539               0.999999990              -0.000157314               0.000557515               0.999999990              -0.000169936               0.000593026               0.999999990              -0.000182215               0.000629098               0.999999990              -0.000193721               0.000664665               0.999999990              -0.000204156               0.000699512               0.999999990              -0.000213589               0.000733652               0.999999990              -0.000222252               0.000767132               0.999999990              -0.000230257               0.000799907               0.999999990              -0.000237782               0.000831875               0.999999990              -0.000244919               0.000863069               0.999999990              -0.000132688               0.000556038               0.999999990              -0.000094913               0.000495770               0.999999990              -0.000088913               0.000487297               0.999999990              -0.000093958               0.000500868               0.999999990              -0.000103761               0.000525716               0.999999990              -0.000115913               0.000557241               0.999999990              -0.000129148               0.000592880               0.999999990              -0.000142694               0.000631092               0.999999990              -0.000155989               0.000670575               0.999999990              -0.000168266               0.000710295               0.999999990              -0.000179025               0.000749492               0.999999990              -0.000188299               0.000787989               0.999999990              -0.000196537               0.000825940               0.999999990              -0.000203994               0.000863364               0.999999990              -0.000211026               0.000900096               0.999999990              -0.000217800               0.000936063               0.999999990              -0.000224410               0.000971250               0.999999990              -0.000119887               0.000608038               0.999999990              -0.000076669               0.000554559               0.999999990              -0.000068083               0.000541775               0.999999990              -0.000071588               0.000550059               0.999999990              -0.000079918               0.000569842               0.999999990              -0.000090626               0.000596686               0.999999990              -0.000102559               0.000628145               0.999999990              -0.000115006               0.000662610               0.999999990              -0.000127423               0.000698981               0.999999990              -0.000139120               0.000736216               0.999999990              -0.000149450               0.000773612               0.999999990              -0.000158004               0.000810680               0.999999990              -0.000165230               0.000847352               0.999999990              -0.000171460               0.000883676               0.999999990              -0.000177018               0.000919780               0.999999990              -0.000182439               0.000955371               0.999999990              -0.000187961               0.000990361               0.999999990              -0.000105605               0.000654922               0.999999990              -0.000060666               0.000610742               0.999999990              -0.000049480               0.000597034               0.999999990              -0.000050893               0.000601360               0.999999990              -0.000057391               0.000616888               0.999999990              -0.000066454               0.000639515               0.999999990              -0.000076914               0.000667040               0.999999990              -0.000088024               0.000697964               0.999999990              -0.000099316               0.000731162               0.999999990              -0.000110149               0.000765733               0.999999990              -0.000119860               0.000801035               0.999999990              -0.000127809               0.000836382               0.999999990              -0.000134047               0.000871488               0.999999990              -0.000138922               0.000906435               0.999999990              -0.000142767               0.000941256               0.999999990              -0.000146158               0.000976038               0.999999990              -0.000149497               0.001010665               0.999999990              -0.000090175               0.000695792               0.999999990              -0.000046770               0.000662868               0.999999990              -0.000033826               0.000650754               0.999999990              -0.000033063               0.000653080               0.999999990              -0.000037548               0.000665344               0.999999990              -0.000044708               0.000684561               0.999999990              -0.000053376               0.000708741               0.999999990              -0.000062909               0.000736535               0.999999990              -0.000072673               0.000766923               0.999999990              -0.000082238               0.000799032               0.999999990              -0.000091053               0.000832269               0.999999990              -0.000098405               0.000865981               0.999999990              -0.000103824               0.000899676               0.999999990              -0.000107379               0.000933176               0.999999990              -0.000109352               0.000966534               0.999999990              -0.000110177               0.000999974               0.999999990              -0.000110350               0.001033677               0.999999990              -0.000073655               0.000730013               0.999999990              -0.000034881               0.000709033               0.999999990              -0.000021505               0.000700390               0.999999990              -0.000019038               0.000702570               0.999999990              -0.000021533               0.000713038               0.999999990              -0.000026627               0.000729817               0.999999990              -0.000033398               0.000751357               0.999999990              -0.000040996               0.000776578               0.999999990              -0.000049016               0.000804578               0.999999990              -0.000057014               0.000834655               0.999999990              -0.000064520               0.000866214               0.999999990              -0.000070947               0.000898725               0.999999990              -0.000075485               0.000931587               0.999999990              -0.000078061               0.000964293               0.999999990              -0.000078453               0.000996792               0.999999990              -0.000076618               0.001029175               0.999999990              -0.000072782               0.001061843               0.999999990              -0.000056117               0.000757122               0.999999990              -0.000024703               0.000747291               0.999999990              -0.000012558               0.000743139               0.999999990              -0.000009202               0.000746512               0.999999990              -0.000010103               0.000756571               0.999999990              -0.000013349               0.000772044               0.999999990              -0.000018084               0.000791832               0.999999990              -0.000023711               0.000815206               0.999999990              -0.000029744               0.000841391               0.999999990              -0.000035807               0.000869872               0.999999990              -0.000041592               0.000900220               0.999999990              -0.000046679               0.000931974               0.999999990              -0.000050283               0.000964547               0.999999990              -0.000051999               0.000997406               0.999999990              -0.000051399               0.001030172               0.999999990              -0.000047866               0.001062782               0.999999990              -0.000040911               0.001095358               0.999999990              -0.000037813               0.000776671               0.999999990              -0.000015829               0.000775811               0.999999990              -0.000006588               0.000776086               0.999999990              -0.000003382               0.000781365               0.999999990              -0.000003386               0.000791919               0.999999990              -0.000005146               0.000807076               0.999999990              -0.000008000               0.000826058               0.999999990              -0.000011667               0.000848340               0.999999990              -0.000015607               0.000873444               0.999999990              -0.000019550               0.000900947               0.999999990              -0.000023295               0.000930474               0.999999990              -0.000026698               0.000961705               0.999999990              -0.000029209               0.000994197               0.999999990              -0.000030259               0.001027474               0.999999990              -0.000029446               0.001061126               0.999999990              -0.000025962               0.001094762               0.999999990              -0.000018895               0.001128156               0.999999990              -0.000019032               0.000788424               0.999999990              -0.000007743               0.000793359               0.999999990              -0.000002742               0.000796865               0.999999990              -0.000000774               0.000803783               0.999999990              -0.000000583               0.000815020               0.999999990              -0.000001320               0.000830290               0.999999990              -0.000002647               0.000849139               0.999999990              -0.000004399               0.000871108               0.999999990              -0.000006282               0.000895764               0.999999990              -0.000008149               0.000922786               0.999999990              -0.000009952               0.000951841               0.999999990              -0.000011572               0.000982662               0.999999990              -0.000012856               0.001014945               0.999999990              -0.000013425               0.001048363               0.999999990              -0.000012952               0.001082519               0.999999990              -0.000010947               0.001117028               0.999999990              -0.000006616               0.001151452               0.999999990               0.000000000               0.000792367               0.999999990               0.000000000               0.000799301               0.999999990               0.000000000               0.000803968               0.999999990              -0.000000000               0.000811495               0.999999990               0.000000000               0.000822997               0.999999990               0.000000000               0.000838383               0.999999990              -0.000000000               0.000857271               0.999999990              -0.000000000               0.000879224               0.999999990              -0.000000000               0.000903828               0.999999990              -0.000000000               0.000930692               0.999999990               0.000000000               0.000959575               0.999999990               0.000000000               0.000990209               0.999999990               0.000000000               0.001022354               0.999999990              -0.000000000               0.001055781               0.999999990              -0.000000000               0.001090177               0.999999990               0.000000000               0.001125066               0.999999990              -0.000000000               0.001159853               0.999999990              -0.000192548              -0.000000000               0.999999990              -0.000223639               0.000000000               0.999999990              -0.000238247               0.000000000               0.999999990              -0.000246661               0.000000000               0.999999990              -0.000252991              -0.000000000               0.999999990              -0.000258925               0.000000000               0.999999990              -0.000265344              -0.000000000               0.999999990              -0.000272736               0.000000000               0.999999990              -0.000281288               0.000000000               0.999999990              -0.000290977               0.000000000               0.999999990              -0.000301808               0.000000000               0.999999990              -0.000313784               0.000000000               0.999999990              -0.000326838               0.000000000               0.999999990              -0.000340862               0.000000000               0.999999990              -0.000355655               0.000000000               0.999999990              -0.000370962              -0.000000000               0.999999990              -0.000386462               0.000000000               0.999999990              -0.000191523              -0.000077951               0.999999990              -0.000220923              -0.000067186               0.999999990              -0.000234484              -0.000063470               0.999999990              -0.000242285              -0.000063501               0.999999990              -0.000248323              -0.000065560               0.999999990              -0.000254285              -0.000069013               0.999999990              -0.000260871              -0.000073383               0.999999990              -0.000268401              -0.000078394               0.999999990              -0.000277058              -0.000083887               0.999999990              -0.000286890              -0.000089694               0.999999990              -0.000297864              -0.000095727               0.999999990              -0.000309888              -0.000101942               0.999999990              -0.000322913              -0.000108091               0.999999990              -0.000336827              -0.000113791               0.999999990              -0.000351407              -0.000118801               0.999999990              -0.000366366              -0.000122928               0.999999990              -0.000381361              -0.000125781               0.999999990              -0.000188492              -0.000155017               0.999999990              -0.000213056              -0.000133659               0.999999990              -0.000223806              -0.000126687               0.999999990              -0.000230088              -0.000127078               0.999999990              -0.000235424              -0.000131653               0.999999990              -0.000241219              -0.000138776               0.999999990              -0.000247983              -0.000147647               0.999999990              -0.000255899              -0.000157779               0.999999990              -0.000264941              -0.000168794               0.999999990              -0.000275093              -0.000180334               0.999999990              -0.000286227              -0.000192350               0.999999990              -0.000298144              -0.000204659               0.999999990              -0.000310767              -0.000216595               0.999999990              -0.000323888              -0.000227728               0.999999990              -0.000337288              -0.000237683               0.999999990              -0.000350847              -0.000245961               0.999999990              -0.000364441              -0.000251997               0.999999990              -0.000183636              -0.000230363               0.999999990              -0.000200564              -0.000198796               0.999999990              -0.000207254              -0.000189396               0.999999990              -0.000211563              -0.000190860               0.999999990              -0.000216152              -0.000198372               0.999999990              -0.000221866              -0.000209627               0.999999990              -0.000228980              -0.000223263               0.999999990              -0.000237356              -0.000238572               0.999999990              -0.000246875              -0.000255036               0.999999990              -0.000257309              -0.000272250               0.999999990              -0.000268473              -0.000289974               0.999999990              -0.000280213              -0.000307689               0.999999990              -0.000292218              -0.000324865               0.999999990              -0.000304318              -0.000340986               0.999999990              -0.000316455              -0.000355671               0.999999990              -0.000328556              -0.000368626               0.999999990              -0.000340655              -0.000379519               0.999999990              -0.000176901              -0.000303273               0.999999990              -0.000183849              -0.000262218               0.999999990              -0.000185964              -0.000251467               0.999999990              -0.000188507              -0.000254817               0.999999990              -0.000192756              -0.000265746               0.999999990              -0.000198835              -0.000281344               0.999999990              -0.000206597              -0.000299878               0.999999990              -0.000215697              -0.000320278               0.999999990              -0.000225850              -0.000341956               0.999999990              -0.000236752              -0.000364466               0.999999990              -0.000248211              -0.000387267               0.999999990              -0.000259870              -0.000409888               0.999999990              -0.000271409              -0.000431688               0.999999990              -0.000282775              -0.000452294               0.999999990              -0.000293960              -0.000471562               0.999999990              -0.000305009              -0.000489439               0.999999990              -0.000315899              -0.000505846               0.999999990              -0.000168173              -0.000373081               0.999999990              -0.000163711              -0.000323762               0.999999990              -0.000161708              -0.000312685               0.999999990              -0.000163332              -0.000318520               0.999999990              -0.000168014              -0.000333123               0.999999990              -0.000175100              -0.000353016               0.999999990              -0.000183947              -0.000376272               0.999999990              -0.000194105              -0.000401489               0.999999990              -0.000205150              -0.000428033               0.999999990              -0.000216704              -0.000455407               0.999999990              -0.000228380              -0.000482897               0.999999990              -0.000239831              -0.000509913               0.999999990              -0.000250934              -0.000535964               0.999999990              -0.000261669              -0.000560892               0.999999990              -0.000272015              -0.000584716               0.999999990              -0.000282020              -0.000607471               0.999999990              -0.000291672              -0.000629069               0.999999990              -0.000157666              -0.000439011               0.999999990              -0.000141370              -0.000383304               0.999999990              -0.000136401              -0.000372713               0.999999990              -0.000138190              -0.000381298               0.999999990              -0.000144090              -0.000399540               0.999999990              -0.000152682              -0.000423605               0.999999990              -0.000163057              -0.000451204               0.999999990              -0.000174497              -0.000480827               0.999999990              -0.000186420              -0.000511904               0.999999990              -0.000198404              -0.000543894               0.999999990              -0.000210071              -0.000575658               0.999999990              -0.000221211              -0.000606662               0.999999990              -0.000231657              -0.000636794               0.999999990              -0.000241453              -0.000666065               0.999999990              -0.000250691              -0.000694479               0.999999990              -0.000259436              -0.000721999               0.999999990              -0.000267763              -0.000748634               0.999999990              -0.000145627              -0.000500340               0.999999990              -0.000118108              -0.000440675               0.999999990              -0.000111639              -0.000431132               0.999999990              -0.000114708              -0.000442369               0.999999990              -0.000122461              -0.000464051               0.999999990              -0.000132893              -0.000491886               0.999999990              -0.000144775              -0.000523539               0.999999990              -0.000157314              -0.000557515               0.999999990              -0.000169936              -0.000593026               0.999999990              -0.000182215              -0.000629098               0.999999990              -0.000193721              -0.000664665               0.999999990              -0.000204156              -0.000699512               0.999999990              -0.000213589              -0.000733652               0.999999990              -0.000222252              -0.000767132               0.999999990              -0.000230257              -0.000799907               0.999999990              -0.000237782              -0.000831875               0.999999990              -0.000244919              -0.000863069               0.999999990              -0.000132688              -0.000556038               0.999999990              -0.000094913              -0.000495770               0.999999990              -0.000088913              -0.000487297               0.999999990              -0.000093958              -0.000500868               0.999999990              -0.000103761              -0.000525716               0.999999990              -0.000115913              -0.000557241               0.999999990              -0.000129148              -0.000592880               0.999999990              -0.000142694              -0.000631092               0.999999990              -0.000155989              -0.000670575               0.999999990              -0.000168266              -0.000710295               0.999999990              -0.000179025              -0.000749492               0.999999990              -0.000188299              -0.000787989               0.999999990              -0.000196537              -0.000825940               0.999999990              -0.000203994              -0.000863364               0.999999990              -0.000211026              -0.000900096               0.999999990              -0.000217800              -0.000936063               0.999999990              -0.000224410              -0.000971250               0.999999990              -0.000119887              -0.000608038               0.999999990              -0.000076669              -0.000554559               0.999999990              -0.000068083              -0.000541775               0.999999990              -0.000071588              -0.000550059               0.999999990              -0.000079918              -0.000569842               0.999999990              -0.000090626              -0.000596686               0.999999990              -0.000102559              -0.000628145               0.999999990              -0.000115006              -0.000662610               0.999999990              -0.000127423              -0.000698981               0.999999990              -0.000139120              -0.000736216               0.999999990              -0.000149450              -0.000773612               0.999999990              -0.000158004              -0.000810680               0.999999990              -0.000165230              -0.000847352               0.999999990              -0.000171460              -0.000883676               0.999999990              -0.000177018              -0.000919780               0.999999990              -0.000182439              -0.000955371               0.999999990              -0.000187961              -0.000990361               0.999999990              -0.000105605              -0.000654922               0.999999990              -0.000060666              -0.000610742               0.999999990              -0.000049480              -0.000597034               0.999999990              -0.000050893              -0.000601360               0.999999990              -0.000057391              -0.000616888               0.999999990              -0.000066454              -0.000639515               0.999999990              -0.000076914              -0.000667040               0.999999990              -0.000088024              -0.000697964               0.999999990              -0.000099316              -0.000731162               0.999999990              -0.000110149              -0.000765733               0.999999990              -0.000119860              -0.000801035               0.999999990              -0.000127809              -0.000836382               0.999999990              -0.000134047              -0.000871488               0.999999990              -0.000138922              -0.000906435               0.999999990              -0.000142767              -0.000941256               0.999999990              -0.000146158              -0.000976038               0.999999990              -0.000149497              -0.001010665               0.999999990              -0.000090175              -0.000695792               0.999999990              -0.000046770              -0.000662868               0.999999990              -0.000033826              -0.000650754               0.999999990              -0.000033063              -0.000653080               0.999999990              -0.000037548              -0.000665344               0.999999990              -0.000044708              -0.000684561               0.999999990              -0.000053376              -0.000708741               0.999999990              -0.000062909              -0.000736535               0.999999990              -0.000072673              -0.000766923               0.999999990              -0.000082238              -0.000799032               0.999999990              -0.000091053              -0.000832269               0.999999990              -0.000098405              -0.000865981               0.999999990              -0.000103824              -0.000899676               0.999999990              -0.000107379              -0.000933176               0.999999990              -0.000109352              -0.000966534               0.999999990              -0.000110177              -0.000999974               0.999999990              -0.000110350              -0.001033677               0.999999990              -0.000073655              -0.000730013               0.999999990              -0.000034881              -0.000709033               0.999999990              -0.000021505              -0.000700390               0.999999990              -0.000019038              -0.000702570               0.999999990              -0.000021533              -0.000713038               0.999999990              -0.000026627              -0.000729817               0.999999990              -0.000033398              -0.000751357               0.999999990              -0.000040996              -0.000776578               0.999999990              -0.000049016              -0.000804578               0.999999990              -0.000057014              -0.000834655               0.999999990              -0.000064520              -0.000866214               0.999999990              -0.000070947              -0.000898725               0.999999990              -0.000075485              -0.000931587               0.999999990              -0.000078061              -0.000964293               0.999999990              -0.000078453              -0.000996792               0.999999990              -0.000076618              -0.001029175               0.999999990              -0.000072782              -0.001061843               0.999999990              -0.000056117              -0.000757122               0.999999990              -0.000024703              -0.000747291               0.999999990              -0.000012558              -0.000743139               0.999999990              -0.000009202              -0.000746512               0.999999990              -0.000010103              -0.000756571               0.999999990              -0.000013349              -0.000772044               0.999999990              -0.000018084              -0.000791832               0.999999990              -0.000023711              -0.000815206               0.999999990              -0.000029744              -0.000841391               0.999999990              -0.000035807              -0.000869872               0.999999990              -0.000041592              -0.000900220               0.999999990              -0.000046679              -0.000931974               0.999999990              -0.000050283              -0.000964547               0.999999990              -0.000051999              -0.000997406               0.999999990              -0.000051399              -0.001030172               0.999999990              -0.000047866              -0.001062782               0.999999990              -0.000040911              -0.001095358               0.999999990              -0.000037813              -0.000776671               0.999999990              -0.000015829              -0.000775811               0.999999990              -0.000006588              -0.000776086               0.999999990              -0.000003382              -0.000781365               0.999999990              -0.000003386              -0.000791919               0.999999990              -0.000005146              -0.000807076               0.999999990              -0.000008000              -0.000826058               0.999999990              -0.000011667              -0.000848340               0.999999990              -0.000015607              -0.000873444               0.999999990              -0.000019550              -0.000900947               0.999999990              -0.000023295              -0.000930474               0.999999990              -0.000026698              -0.000961705               0.999999990              -0.000029209              -0.000994197               0.999999990              -0.000030259              -0.001027474               0.999999990              -0.000029446              -0.001061126               0.999999990              -0.000025962              -0.001094762               0.999999990              -0.000018895              -0.001128156               0.999999990              -0.000019032              -0.000788424               0.999999990              -0.000007743              -0.000793359               0.999999990              -0.000002742              -0.000796865               0.999999990              -0.000000774              -0.000803783               0.999999990              -0.000000583              -0.000815020               0.999999990              -0.000001320              -0.000830290               0.999999990              -0.000002647              -0.000849139               0.999999990              -0.000004399              -0.000871108               0.999999990              -0.000006282              -0.000895764               0.999999990              -0.000008149              -0.000922786               0.999999990              -0.000009952              -0.000951841               0.999999990              -0.000011572              -0.000982662               0.999999990              -0.000012856              -0.001014945               0.999999990              -0.000013425              -0.001048363               0.999999990              -0.000012952              -0.001082519               0.999999990              -0.000010947              -0.001117028               0.999999990              -0.000006616              -0.001151452               0.999999990              -0.000000000              -0.000792367               0.999999990              -0.000000000              -0.000799301               0.999999990              -0.000000000              -0.000803968               0.999999990               0.000000000              -0.000811495               0.999999990              -0.000000000              -0.000822997               0.999999990              -0.000000000              -0.000838383               0.999999990               0.000000000              -0.000857271               0.999999990               0.000000000              -0.000879224               0.999999990              -0.000000000              -0.000903828               0.999999990               0.000000000              -0.000930692               0.999999990              -0.000000000              -0.000959575               0.999999990              -0.000000000              -0.000990209               0.999999990              -0.000000000              -0.001022354               0.999999990              -0.000000000              -0.001055781               0.999999990              -0.000000000              -0.001090177               0.999999990               0.000000000              -0.001125066               0.999999990              -0.000000000              -0.001159853               0.999999990               0.000192548              -0.000000000               0.999999990               0.000223639              -0.000000000               0.999999990               0.000238247              -0.000000000               0.999999990               0.000246661              -0.000000000               0.999999990               0.000252991              -0.000000000               0.999999990               0.000258925              -0.000000000               0.999999990               0.000265344              -0.000000000               0.999999990               0.000272736              -0.000000000               0.999999990               0.000281288              -0.000000000               0.999999990               0.000290977               0.000000000               0.999999990               0.000301808              -0.000000000               0.999999990               0.000313784               0.000000000               0.999999990               0.000326838              -0.000000000               0.999999990               0.000340862               0.000000000               0.999999990               0.000355655              -0.000000000               0.999999990               0.000370962              -0.000000000               0.999999990               0.000386462               0.000000000               0.999999990               0.000191523              -0.000077951               0.999999990               0.000220923              -0.000067186               0.999999990               0.000234484              -0.000063470               0.999999990               0.000242285              -0.000063501               0.999999990               0.000248323              -0.000065560               0.999999990               0.000254285              -0.000069013               0.999999990               0.000260871              -0.000073383               0.999999990               0.000268401              -0.000078394               0.999999990               0.000277058              -0.000083887               0.999999990               0.000286890              -0.000089694               0.999999990               0.000297864              -0.000095727               0.999999990               0.000309888              -0.000101942               0.999999990               0.000322913              -0.000108091               0.999999990               0.000336827              -0.000113791               0.999999990               0.000351407              -0.000118801               0.999999990               0.000366366              -0.000122928               0.999999990               0.000381361              -0.000125781               0.999999990               0.000188492              -0.000155017               0.999999990               0.000213056              -0.000133659               0.999999990               0.000223806              -0.000126687               0.999999990               0.000230088              -0.000127078               0.999999990               0.000235424              -0.000131653               0.999999990               0.000241219              -0.000138776               0.999999990               0.000247983              -0.000147647               0.999999990               0.000255899              -0.000157779               0.999999990               0.000264941              -0.000168794               0.999999990               0.000275093              -0.000180334               0.999999990               0.000286227              -0.000192350               0.999999990               0.000298144              -0.000204659               0.999999990               0.000310767              -0.000216595               0.999999990               0.000323888              -0.000227728               0.999999990               0.000337288              -0.000237683               0.999999990               0.000350847              -0.000245961               0.999999990               0.000364441              -0.000251997               0.999999990               0.000183636              -0.000230363               0.999999990               0.000200564              -0.000198796               0.999999990               0.000207254              -0.000189396               0.999999990               0.000211563              -0.000190860               0.999999990               0.000216152              -0.000198372               0.999999990               0.000221866              -0.000209627               0.999999990               0.000228980              -0.000223263               0.999999990               0.000237356              -0.000238572               0.999999990               0.000246875              -0.000255036               0.999999990               0.000257309              -0.000272250               0.999999990               0.000268473              -0.000289974               0.999999990               0.000280213              -0.000307689               0.999999990               0.000292218              -0.000324865               0.999999990               0.000304318              -0.000340986               0.999999990               0.000316455              -0.000355671               0.999999990               0.000328556              -0.000368626               0.999999990               0.000340655              -0.000379519               0.999999990               0.000176901              -0.000303273               0.999999990               0.000183849              -0.000262218               0.999999990               0.000185964              -0.000251467               0.999999990               0.000188507              -0.000254817               0.999999990               0.000192756              -0.000265746               0.999999990               0.000198835              -0.000281344               0.999999990               0.000206597              -0.000299878               0.999999990               0.000215697              -0.000320278               0.999999990               0.000225850              -0.000341956               0.999999990               0.000236752              -0.000364466               0.999999990               0.000248211              -0.000387267               0.999999990               0.000259870              -0.000409888               0.999999990               0.000271409              -0.000431688               0.999999990               0.000282775              -0.000452294               0.999999990               0.000293960              -0.000471562               0.999999990               0.000305009              -0.000489439               0.999999990               0.000315899              -0.000505846               0.999999990               0.000168173              -0.000373081               0.999999990               0.000163711              -0.000323762               0.999999990               0.000161708              -0.000312685               0.999999990               0.000163332              -0.000318520               0.999999990               0.000168014              -0.000333123               0.999999990               0.000175100              -0.000353016               0.999999990               0.000183947              -0.000376272               0.999999990               0.000194105              -0.000401489               0.999999990               0.000205150              -0.000428033               0.999999990               0.000216704              -0.000455407               0.999999990               0.000228380              -0.000482897               0.999999990               0.000239831              -0.000509913               0.999999990               0.000250934              -0.000535964               0.999999990               0.000261669              -0.000560892               0.999999990               0.000272015              -0.000584716               0.999999990               0.000282020              -0.000607471               0.999999990               0.000291672              -0.000629069               0.999999990               0.000157666              -0.000439011               0.999999990               0.000141370              -0.000383304               0.999999990               0.000136401              -0.000372713               0.999999990               0.000138190              -0.000381298               0.999999990               0.000144090              -0.000399540               0.999999990               0.000152682              -0.000423605               0.999999990               0.000163057              -0.000451204               0.999999990               0.000174497              -0.000480827               0.999999990               0.000186420              -0.000511904               0.999999990               0.000198404              -0.000543894               0.999999990               0.000210071              -0.000575658               0.999999990               0.000221211              -0.000606662               0.999999990               0.000231657              -0.000636794               0.999999990               0.000241453              -0.000666065               0.999999990               0.000250691              -0.000694479               0.999999990               0.000259436              -0.000721999               0.999999990               0.000267763              -0.000748634               0.999999990               0.000145627              -0.000500340               0.999999990               0.000118108              -0.000440675               0.999999990               0.000111639              -0.000431132               0.999999990               0.000114708              -0.000442369               0.999999990               0.000122461              -0.000464051               0.999999990               0.000132893              -0.000491886               0.999999990               0.000144775              -0.000523539               0.999999990               0.000157314              -0.000557515               0.999999990               0.000169936              -0.000593026               0.999999990               0.000182215              -0.000629098               0.999999990               0.000193721              -0.000664665               0.999999990               0.000204156              -0.000699512               0.999999990               0.000213589              -0.000733652               0.999999990               0.000222252              -0.000767132               0.999999990               0.000230257              -0.000799907               0.999999990               0.000237782              -0.000831875               0.999999990               0.000244919              -0.000863069               0.999999990               0.000132688              -0.000556038               0.999999990               0.000094913              -0.000495770               0.999999990               0.000088913              -0.000487297               0.999999990               0.000093958              -0.000500868               0.999999990               0.000103761              -0.000525716               0.999999990               0.000115913              -0.000557241               0.999999990               0.000129148              -0.000592880               0.999999990               0.000142694              -0.000631092               0.999999990               0.000155989              -0.000670575               0.999999990               0.000168266              -0.000710295               0.999999990               0.000179025              -0.000749492               0.999999990               0.000188299              -0.000787989               0.999999990               0.000196537              -0.000825940               0.999999990               0.000203994              -0.000863364               0.999999990               0.000211026              -0.000900096               0.999999990               0.000217800              -0.000936063               0.999999990               0.000224410              -0.000971250               0.999999990               0.000119887              -0.000608038               0.999999990               0.000076669              -0.000554559               0.999999990               0.000068083              -0.000541775               0.999999990               0.000071588              -0.000550059               0.999999990               0.000079918              -0.000569842               0.999999990               0.000090626              -0.000596686               0.999999990               0.000102559              -0.000628145               0.999999990               0.000115006              -0.000662610               0.999999990               0.000127423              -0.000698981               0.999999990               0.000139120              -0.000736216               0.999999990               0.000149450              -0.000773612               0.999999990               0.000158004              -0.000810680               0.999999990               0.000165230              -0.000847352               0.999999990               0.000171460              -0.000883676               0.999999990               0.000177018              -0.000919780               0.999999990               0.000182439              -0.000955371               0.999999990               0.000187961              -0.000990361               0.999999990               0.000105605              -0.000654922               0.999999990               0.000060666              -0.000610742               0.999999990               0.000049480              -0.000597034               0.999999990               0.000050893              -0.000601360               0.999999990               0.000057391              -0.000616888               0.999999990               0.000066454              -0.000639515               0.999999990               0.000076914              -0.000667040               0.999999990               0.000088024              -0.000697964               0.999999990               0.000099316              -0.000731162               0.999999990               0.000110149              -0.000765733               0.999999990               0.000119860              -0.000801035               0.999999990               0.000127809              -0.000836382               0.999999990               0.000134047              -0.000871488               0.999999990               0.000138922              -0.000906435               0.999999990               0.000142767              -0.000941256               0.999999990               0.000146158              -0.000976038               0.999999990               0.000149497              -0.001010665               0.999999990               0.000090175              -0.000695792               0.999999990               0.000046770              -0.000662868               0.999999990               0.000033826              -0.000650754               0.999999990               0.000033063              -0.000653080               0.999999990               0.000037548              -0.000665344               0.999999990               0.000044708              -0.000684561               0.999999990               0.000053376              -0.000708741               0.999999990               0.000062909              -0.000736535               0.999999990               0.000072673              -0.000766923               0.999999990               0.000082238              -0.000799032               0.999999990               0.000091053              -0.000832269               0.999999990               0.000098405              -0.000865981               0.999999990               0.000103824              -0.000899676               0.999999990               0.000107379              -0.000933176               0.999999990               0.000109352              -0.000966534               0.999999990               0.000110177              -0.000999974               0.999999990               0.000110350              -0.001033677               0.999999990               0.000073655              -0.000730013               0.999999990               0.000034881              -0.000709033               0.999999990               0.000021505              -0.000700390               0.999999990               0.000019038              -0.000702570               0.999999990               0.000021533              -0.000713038               0.999999990               0.000026627              -0.000729817               0.999999990               0.000033398              -0.000751357               0.999999990               0.000040996              -0.000776578               0.999999990               0.000049016              -0.000804578               0.999999990               0.000057014              -0.000834655               0.999999990               0.000064520              -0.000866214               0.999999990               0.000070947              -0.000898725               0.999999990               0.000075485              -0.000931587               0.999999990               0.000078061              -0.000964293               0.999999990               0.000078453              -0.000996792               0.999999990               0.000076618              -0.001029175               0.999999990               0.000072782              -0.001061843               0.999999990               0.000056117              -0.000757122               0.999999990               0.000024703              -0.000747291               0.999999990               0.000012558              -0.000743139               0.999999990               0.000009202              -0.000746512               0.999999990               0.000010103              -0.000756571               0.999999990               0.000013349              -0.000772044               0.999999990               0.000018084              -0.000791832               0.999999990               0.000023711              -0.000815206               0.999999990               0.000029744              -0.000841391               0.999999990               0.000035807              -0.000869872               0.999999990               0.000041592              -0.000900220               0.999999990               0.000046679              -0.000931974               0.999999990               0.000050283              -0.000964547               0.999999990               0.000051999              -0.000997406               0.999999990               0.000051399              -0.001030172               0.999999990               0.000047866              -0.001062782               0.999999990               0.000040911              -0.001095358               0.999999990               0.000037813              -0.000776671               0.999999990               0.000015829              -0.000775811               0.999999990               0.000006588              -0.000776086               0.999999990               0.000003382              -0.000781365               0.999999990               0.000003386              -0.000791919               0.999999990               0.000005146              -0.000807076               0.999999990               0.000008000              -0.000826058               0.999999990               0.000011667              -0.000848340               0.999999990               0.000015607              -0.000873444               0.999999990               0.000019550              -0.000900947               0.999999990               0.000023295              -0.000930474               0.999999990               0.000026698              -0.000961705               0.999999990               0.000029209              -0.000994197               0.999999990               0.000030259              -0.001027474               0.999999990               0.000029446              -0.001061126               0.999999990               0.000025962              -0.001094762               0.999999990               0.000018895              -0.001128156               0.999999990               0.000019032              -0.000788424               0.999999990               0.000007743              -0.000793359               0.999999990               0.000002742              -0.000796865               0.999999990               0.000000774              -0.000803783               0.999999990               0.000000583              -0.000815020               0.999999990               0.000001320              -0.000830290               0.999999990               0.000002647              -0.000849139               0.999999990               0.000004399              -0.000871108               0.999999990               0.000006282              -0.000895764               0.999999990               0.000008149              -0.000922786               0.999999990               0.000009952              -0.000951841               0.999999990               0.000011572              -0.000982662               0.999999990               0.000012856              -0.001014945               0.999999990               0.000013425              -0.001048363               0.999999990               0.000012952              -0.001082519               0.999999990               0.000010947              -0.001117028               0.999999990               0.000006616              -0.001151452               0.999999990              -0.000000000              -0.000792367               0.999999990              -0.000000000              -0.000799301               0.999999990              -0.000000000              -0.000803968               0.999999990               0.000000000              -0.000811495               0.999999990              -0.000000000              -0.000822997               0.999999990              -0.000000000              -0.000838383               0.999999990               0.000000000              -0.000857271               0.999999990               0.000000000              -0.000879224               0.999999990              -0.000000000              -0.000903828               0.999999990               0.000000000              -0.000930692               0.999999990              -0.000000000              -0.000959575               0.999999990              -0.000000000              -0.000990209               0.999999990              -0.000000000              -0.001022354               0.999999990              -0.000000000              -0.001055781               0.999999990              -0.000000000              -0.001090177               0.999999990               0.000000000              -0.001125066               0.999999990              -0.000000000              -0.001159853               0.999999990               0.000192548              -0.000000000               0.999999990               0.000223639              -0.000000000               0.999999990               0.000238247              -0.000000000               0.999999990               0.000246661              -0.000000000               0.999999990               0.000252991              -0.000000000               0.999999990               0.000258925              -0.000000000               0.999999990               0.000265344              -0.000000000               0.999999990               0.000272736              -0.000000000               0.999999990               0.000281288              -0.000000000               0.999999990               0.000290977               0.000000000               0.999999990               0.000301808              -0.000000000               0.999999990               0.000313784               0.000000000               0.999999990               0.000326838              -0.000000000               0.999999990               0.000340862               0.000000000               0.999999990               0.000355655              -0.000000000               0.999999990               0.000370962              -0.000000000               0.999999990               0.000386462               0.000000000               0.999999990               0.000191523               0.000077951               0.999999990               0.000220923               0.000067186               0.999999990               0.000234484               0.000063470               0.999999990               0.000242285               0.000063501               0.999999990               0.000248323               0.000065560               0.999999990               0.000254285               0.000069013               0.999999990               0.000260871               0.000073383               0.999999990               0.000268401               0.000078394               0.999999990               0.000277058               0.000083887               0.999999990               0.000286890               0.000089694               0.999999990               0.000297864               0.000095727               0.999999990               0.000309888               0.000101942               0.999999990               0.000322913               0.000108091               0.999999990               0.000336827               0.000113791               0.999999990               0.000351407               0.000118801               0.999999990               0.000366366               0.000122928               0.999999990               0.000381361               0.000125781               0.999999990               0.000188492               0.000155017               0.999999990               0.000213056               0.000133659               0.999999990               0.000223806               0.000126687               0.999999990               0.000230088               0.000127078               0.999999990               0.000235424               0.000131653               0.999999990               0.000241219               0.000138776               0.999999990               0.000247983               0.000147647               0.999999990               0.000255899               0.000157779               0.999999990               0.000264941               0.000168794               0.999999990               0.000275093               0.000180334               0.999999990               0.000286227               0.000192350               0.999999990               0.000298144               0.000204659               0.999999990               0.000310767               0.000216595               0.999999990               0.000323888               0.000227728               0.999999990               0.000337288               0.000237683               0.999999990               0.000350847               0.000245961               0.999999990               0.000364441               0.000251997               0.999999990               0.000183636               0.000230363               0.999999990               0.000200564               0.000198796               0.999999990               0.000207254               0.000189396               0.999999990               0.000211563               0.000190860               0.999999990               0.000216152               0.000198372               0.999999990               0.000221866               0.000209627               0.999999990               0.000228980               0.000223263               0.999999990               0.000237356               0.000238572               0.999999990               0.000246875               0.000255036               0.999999990               0.000257309               0.000272250               0.999999990               0.000268473               0.000289974               0.999999990               0.000280213               0.000307689               0.999999990               0.000292218               0.000324865               0.999999990               0.000304318               0.000340986               0.999999990               0.000316455               0.000355671               0.999999990               0.000328556               0.000368626               0.999999990               0.000340655               0.000379519               0.999999990               0.000176901               0.000303273               0.999999990               0.000183849               0.000262218               0.999999990               0.000185964               0.000251467               0.999999990               0.000188507               0.000254817               0.999999990               0.000192756               0.000265746               0.999999990               0.000198835               0.000281344               0.999999990               0.000206597               0.000299878               0.999999990               0.000215697               0.000320278               0.999999990               0.000225850               0.000341956               0.999999990               0.000236752               0.000364466               0.999999990               0.000248211               0.000387267               0.999999990               0.000259870               0.000409888               0.999999990               0.000271409               0.000431688               0.999999990               0.000282775               0.000452294               0.999999990               0.000293960               0.000471562               0.999999990               0.000305009               0.000489439               0.999999990               0.000315899               0.000505846               0.999999990               0.000168173               0.000373081               0.999999990               0.000163711               0.000323762               0.999999990               0.000161708               0.000312685               0.999999990               0.000163332               0.000318520               0.999999990               0.000168014               0.000333123               0.999999990               0.000175100               0.000353016               0.999999990               0.000183947               0.000376272               0.999999990               0.000194105               0.000401489               0.999999990               0.000205150               0.000428033               0.999999990               0.000216704               0.000455407               0.999999990               0.000228380               0.000482897               0.999999990               0.000239831               0.000509913               0.999999990               0.000250934               0.000535964               0.999999990               0.000261669               0.000560892               0.999999990               0.000272015               0.000584716               0.999999990               0.000282020               0.000607471               0.999999990               0.000291672               0.000629069               0.999999990               0.000157666               0.000439011               0.999999990               0.000141370               0.000383304               0.999999990               0.000136401               0.000372713               0.999999990               0.000138190               0.000381298               0.999999990               0.000144090               0.000399540               0.999999990               0.000152682               0.000423605               0.999999990               0.000163057               0.000451204               0.999999990               0.000174497               0.000480827               0.999999990               0.000186420               0.000511904               0.999999990               0.000198404               0.000543894               0.999999990               0.000210071               0.000575658               0.999999990               0.000221211               0.000606662               0.999999990               0.000231657               0.000636794               0.999999990               0.000241453               0.000666065               0.999999990               0.000250691               0.000694479               0.999999990               0.000259436               0.000721999               0.999999990               0.000267763               0.000748634               0.999999990               0.000145627               0.000500340               0.999999990               0.000118108               0.000440675               0.999999990               0.000111639               0.000431132               0.999999990               0.000114708               0.000442369               0.999999990               0.000122461               0.000464051               0.999999990               0.000132893               0.000491886               0.999999990               0.000144775               0.000523539               0.999999990               0.000157314               0.000557515               0.999999990               0.000169936               0.000593026               0.999999990               0.000182215               0.000629098               0.999999990               0.000193721               0.000664665               0.999999990               0.000204156               0.000699512               0.999999990               0.000213589               0.000733652               0.999999990               0.000222252               0.000767132               0.999999990               0.000230257               0.000799907               0.999999990               0.000237782               0.000831875               0.999999990               0.000244919               0.000863069               0.999999990               0.000132688               0.000556038               0.999999990               0.000094913               0.000495770               0.999999990               0.000088913               0.000487297               0.999999990               0.000093958               0.000500868               0.999999990               0.000103761               0.000525716               0.999999990               0.000115913               0.000557241               0.999999990               0.000129148               0.000592880               0.999999990               0.000142694               0.000631092               0.999999990               0.000155989               0.000670575               0.999999990               0.000168266               0.000710295               0.999999990               0.000179025               0.000749492               0.999999990               0.000188299               0.000787989               0.999999990               0.000196537               0.000825940               0.999999990               0.000203994               0.000863364               0.999999990               0.000211026               0.000900096               0.999999990               0.000217800               0.000936063               0.999999990               0.000224410               0.000971250               0.999999990               0.000119887               0.000608038               0.999999990               0.000076669               0.000554559               0.999999990               0.000068083               0.000541775               0.999999990               0.000071588               0.000550059               0.999999990               0.000079918               0.000569842               0.999999990               0.000090626               0.000596686               0.999999990               0.000102559               0.000628145               0.999999990               0.000115006               0.000662610               0.999999990               0.000127423               0.000698981               0.999999990               0.000139120               0.000736216               0.999999990               0.000149450               0.000773612               0.999999990               0.000158004               0.000810680               0.999999990               0.000165230               0.000847352               0.999999990               0.000171460               0.000883676               0.999999990               0.000177018               0.000919780               0.999999990               0.000182439               0.000955371               0.999999990               0.000187961               0.000990361               0.999999990               0.000105605               0.000654922               0.999999990               0.000060666               0.000610742               0.999999990               0.000049480               0.000597034               0.999999990               0.000050893               0.000601360               0.999999990               0.000057391               0.000616888               0.999999990               0.000066454               0.000639515               0.999999990               0.000076914               0.000667040               0.999999990               0.000088024               0.000697964               0.999999990               0.000099316               0.000731162               0.999999990               0.000110149               0.000765733               0.999999990               0.000119860               0.000801035               0.999999990               0.000127809               0.000836382               0.999999990               0.000134047               0.000871488               0.999999990               0.000138922               0.000906435               0.999999990               0.000142767               0.000941256               0.999999990               0.000146158               0.000976038               0.999999990               0.000149497               0.001010665               0.999999990               0.000090175               0.000695792               0.999999990               0.000046770               0.000662868               0.999999990               0.000033826               0.000650754               0.999999990               0.000033063               0.000653080               0.999999990               0.000037548               0.000665344               0.999999990               0.000044708               0.000684561               0.999999990               0.000053376               0.000708741               0.999999990               0.000062909               0.000736535               0.999999990               0.000072673               0.000766923               0.999999990               0.000082238               0.000799032               0.999999990               0.000091053               0.000832269               0.999999990               0.000098405               0.000865981               0.999999990               0.000103824               0.000899676               0.999999990               0.000107379               0.000933176               0.999999990               0.000109352               0.000966534               0.999999990               0.000110177               0.000999974               0.999999990               0.000110350               0.001033677               0.999999990               0.000073655               0.000730013               0.999999990               0.000034881               0.000709033               0.999999990               0.000021505               0.000700390               0.999999990               0.000019038               0.000702570               0.999999990               0.000021533               0.000713038               0.999999990               0.000026627               0.000729817               0.999999990               0.000033398               0.000751357               0.999999990               0.000040996               0.000776578               0.999999990               0.000049016               0.000804578               0.999999990               0.000057014               0.000834655               0.999999990               0.000064520               0.000866214               0.999999990               0.000070947               0.000898725               0.999999990               0.000075485               0.000931587               0.999999990               0.000078061               0.000964293               0.999999990               0.000078453               0.000996792               0.999999990               0.000076618               0.001029175               0.999999990               0.000072782               0.001061843               0.999999990               0.000056117               0.000757122               0.999999990               0.000024703               0.000747291               0.999999990               0.000012558               0.000743139               0.999999990               0.000009202               0.000746512               0.999999990               0.000010103               0.000756571               0.999999990               0.000013349               0.000772044               0.999999990               0.000018084               0.000791832               0.999999990               0.000023711               0.000815206               0.999999990               0.000029744               0.000841391               0.999999990               0.000035807               0.000869872               0.999999990               0.000041592               0.000900220               0.999999990               0.000046679               0.000931974               0.999999990               0.000050283               0.000964547               0.999999990               0.000051999               0.000997406               0.999999990               0.000051399               0.001030172               0.999999990               0.000047866               0.001062782               0.999999990               0.000040911               0.001095358               0.999999990               0.000037813               0.000776671               0.999999990               0.000015829               0.000775811               0.999999990               0.000006588               0.000776086               0.999999990               0.000003382               0.000781365               0.999999990               0.000003386               0.000791919               0.999999990               0.000005146               0.000807076               0.999999990               0.000008000               0.000826058               0.999999990               0.000011667               0.000848340               0.999999990               0.000015607               0.000873444               0.999999990               0.000019550               0.000900947               0.999999990               0.000023295               0.000930474               0.999999990               0.000026698               0.000961705               0.999999990               0.000029209               0.000994197               0.999999990               0.000030259               0.001027474               0.999999990               0.000029446               0.001061126               0.999999990               0.000025962               0.001094762               0.999999990               0.000018895               0.001128156               0.999999990               0.000019032               0.000788424               0.999999990               0.000007743               0.000793359               0.999999990               0.000002742               0.000796865               0.999999990               0.000000774               0.000803783               0.999999990               0.000000583               0.000815020               0.999999990               0.000001320               0.000830290               0.999999990               0.000002647               0.000849139               0.999999990               0.000004399               0.000871108               0.999999990               0.000006282               0.000895764               0.999999990               0.000008149               0.000922786               0.999999990               0.000009952               0.000951841               0.999999990               0.000011572               0.000982662               0.999999990               0.000012856               0.001014945               0.999999990               0.000013425               0.001048363               0.999999990               0.000012952               0.001082519               0.999999990               0.000010947               0.001117028               0.999999990               0.000006616               0.001151452               0.999999990               0.000000000               0.000792367               0.999999990               0.000000000               0.000799301               0.999999990               0.000000000               0.000803968               0.999999990              -0.000000000               0.000811495               0.999999990               0.000000000               0.000822997               0.999999990               0.000000000               0.000838383               0.999999990              -0.000000000               0.000857271               0.999999990              -0.000000000               0.000879224               0.999999990              -0.000000000               0.000903828               0.999999990              -0.000000000               0.000930692               0.999999990               0.000000000               0.000959575               0.999999990               0.000000000               0.000990209               0.999999990               0.000000000               0.001022354               0.999999990              -0.000000000               0.001055781               0.999999990              -0.000000000               0.001090177               0.999999990               0.000000000               0.001125066               0.999999990              -0.000000000               0.001159853               0.999999990 </DataArray>
<DataArray type="Float64"                                    Name="stress"                                                      NumberOfComponents="10" format="ascii">
              0.001271388               0.014474304               0.000000000              -0.001332514               0.005268891               0.003936377               0.000000000               0.000000000               0.000000000               0.000000000               0.001351575               0.011724464               0.000000000              -0.000958715               0.004227687               0.003268972               0.000000000               0.000000000               0.000000000               0.000000000               0.001858585               0.009498956              -0.000000000              -0.000490399               0.003329753               0.002839354               0.000000000               0.000000000               0.000000000               0.000000000               0.001895703               0.008255212              -0.000000000              -0.000321012               0.002858714               0.002537702               0.000000000               0.000000000               0.000000000               0.000000000               0.001769817               0.007492892              -0.000000000              -0.000272930               0.002588582               0.002315653               0.000000000               0.000000000               0.000000000               0.000000000               0.001592567               0.007001870               0.000000000              -0.000278020               0.002426607               0.002148586               0.000000000               0.000000000               0.000000000               0.000000000               0.001396339               0.006668850               0.000000000              -0.000309978               0.002326254               0.002016275               0.000000000               0.000000000               0.000000000               0.000000000               0.001196837               0.006433030               0.000000000              -0.000355314               0.002262760               0.001907446               0.000000000               0.000000000               0.000000000               0.000000000               0.001008127               0.006262317               0.000000000              -0.000404741               0.002222332               0.001817591               0.000000000               0.000000000               0.000000000               0.000000000               0.000833739               0.006133969              -0.000000000              -0.000454093               0.002196000               0.001741908               0.000000000               0.000000000               0.000000000               0.000000000               0.000670463               0.006033331              -0.000000000              -0.000502741               0.002178671               0.001675929               0.000000000               0.000000000               0.000000000               0.000000000               0.000518057               0.005950745               0.000000000              -0.000549570               0.002166752               0.001617182               0.000000000               0.000000000               0.000000000               0.000000000               0.000376235               0.005870846               0.000000000              -0.000592766               0.002154518               0.001561752               0.000000000               0.000000000               0.000000000               0.000000000               0.000248349               0.005778042               0.000000000              -0.000629123               0.002135702               0.001506580               0.000000000               0.000000000               0.000000000               0.000000000               0.000141143               0.005665359              -0.000000000              -0.000655239               0.002106847               0.001451608               0.000000000               0.000000000               0.000000000               0.000000000               0.000060144               0.005528359              -0.000000000              -0.000668489               0.002065598               0.001397108               0.000000000               0.000000000               0.000000000               0.000000000               0.000015906               0.005420697               0.000000000              -0.000671621               0.002030755               0.001359134               0.000000000               0.000000000               0.000000000               0.000000000               0.001339659               0.014204328              -0.001048075              -0.001273166               0.005159117               0.003885951               0.000000000               0.000000000               0.000000000               0.000000000               0.001357746               0.011539295              -0.000615584              -0.000933255               0.004157478               0.003224223               0.000000000               0.000000000               0.000000000               0.000000000               0.001797594               0.009403951              -0.000176469              -0.000501395               0.003301751               0.002800356               0.000000000               0.000000000               0.000000000               0.000000000               0.001804046               0.008206378               0.000018605              -0.000349279               0.002851859               0.002502579               0.000000000               0.000000000               0.000000000               0.000000000               0.001663448               0.007473421               0.000106102              -0.000310384               0.002594577               0.002284193               0.000000000               0.000000000               0.000000000               0.000000000               0.001479993               0.006995779               0.000143478              -0.000319474               0.002438394               0.002118920               0.000000000               0.000000000               0.000000000               0.000000000               0.001289843               0.006670774               0.000155776              -0.000350155               0.002340287               0.001990132               0.000000000               0.000000000               0.000000000               0.000000000               0.001103427               0.006441428               0.000157260              -0.000391392               0.002277585               0.001886193               0.000000000               0.000000000               0.000000000               0.000000000               0.000925216               0.006272583               0.000153598              -0.000437116               0.002236545               0.001799430               0.000000000               0.000000000               0.000000000               0.000000000               0.000758942               0.006142567               0.000147813              -0.000483216               0.002208574               0.001725358               0.000000000               0.000000000               0.000000000               0.000000000               0.000608120               0.006041686               0.000143189              -0.000527164               0.002189597               0.001662432               0.000000000               0.000000000               0.000000000               0.000000000               0.000468931               0.005957038               0.000136337              -0.000568779               0.002175252               0.001606473               0.000000000               0.000000000               0.000000000               0.000000000               0.000337718               0.005870604               0.000121902              -0.000607180               0.002159242               0.001552062               0.000000000               0.000000000               0.000000000               0.000000000               0.000221099               0.005774064               0.000101289              -0.000638844               0.002137617               0.001498773               0.000000000               0.000000000               0.000000000               0.000000000               0.000125056               0.005662451               0.000076492              -0.000660909               0.002107768               0.001446859               0.000000000               0.000000000               0.000000000               0.000000000               0.000053354               0.005529554               0.000043265              -0.000671185               0.002066894               0.001395710               0.000000000               0.000000000               0.000000000               0.000000000               0.000013552               0.005426905               0.000026613              -0.000673280               0.002033377               0.001360097               0.000000000               0.000000000               0.000000000               0.000000000               0.001519351               0.013430139              -0.001976476              -0.001109009               0.004846338               0.003737329               0.000000000               0.000000000               0.000000000               0.000000000               0.001364367               0.011009882              -0.001167067              -0.000864596               0.003958123               0.003093527               0.000000000               0.000000000               0.000000000               0.000000000               0.001618353               0.009133638              -0.000351904              -0.000534821               0.003222789               0.002687968               0.000000000               0.000000000               0.000000000               0.000000000               0.001548360               0.008069687               0.000003849              -0.000428075               0.002832560               0.002404486               0.000000000               0.000000000               0.000000000               0.000000000               0.001381574               0.007411536               0.000162677              -0.000408351               0.002606604               0.002198253               0.000000000               0.000000000               0.000000000               0.000000000               0.001195138               0.006976353               0.000232051              -0.000423866               0.002466717               0.002042850               0.000000000               0.000000000               0.000000000               0.000000000               0.001016409               0.006673282               0.000259244              -0.000453006               0.002375407               0.001922401               0.000000000               0.000000000               0.000000000               0.000000000               0.000852849               0.006454109               0.000266352              -0.000486944               0.002313663               0.001826719               0.000000000               0.000000000               0.000000000               0.000000000               0.000703073               0.006287937               0.000262537              -0.000522338               0.002270071               0.001747732               0.000000000               0.000000000               0.000000000               0.000000000               0.000566957               0.006156924               0.000256898              -0.000557005               0.002237956               0.001680951               0.000000000               0.000000000               0.000000000               0.000000000               0.000448645               0.006049859               0.000252770              -0.000587989               0.002212596               0.001624607               0.000000000               0.000000000               0.000000000               0.000000000               0.000342573               0.005950103               0.000240214              -0.000615296               0.002188447               0.001573150               0.000000000               0.000000000               0.000000000               0.000000000               0.000246439               0.005848938               0.000215591              -0.000638701               0.002162527               0.001523826               0.000000000               0.000000000               0.000000000               0.000000000               0.000165506               0.005745587               0.000182701              -0.000656132               0.002133887               0.001477755               0.000000000               0.000000000               0.000000000               0.000000000               0.000098469               0.005638085               0.000139455              -0.000667833               0.002101954               0.001434121               0.000000000               0.000000000               0.000000000               0.000000000               0.000043814               0.005525828               0.000079746              -0.000674296               0.002066690               0.001392393               0.000000000               0.000000000               0.000000000               0.000000000               0.000012601               0.005449787               0.000048535              -0.000676496               0.002042076               0.001365580               0.000000000               0.000000000               0.000000000               0.000000000               0.001749083               0.012255230              -0.002680928              -0.000875997               0.004377034               0.003501037               0.000000000               0.000000000               0.000000000               0.000000000               0.001345927               0.010215301              -0.001591657              -0.000772189               0.003662462               0.002890274               0.000000000               0.000000000               0.000000000               0.000000000               0.001336587               0.008733400              -0.000507329              -0.000590453               0.003107922               0.002517469               0.000000000               0.000000000               0.000000000               0.000000000               0.001174196               0.007866496              -0.000051728              -0.000542987               0.002803135               0.002260148               0.000000000               0.000000000               0.000000000               0.000000000               0.000987997               0.007307740               0.000150162              -0.000542967               0.002616878               0.002073911               0.000000000               0.000000000               0.000000000               0.000000000               0.000812963               0.006927334               0.000239099              -0.000561054               0.002496106               0.001935052               0.000000000               0.000000000               0.000000000               0.000000000               0.000660068               0.006652481               0.000275706              -0.000584033               0.002412149               0.001828116               0.000000000               0.000000000               0.000000000               0.000000000               0.000529548               0.006441326               0.000289676              -0.000606584               0.002349282               0.001742698               0.000000000               0.000000000               0.000000000               0.000000000               0.000418353               0.006273047               0.000292000              -0.000627247               0.002300077               0.001672830               0.000000000               0.000000000               0.000000000               0.000000000               0.000324859               0.006134842               0.000289825              -0.000645032               0.002259937               0.001614906               0.000000000               0.000000000               0.000000000               0.000000000               0.000244275               0.006008956               0.000282729              -0.000659515               0.002222803               0.001563289               0.000000000               0.000000000               0.000000000               0.000000000               0.000180264               0.005887699               0.000264665              -0.000668362               0.002185334               0.001516972               0.000000000               0.000000000               0.000000000               0.000000000               0.000131035               0.005770860               0.000234668              -0.000672218               0.002147673               0.001475456               0.000000000               0.000000000               0.000000000               0.000000000               0.000088646               0.005658840               0.000194289              -0.000674111               0.002110965               0.001436854               0.000000000               0.000000000               0.000000000               0.000000000               0.000052830               0.005557484               0.000143604              -0.000674873               0.002077434               0.001402561               0.000000000               0.000000000               0.000000000               0.000000000               0.000024442               0.005475567               0.000079447              -0.000675279               0.002050263               0.001374985               0.000000000               0.000000000               0.000000000               0.000000000               0.000008704               0.005433965               0.000045833              -0.000675980               0.002036630               0.001360650               0.000000000               0.000000000               0.000000000               0.000000000               0.001944082               0.010816395              -0.003102356              -0.000623020               0.003813102               0.003190082               0.000000000               0.000000000               0.000000000               0.000000000               0.001273271               0.009260057              -0.001864787              -0.000680030               0.003313331               0.002633301               0.000000000               0.000000000               0.000000000               0.000000000               0.000979061               0.008252682              -0.000648104              -0.000664436               0.002972345               0.002307909               0.000000000               0.000000000               0.000000000               0.000000000               0.000741709               0.007605458              -0.000159851              -0.000672540               0.002759307               0.002086768               0.000000000               0.000000000               0.000000000               0.000000000               0.000559084               0.007152808               0.000055320              -0.000684443               0.002612393               0.001927950               0.000000000               0.000000000               0.000000000               0.000000000               0.000416214               0.006821376               0.000155331              -0.000696590               0.002505966               0.001809376               0.000000000               0.000000000               0.000000000               0.000000000               0.000303455               0.006567772               0.000200368              -0.000707174               0.002424960               0.001717786               0.000000000               0.000000000               0.000000000               0.000000000               0.000214825               0.006360553               0.000221228              -0.000714508               0.002358332               0.001643824               0.000000000               0.000000000               0.000000000               0.000000000               0.000146239               0.006186942               0.000232039              -0.000718526               0.002301802               0.001583276               0.000000000               0.000000000               0.000000000               0.000000000               0.000093177               0.006036018               0.000234103              -0.000719559               0.002251839               0.001532280               0.000000000               0.000000000               0.000000000               0.000000000               0.000054015               0.005894477               0.000227764              -0.000716552               0.002203657               0.001487104               0.000000000               0.000000000               0.000000000               0.000000000               0.000033894               0.005760811               0.000210486              -0.000707389               0.002156048               0.001448658               0.000000000               0.000000000               0.000000000               0.000000000               0.000023768               0.005635002               0.000180877              -0.000695461               0.002110135               0.001414675               0.000000000               0.000000000               0.000000000               0.000000000               0.000014721               0.005522521               0.000143570              -0.000684793               0.002069086               0.001384293               0.000000000               0.000000000               0.000000000               0.000000000               0.000006075               0.005430701               0.000101453              -0.000676558               0.002035735               0.001359177               0.000000000               0.000000000               0.000000000               0.000000000               0.000001246               0.005365102               0.000053080              -0.000670169               0.002011739               0.001341570               0.000000000               0.000000000               0.000000000               0.000000000              -0.000002197               0.005334768               0.000029054              -0.000667668               0.002000794               0.001333126               0.000000000               0.000000000               0.000000000               0.000000000               0.002028409               0.009243201              -0.003246221              -0.000394749               0.003212618               0.002817869               0.000000000               0.000000000               0.000000000               0.000000000               0.001132497               0.008236884              -0.002007929              -0.000604924               0.002947241               0.002342317               0.000000000               0.000000000               0.000000000               0.000000000               0.000589727               0.007727009              -0.000796914              -0.000744727               0.002823886               0.002079159               0.000000000               0.000000000               0.000000000               0.000000000               0.000318017               0.007287617              -0.000324586              -0.000791694               0.002693079               0.001901385               0.000000000               0.000000000               0.000000000               0.000000000               0.000165334               0.006930622              -0.000111095              -0.000804325               0.002578293               0.001773967               0.000000000               0.000000000               0.000000000               0.000000000               0.000070795               0.006643657              -0.000001435              -0.000803907               0.002482499               0.001678592               0.000000000               0.000000000               0.000000000               0.000000000               0.000007400               0.006404297               0.000055915              -0.000797760               0.002400664               0.001602904               0.000000000               0.000000000               0.000000000               0.000000000              -0.000036755               0.006198478               0.000089836              -0.000788591               0.002329002               0.001540411               0.000000000               0.000000000               0.000000000               0.000000000              -0.000063695               0.006024001               0.000115743              -0.000776884               0.002266941               0.001490058               0.000000000               0.000000000               0.000000000               0.000000000              -0.000074953               0.005871168               0.000129580              -0.000762001               0.002211037               0.001449035               0.000000000               0.000000000               0.000000000               0.000000000              -0.000073422               0.005724647               0.000131108              -0.000743112               0.002155901               0.001412789               0.000000000               0.000000000               0.000000000               0.000000000              -0.000062314               0.005584053               0.000122039              -0.000721372               0.002101790               0.001380417               0.000000000               0.000000000               0.000000000               0.000000000              -0.000049224               0.005458975               0.000103895              -0.000700829               0.002053250               0.001352421               0.000000000               0.000000000               0.000000000               0.000000000              -0.000036555               0.005356605               0.000081528              -0.000683282               0.002013278               0.001329996               0.000000000               0.000000000               0.000000000               0.000000000              -0.000025070               0.005277357               0.000056830              -0.000669069               0.001982124               0.001313055               0.000000000               0.000000000               0.000000000               0.000000000              -0.000013781               0.005219166               0.000028278              -0.000657562               0.001958892               0.001301330               0.000000000               0.000000000               0.000000000               0.000000000              -0.000011343               0.005188845               0.000015167              -0.000652858               0.001947217               0.001294359               0.000000000               0.000000000               0.000000000               0.000000000               0.001963840               0.007658238              -0.003151615              -0.000220843               0.002626334               0.002405491               0.000000000               0.000000000               0.000000000               0.000000000               0.000932658               0.007221033              -0.002050963              -0.000552883               0.002591281               0.002038398               0.000000000               0.000000000               0.000000000               0.000000000               0.000217104               0.007183587              -0.000960994              -0.000816533               0.002666683               0.001850150               0.000000000               0.000000000               0.000000000               0.000000000              -0.000041318               0.006924054              -0.000528007              -0.000880999               0.002601661               0.001720662               0.000000000               0.000000000               0.000000000               0.000000000              -0.000142639               0.006649160              -0.000315165              -0.000884633               0.002511242               0.001626609               0.000000000               0.000000000               0.000000000               0.000000000              -0.000188226               0.006398791              -0.000190082              -0.000870431               0.002423053               0.001552621               0.000000000               0.000000000               0.000000000               0.000000000              -0.000207496               0.006176036              -0.000112597              -0.000849813               0.002341929               0.001492116               0.000000000               0.000000000               0.000000000               0.000000000              -0.000207102               0.005986052              -0.000057000              -0.000825917               0.002270636               0.001444719               0.000000000               0.000000000               0.000000000               0.000000000              -0.000192047               0.005823247              -0.000009959              -0.000799921               0.002207703               0.001407782               0.000000000               0.000000000               0.000000000               0.000000000              -0.000167361               0.005669136               0.000019409              -0.000771400               0.002146827               0.001375426               0.000000000               0.000000000               0.000000000               0.000000000              -0.000136773               0.005517085               0.000031530              -0.000740924               0.002085985               0.001345061               0.000000000               0.000000000               0.000000000               0.000000000              -0.000103507               0.005378426               0.000037318              -0.000711117               0.002029829               0.001318713               0.000000000               0.000000000               0.000000000               0.000000000              -0.000073215               0.005262319               0.000039407              -0.000685244               0.001982503               0.001297259               0.000000000               0.000000000               0.000000000               0.000000000              -0.000049406               0.005169435               0.000037175              -0.000664705               0.001944696               0.001279991               0.000000000               0.000000000               0.000000000               0.000000000              -0.000030882               0.005095575               0.000029647              -0.000648526               0.001914683               0.001266157               0.000000000               0.000000000               0.000000000               0.000000000              -0.000015761               0.005036573               0.000016997              -0.000635480               0.001890668               0.001255187               0.000000000               0.000000000               0.000000000               0.000000000              -0.000013329               0.005002592               0.000012568              -0.000630321               0.001877621               0.001247300               0.000000000               0.000000000               0.000000000               0.000000000               0.001756445               0.006161921              -0.002869146              -0.000111577               0.002091144               0.001979567               0.000000000               0.000000000               0.000000000               0.000000000               0.000692240               0.006269502              -0.002019618              -0.000524098               0.002264512               0.001740413               0.000000000               0.000000000               0.000000000               0.000000000              -0.000094927               0.006635229              -0.001137702              -0.000864999               0.002500054               0.001635054               0.000000000               0.000000000               0.000000000               0.000000000              -0.000301478               0.006524140              -0.000744101              -0.000928570               0.002484215               0.001555645               0.000000000               0.000000000               0.000000000               0.000000000              -0.000347499               0.006322683              -0.000521482              -0.000920645               0.002414422               0.001493776               0.000000000               0.000000000               0.000000000               0.000000000              -0.000348932               0.006114756              -0.000372824              -0.000895192               0.002336629               0.001441437               0.000000000               0.000000000               0.000000000               0.000000000              -0.000329620               0.005924142              -0.000267151              -0.000864123               0.002262735               0.001398612               0.000000000               0.000000000               0.000000000               0.000000000              -0.000293745               0.005759264              -0.000187749              -0.000830060               0.002196422               0.001366362               0.000000000               0.000000000               0.000000000               0.000000000              -0.000246701               0.005603156              -0.000124760              -0.000792906               0.002132002               0.001339096               0.000000000               0.000000000               0.000000000               0.000000000              -0.000195382               0.005443119              -0.000080774              -0.000753656               0.002065574               0.001311917               0.000000000               0.000000000               0.000000000               0.000000000              -0.000141468               0.005292115              -0.000050216              -0.000714563               0.002002208               0.001287645               0.000000000               0.000000000               0.000000000               0.000000000              -0.000094992               0.005160138              -0.000022889              -0.000680638               0.001946908               0.001266270               0.000000000               0.000000000               0.000000000               0.000000000              -0.000062531               0.005048725              -0.000000753              -0.000654538               0.001901071               0.001246533               0.000000000               0.000000000               0.000000000               0.000000000              -0.000041180               0.004955245               0.000013041              -0.000634846               0.001863347               0.001228501               0.000000000               0.000000000               0.000000000               0.000000000              -0.000025872               0.004875289               0.000016397              -0.000619112               0.001831450               0.001212339               0.000000000               0.000000000               0.000000000               0.000000000              -0.000012954               0.004806862               0.000011546              -0.000605714               0.001804176               0.001198462               0.000000000               0.000000000               0.000000000               0.000000000              -0.000009638               0.004765093               0.000010972              -0.000599249               0.001788098               0.001188849               0.000000000               0.000000000               0.000000000               0.000000000               0.001468500               0.004866869              -0.002471287              -0.000057674               0.001641497               0.001583823               0.000000000               0.000000000               0.000000000               0.000000000               0.000472167               0.005415117              -0.001955083              -0.000499828               0.001971629               0.001471802               0.000000000               0.000000000               0.000000000               0.000000000              -0.000304149               0.006114673              -0.001341339              -0.000878389               0.002331000               0.001452611               0.000000000               0.000000000               0.000000000               0.000000000              -0.000451137               0.006155594              -0.000973299              -0.000938623               0.002364719               0.001426095               0.000000000               0.000000000               0.000000000               0.000000000              -0.000455919               0.006039011              -0.000729633              -0.000925844               0.002321598               0.001395754               0.000000000               0.000000000               0.000000000               0.000000000              -0.000425353               0.005888585              -0.000554789              -0.000895578               0.002261368               0.001365790               0.000000000               0.000000000               0.000000000               0.000000000              -0.000377612               0.005738561              -0.000425125              -0.000858923               0.002199142               0.001340219               0.000000000               0.000000000               0.000000000               0.000000000              -0.000318671               0.005593091              -0.000327447              -0.000818636               0.002137224               0.001318588               0.000000000               0.000000000               0.000000000               0.000000000              -0.000249626               0.005442220              -0.000250012              -0.000773885               0.002072017               0.001298132               0.000000000               0.000000000               0.000000000               0.000000000              -0.000175174               0.005285851              -0.000184993              -0.000726420               0.002004073               0.001277653               0.000000000               0.000000000               0.000000000               0.000000000              -0.000108110               0.005138257              -0.000128853              -0.000682822               0.001940342               0.001257521               0.000000000               0.000000000               0.000000000               0.000000000              -0.000065123               0.005005922              -0.000079286              -0.000650160               0.001885344               0.001235184               0.000000000               0.000000000               0.000000000               0.000000000              -0.000044252               0.004890263              -0.000038973              -0.000627876               0.001839363               0.001211488               0.000000000               0.000000000               0.000000000               0.000000000              -0.000039888               0.004786257              -0.000010418              -0.000613238               0.001799816               0.001186577               0.000000000               0.000000000               0.000000000               0.000000000              -0.000045022               0.004690833               0.000003230              -0.000603236               0.001764674               0.001161438               0.000000000               0.000000000               0.000000000               0.000000000              -0.000048093               0.004603713               0.000004703              -0.000593497               0.001732388               0.001138891               0.000000000               0.000000000               0.000000000               0.000000000              -0.000045573               0.004557691               0.000003828              -0.000586800               0.001714815               0.001128015               0.000000000               0.000000000               0.000000000               0.000000000               0.001088166               0.003642203              -0.002024229              -0.000047216               0.001229793               0.001182577               0.000000000               0.000000000               0.000000000               0.000000000               0.000311720               0.004439082              -0.001871547              -0.000437991               0.001625675               0.001187684               0.000000000               0.000000000               0.000000000               0.000000000              -0.000379824               0.005381044              -0.001567817              -0.000815063               0.002065351               0.001250287               0.000000000               0.000000000               0.000000000               0.000000000              -0.000502417               0.005624254              -0.001236778              -0.000891436               0.002171878               0.001280442               0.000000000               0.000000000               0.000000000               0.000000000              -0.000491740               0.005640389              -0.000976157              -0.000889449               0.002176594               0.001287144               0.000000000               0.000000000               0.000000000               0.000000000              -0.000447856               0.005582376              -0.000779104              -0.000865741               0.002149354               0.001283612               0.000000000               0.000000000               0.000000000               0.000000000              -0.000389143               0.005500775              -0.000629244              -0.000833524               0.002111414               0.001277891               0.000000000               0.000000000               0.000000000               0.000000000              -0.000323928               0.005406720              -0.000512561              -0.000797311               0.002067992               0.001270681               0.000000000               0.000000000               0.000000000               0.000000000              -0.000255129               0.005297955              -0.000415728              -0.000757916               0.002018606               0.001260690               0.000000000               0.000000000               0.000000000               0.000000000              -0.000183527               0.005176296              -0.000327577              -0.000715858               0.001964034               0.001248176               0.000000000               0.000000000               0.000000000               0.000000000              -0.000117255               0.005049613              -0.000243178              -0.000675171               0.001908245               0.001233074               0.000000000               0.000000000               0.000000000               0.000000000              -0.000073440               0.004922921              -0.000166801              -0.000642904               0.001855258               0.001212355               0.000000000               0.000000000               0.000000000               0.000000000              -0.000056070               0.004806142              -0.000102937              -0.000621792               0.001809295               0.001187503               0.000000000               0.000000000               0.000000000               0.000000000              -0.000057376               0.004705567              -0.000051147              -0.000609710               0.001771743               0.001162033               0.000000000               0.000000000               0.000000000               0.000000000              -0.000074989               0.004610358              -0.000017267              -0.000604414               0.001738242               0.001133828               0.000000000               0.000000000               0.000000000               0.000000000              -0.000099641               0.004515716              -0.000002996              -0.000601828               0.001705833               0.001104005               0.000000000               0.000000000               0.000000000               0.000000000              -0.000110507               0.004469298               0.000000366              -0.000600101               0.001689785               0.001089684               0.000000000               0.000000000               0.000000000               0.000000000               0.000540130               0.002519432              -0.001545951              -0.000112382               0.000877262               0.000764880               0.000000000               0.000000000               0.000000000               0.000000000               0.000126229               0.003471800              -0.001730240              -0.000386640               0.001286134               0.000899494               0.000000000               0.000000000               0.000000000               0.000000000              -0.000381945               0.004561790              -0.001739945              -0.000713453               0.001758399               0.001044946               0.000000000               0.000000000               0.000000000               0.000000000              -0.000479101               0.004997399              -0.001491498              -0.000804337               0.001933895               0.001129558               0.000000000               0.000000000               0.000000000               0.000000000              -0.000461621               0.005164435              -0.001238265              -0.000818661               0.001994348               0.001175687               0.000000000               0.000000000               0.000000000               0.000000000              -0.000416288               0.005217333              -0.001031098              -0.000808273               0.002008518               0.001200245               0.000000000               0.000000000               0.000000000               0.000000000              -0.000360152               0.005222294              -0.000865284              -0.000787842               0.002003361               0.001215519               0.000000000               0.000000000               0.000000000               0.000000000              -0.000300353               0.005197453              -0.000731481              -0.000762313               0.001986571               0.001224259               0.000000000               0.000000000               0.000000000               0.000000000              -0.000242281               0.005144898              -0.000617018              -0.000733966               0.001959604               0.001225638               0.000000000               0.000000000               0.000000000               0.000000000              -0.000180225               0.005074124              -0.000511369              -0.000701848               0.001925307               0.001223459               0.000000000               0.000000000               0.000000000               0.000000000              -0.000116473               0.004985306              -0.000407301              -0.000666839               0.001884032               0.001217193               0.000000000               0.000000000               0.000000000               0.000000000              -0.000065433               0.004878459              -0.000307320              -0.000634343               0.001837585               0.001203241               0.000000000               0.000000000               0.000000000               0.000000000              -0.000041405               0.004770704              -0.000216825              -0.000611863               0.001794173               0.001182310               0.000000000               0.000000000               0.000000000               0.000000000              -0.000045192               0.004671372              -0.000136521              -0.000600867               0.001757397               0.001156530               0.000000000               0.000000000               0.000000000               0.000000000              -0.000073595               0.004580398              -0.000071569              -0.000600146               0.001726833               0.001126687               0.000000000               0.000000000               0.000000000               0.000000000              -0.000122249               0.004497995              -0.000026981              -0.000608091               0.001702014               0.001093923               0.000000000               0.000000000               0.000000000               0.000000000              -0.000159851               0.004451537              -0.000005716              -0.000616385               0.001689292               0.001072907               0.000000000               0.000000000               0.000000000               0.000000000              -0.000146460               0.001566370              -0.001061034              -0.000250719               0.000605690               0.000354971               0.000000000               0.000000000               0.000000000               0.000000000              -0.000130333               0.002559492              -0.001507191              -0.000368812               0.000976092               0.000607280               0.000000000               0.000000000               0.000000000               0.000000000              -0.000350308               0.003662043              -0.001781350              -0.000589121               0.001417042               0.000827921               0.000000000               0.000000000               0.000000000               0.000000000              -0.000379311               0.004234155              -0.001647680              -0.000671510               0.001635207               0.000963697               0.000000000               0.000000000               0.000000000               0.000000000              -0.000349335               0.004542764              -0.001433615              -0.000698845               0.001747187               0.001048342               0.000000000               0.000000000               0.000000000               0.000000000              -0.000307968               0.004716697              -0.001234502              -0.000705074               0.001807241               0.001102167               0.000000000               0.000000000               0.000000000               0.000000000              -0.000261522               0.004818455              -0.001065861              -0.000700376               0.001839594               0.001139218               0.000000000               0.000000000               0.000000000               0.000000000              -0.000215372               0.004874079              -0.000922589              -0.000690023               0.001854684               0.001164661               0.000000000               0.000000000               0.000000000               0.000000000              -0.000171225               0.004892061              -0.000798297              -0.000675716               0.001855909               0.001180193               0.000000000               0.000000000               0.000000000               0.000000000              -0.000123456               0.004884199              -0.000686118              -0.000656819               0.001846990               0.001190171               0.000000000               0.000000000               0.000000000               0.000000000              -0.000069763               0.004852041              -0.000576049              -0.000632665               0.001828219               0.001195554               0.000000000               0.000000000               0.000000000               0.000000000              -0.000017955               0.004792099              -0.000464335              -0.000605744               0.001799265               0.001193521               0.000000000               0.000000000               0.000000000               0.000000000               0.000013547               0.004711016              -0.000355063              -0.000583795               0.001764921               0.001181126               0.000000000               0.000000000               0.000000000               0.000000000               0.000017374               0.004622431              -0.000251714              -0.000571287               0.001731224               0.001159937               0.000000000               0.000000000               0.000000000               0.000000000              -0.000010085               0.004541531              -0.000155853              -0.000571472               0.001704319               0.001132847               0.000000000               0.000000000               0.000000000               0.000000000              -0.000073021               0.004474845              -0.000070960              -0.000586737               0.001687179               0.001100442               0.000000000               0.000000000               0.000000000               0.000000000              -0.000133684               0.004432041              -0.000024505              -0.000604135               0.001678711               0.001074576               0.000000000               0.000000000               0.000000000               0.000000000              -0.000919255               0.000831690              -0.000624760              -0.000448681               0.000426787              -0.000021894               0.000000000               0.000000000               0.000000000               0.000000000              -0.000441345               0.001746454              -0.001223538              -0.000383811               0.000710082               0.000326271               0.000000000               0.000000000               0.000000000               0.000000000              -0.000304895               0.002751151              -0.001674984              -0.000458230               0.001069783               0.000611554               0.000000000               0.000000000               0.000000000               0.000000000              -0.000225020               0.003395640              -0.001653268              -0.000508838               0.001301481               0.000792643               0.000000000               0.000000000               0.000000000               0.000000000              -0.000165992               0.003817311              -0.001501483              -0.000539411               0.001452227               0.000912817               0.000000000               0.000000000               0.000000000               0.000000000              -0.000123623               0.004099706              -0.001333831              -0.000558821               0.001552829               0.000994007               0.000000000               0.000000000               0.000000000               0.000000000              -0.000088848               0.004296667              -0.001178374              -0.000570401               0.001622341               0.001051941               0.000000000               0.000000000               0.000000000               0.000000000              -0.000058050               0.004437328              -0.001038965              -0.000576434               0.001671239               0.001094805               0.000000000               0.000000000               0.000000000               0.000000000              -0.000029583               0.004533732              -0.000915916              -0.000577809               0.001703832               0.001126023               0.000000000               0.000000000               0.000000000               0.000000000               0.000000421               0.004599323              -0.000804562              -0.000574757               0.001724678               0.001149921               0.000000000               0.000000000               0.000000000               0.000000000               0.000036989               0.004638663              -0.000698202              -0.000565961               0.001734859               0.001168898               0.000000000               0.000000000               0.000000000               0.000000000               0.000079701               0.004645719              -0.000587376              -0.000550826               0.001732166               0.001181340               0.000000000               0.000000000               0.000000000               0.000000000               0.000114909               0.004613556              -0.000475181              -0.000533602               0.001715704               0.001182102               0.000000000               0.000000000               0.000000000               0.000000000               0.000133424               0.004558257              -0.000364456              -0.000519747               0.001692653               0.001172906               0.000000000               0.000000000               0.000000000               0.000000000               0.000125969               0.004499924              -0.000247787              -0.000515251               0.001671710               0.001156459               0.000000000               0.000000000               0.000000000               0.000000000               0.000078807               0.004452976              -0.000125507              -0.000527068               0.001660000               0.001132932               0.000000000               0.000000000               0.000000000               0.000000000               0.000019773               0.004420343              -0.000055958              -0.000545127               0.001655142               0.001110015               0.000000000               0.000000000               0.000000000               0.000000000              -0.001689189               0.000316876              -0.000290796              -0.000673054               0.000329974              -0.000343080               0.000000000               0.000000000               0.000000000               0.000000000              -0.000774278               0.001075184              -0.000906712              -0.000424752               0.000499974               0.000075222               0.000000000               0.000000000               0.000000000               0.000000000              -0.000263528               0.001911204              -0.001415166              -0.000337724               0.000749636               0.000411912               0.000000000               0.000000000               0.000000000               0.000000000              -0.000047438               0.002571108              -0.001474984              -0.000339178               0.000970086               0.000630908               0.000000000               0.000000000               0.000000000               0.000000000               0.000060823               0.003066119              -0.001391019              -0.000360456               0.001142181               0.000781725               0.000000000               0.000000000               0.000000000               0.000000000               0.000114545               0.003431205              -0.001270365              -0.000385946               0.001272372               0.000886426               0.000000000               0.000000000               0.000000000               0.000000000               0.000139673               0.003710272              -0.001146494              -0.000411406               0.001373880               0.000962474               0.000000000               0.000000000               0.000000000               0.000000000               0.000157531               0.003930658              -0.001028412              -0.000432257               0.001454292               0.001022034               0.000000000               0.000000000               0.000000000               0.000000000               0.000168199               0.004103261              -0.000918485              -0.000449832               0.001517684               0.001067851               0.000000000               0.000000000               0.000000000               0.000000000               0.000178403               0.004244215              -0.000817678              -0.000463625               0.001569266               0.001105641               0.000000000               0.000000000               0.000000000               0.000000000               0.000195435               0.004357921              -0.000723739              -0.000471451               0.001609776               0.001138325               0.000000000               0.000000000               0.000000000               0.000000000               0.000224582               0.004437021              -0.000626402              -0.000470409               0.001635795               0.001165386               0.000000000               0.000000000               0.000000000               0.000000000               0.000262494               0.004474222              -0.000524260              -0.000460842               0.001645006               0.001184165               0.000000000               0.000000000               0.000000000               0.000000000               0.000298358               0.004475933              -0.000419698              -0.000447606               0.001641165               0.001193559               0.000000000               0.000000000               0.000000000               0.000000000               0.000328127               0.004459578              -0.000302161              -0.000434399               0.001631311               0.001196912               0.000000000               0.000000000               0.000000000               0.000000000               0.000339980               0.004440662              -0.000162649              -0.000427589               0.001622736               0.001195146               0.000000000               0.000000000               0.000000000               0.000000000               0.000330401               0.004425706              -0.000084001              -0.000429312               0.001618324               0.001189013               0.000000000               0.000000000               0.000000000               0.000000000              -0.002343876              -0.000003415              -0.000087071              -0.000878526               0.000291702              -0.000586824               0.000000000               0.000000000               0.000000000               0.000000000              -0.001078623               0.000581519              -0.000585835              -0.000477173               0.000352895              -0.000124279               0.000000000               0.000000000               0.000000000               0.000000000              -0.000238497               0.001236009              -0.001019482              -0.000243938               0.000493311               0.000249373               0.000000000               0.000000000               0.000000000               0.000000000               0.000119727               0.001872233              -0.001110362              -0.000189132               0.000687115               0.000497983               0.000000000               0.000000000               0.000000000               0.000000000               0.000285853               0.002400992              -0.001078862              -0.000192930               0.000864632               0.000671702               0.000000000               0.000000000               0.000000000               0.000000000               0.000358375               0.002819513              -0.001006028              -0.000218049               0.001012511               0.000794462               0.000000000               0.000000000               0.000000000               0.000000000               0.000383361               0.003157807              -0.000925928              -0.000250966               0.001136247               0.000885281               0.000000000               0.000000000               0.000000000               0.000000000               0.000388579               0.003439744              -0.000843735              -0.000284251               0.001241320               0.000957069               0.000000000               0.000000000               0.000000000               0.000000000               0.000385674               0.003676579              -0.000761290              -0.000314944               0.001330495               0.001015551               0.000000000               0.000000000               0.000000000               0.000000000               0.000382822               0.003878227              -0.000684055              -0.000341220               0.001406469               0.001065250               0.000000000               0.000000000               0.000000000               0.000000000               0.000387017               0.004050588              -0.000612611              -0.000361192               0.001470580               0.001109388               0.000000000               0.000000000               0.000000000               0.000000000               0.000404091               0.004191108              -0.000539879              -0.000372354               0.001521140               0.001148786               0.000000000               0.000000000               0.000000000               0.000000000               0.000440665               0.004295044              -0.000460039              -0.000371631               0.001555544               0.001183913               0.000000000               0.000000000               0.000000000               0.000000000               0.000494477               0.004363519              -0.000375010              -0.000360010               0.001574495               0.001214485               0.000000000               0.000000000               0.000000000               0.000000000               0.000564219               0.004401498              -0.000277300              -0.000338604               0.001580020               0.001241415               0.000000000               0.000000000               0.000000000               0.000000000               0.000649220               0.004416977              -0.000153114              -0.000308664               0.001575199               0.001266535               0.000000000               0.000000000               0.000000000               0.000000000               0.000712720               0.004425759              -0.000085096              -0.000285949               0.001570555               0.001284605               0.000000000               0.000000000               0.000000000               0.000000000              -0.002784468              -0.000166114              -0.000006838              -0.001023411               0.000285764              -0.000737647               0.000000000               0.000000000               0.000000000               0.000000000              -0.001296539               0.000286444              -0.000284059              -0.000522007               0.000269482              -0.000252525               0.000000000               0.000000000               0.000000000               0.000000000              -0.000230345               0.000800931              -0.000531489              -0.000186496               0.000329139               0.000142643               0.000000000               0.000000000               0.000000000               0.000000000               0.000240312               0.001401592              -0.000595396              -0.000085082               0.000495553               0.000410471               0.000000000               0.000000000               0.000000000               0.000000000               0.000451679               0.001937454              -0.000589192              -0.000072803               0.000670079               0.000597276               0.000000000               0.000000000               0.000000000               0.000000000               0.000542547               0.002386961              -0.000556534              -0.000094915               0.000827284               0.000732369               0.000000000               0.000000000               0.000000000               0.000000000               0.000573430               0.002764221              -0.000519109              -0.000130491               0.000964895               0.000834404               0.000000000               0.000000000               0.000000000               0.000000000               0.000572651               0.003081887              -0.000478702              -0.000170492               0.001084116               0.000913624               0.000000000               0.000000000               0.000000000               0.000000000               0.000563541               0.003354086              -0.000435555              -0.000207933               0.001187328               0.000979396               0.000000000               0.000000000               0.000000000               0.000000000               0.000557382               0.003590713              -0.000393939              -0.000239821               0.001276833               0.001037012               0.000000000               0.000000000               0.000000000               0.000000000               0.000559014               0.003797527              -0.000354791              -0.000265060               0.001354183               0.001089123               0.000000000               0.000000000               0.000000000               0.000000000               0.000571670               0.003975879              -0.000315311              -0.000282608               0.001419482               0.001136874               0.000000000               0.000000000               0.000000000               0.000000000               0.000604468               0.004125652              -0.000271536              -0.000289030               0.001471547               0.001182517               0.000000000               0.000000000               0.000000000               0.000000000               0.000665204               0.004245727              -0.000222819              -0.000281264               0.001508983               0.001227719               0.000000000               0.000000000               0.000000000               0.000000000               0.000758459               0.004333684              -0.000166400              -0.000257288               0.001530310               0.001273022               0.000000000               0.000000000               0.000000000               0.000000000               0.000894376               0.004389625              -0.000092136              -0.000213312               0.001534297               0.001320986               0.000000000               0.000000000               0.000000000               0.000000000               0.001013477               0.004422901              -0.000051599              -0.000172808               0.001531888               0.001359080               0.000000000               0.000000000               0.000000000               0.000000000              -0.002940804              -0.000214359               0.000000000              -0.001076006               0.000287214              -0.000788792               0.000000000               0.000000000               0.000000000               0.000000000              -0.001376458               0.000188580              -0.000000000              -0.000539744               0.000242773              -0.000296971               0.000000000               0.000000000               0.000000000               0.000000000              -0.000229369               0.000649905              -0.000000000              -0.000167251               0.000272383               0.000105132               0.000000000               0.000000000               0.000000000               0.000000000               0.000284658               0.001234311              -0.000000000              -0.000047542               0.000427280               0.000379738               0.000000000               0.000000000               0.000000000               0.000000000               0.000512756               0.001771040              -0.000000000              -0.000029097               0.000600039               0.000570943               0.000000000               0.000000000               0.000000000               0.000000000               0.000610597               0.002231670              -0.000000000              -0.000049985               0.000760544               0.000710559               0.000000000               0.000000000               0.000000000               0.000000000               0.000643960               0.002622156              -0.000000000              -0.000086284               0.000902805               0.000816520               0.000000000               0.000000000               0.000000000               0.000000000               0.000643438               0.002951886               0.000000000              -0.000127696               0.001026517               0.000898821               0.000000000               0.000000000               0.000000000               0.000000000               0.000634008               0.003233471               0.000000000              -0.000166431               0.001133290               0.000966859               0.000000000               0.000000000               0.000000000               0.000000000               0.000628405               0.003479650              -0.000000000              -0.000199304               0.001226306               0.001027003               0.000000000               0.000000000               0.000000000               0.000000000               0.000630232               0.003697295               0.000000000              -0.000225824               0.001307694               0.001081870               0.000000000               0.000000000               0.000000000               0.000000000               0.000643193               0.003888316               0.000000000              -0.000244842               0.001377706               0.001132865               0.000000000               0.000000000               0.000000000               0.000000000               0.000674306               0.004055431               0.000000000              -0.000254064               0.001436485               0.001182421               0.000000000               0.000000000               0.000000000               0.000000000               0.000735458               0.004197932              -0.000000000              -0.000248944               0.001482278               0.001233334               0.000000000               0.000000000               0.000000000               0.000000000               0.000834910               0.004307993               0.000000000              -0.000225407               0.001511119               0.001285712               0.000000000               0.000000000               0.000000000               0.000000000               0.000985430               0.004377923               0.000000000              -0.000177704               0.001518528               0.001340824               0.000000000               0.000000000               0.000000000               0.000000000               0.001123191               0.004418346              -0.000000000              -0.000131096               0.001516466               0.001385370               0.000000000               0.000000000               0.000000000               0.000000000               0.000000000               0.000000000               0.000000000               0.000000000               0.000000000               0.000000000               0.000000000               0.000000000               0.000000000               0.000000000               0.000000000               0.000000000               0.000000000               0.000000000               0.000000000               0.000000000               0.000000000               0.000000000               0.000000000               0.000000000               0.000000000               0.000000000               0.000000000               0.000000000               0.000000000               0.000000000               0.000000000               0.000000000               0.000000000               0.000000000               0.000000000               0.000000000               0.000000000               0.000000000               0.000000000               0.000000000               0.000000000               0.000000000               0.000000000               0.000000000               0.000000000               0.000000000               0.000000000               0.000000000               0.000000000               0.000000000               0.000000000               0.000000000               0.000000000               0.000000000               0.000000000               0.000000000               0.000000000               0.000000000               0.000000000               0.000000000               0.000000000               0.000000000               0.000000000               0.000000000               0.000000000               0.000000000               0.000000000               0.000000000               0.000000000               0.000000000               0.000000000               0.000000000               0.000000000               0.000000000               0.000000000               0.000000000               0.000000000               0.000000000               0.000000000               0.000000000               0.000000000               0.000000000               0.000000000               0.000000000               0.000000000               0.000000000               0.000000000               0.000000000               0.000000000               0.000000000               0.000000000               0.000000000               0.000000000               0.000000000               0.000000000               0.000000000               0.000000000               0.000000000               0.000000000               0.000000000               0.000000000               0.000000000               0.000000000               0.000000000               0.000000000               0.000000000               0.000000000               0.000000000               0.000000000               0.000000000               0.000000000               0.000000000               0.000000000               0.000000000               0.000000000               0.000000000               0.000000000               0.000000000               0.000000000               0.000000000               0.000000000               0.000000000               0.000000000               0.000000000               0.000000000               0.000000000               0.000000000               0.000000000               0.000000000               0.000000000               0.000000000               0.000000000               0.000000000               0.000000000               0.000000000               0.000000000               0.000000000               0.000000000               0.000000000               0.000000000               0.000000000               0.000000000               0.000000000               0.000000000               0.000000000               0.000000000               0.000000000               0.000000000               0.000000000               0.000000000               0.000000000               0.000000000               0.000000000               0.000000000               0.000000000               0.000000000               0.000000000               0.000000000               0.000000000               0.000000000               0.000000000               0.000000000               0.000000000               0.000000000               0.000000000               0.000000000               0.000000000               0.000000000               0.000000000               0.000000000               0.000000000               0.000000000               0.000000000               0.000000000               0.001339659               0.014204328               0.001048075              -0.001273166               0.005159117               0.003885951               0.000000000               0.000000000               0.000000000               0.000000000               0.001357746               0.011539295               0.000615584              -0.000933255               0.004157478               0.003224223               0.000000000               0.000000000               0.000000000               0.000000000               0.001797594               0.009403951               0.000176469              -0.000501395               0.003301751               0.002800356               0.000000000               0.000000000               0.000000000               0.000000000               0.001804046               0.008206378              -0.000018605              -0.000349279               0.002851859               0.002502579               0.000000000               0.000000000               0.000000000               0.000000000               0.001663448               0.007473421              -0.000106102              -0.000310384               0.002594577               0.002284193               0.000000000               0.000000000               0.000000000               0.000000000               0.001479993               0.006995779              -0.000143478              -0.000319474               0.002438394               0.002118920               0.000000000               0.000000000               0.000000000               0.000000000               0.001289843               0.006670774              -0.000155776              -0.000350155               0.002340287               0.001990132               0.000000000               0.000000000               0.000000000               0.000000000               0.001103427               0.006441428              -0.000157260              -0.000391392               0.002277585               0.001886193               0.000000000               0.000000000               0.000000000               0.000000000               0.000925216               0.006272583              -0.000153598              -0.000437116               0.002236545               0.001799430               0.000000000               0.000000000               0.000000000               0.000000000               0.000758942               0.006142567              -0.000147813              -0.000483216               0.002208574               0.001725358               0.000000000               0.000000000               0.000000000               0.000000000               0.000608120               0.006041686              -0.000143189              -0.000527164               0.002189597               0.001662432               0.000000000               0.000000000               0.000000000               0.000000000               0.000468931               0.005957038              -0.000136337              -0.000568779               0.002175252               0.001606473               0.000000000               0.000000000               0.000000000               0.000000000               0.000337718               0.005870604              -0.000121902              -0.000607180               0.002159242               0.001552062               0.000000000               0.000000000               0.000000000               0.000000000               0.000221099               0.005774064              -0.000101289              -0.000638844               0.002137617               0.001498773               0.000000000               0.000000000               0.000000000               0.000000000               0.000125056               0.005662451              -0.000076492              -0.000660909               0.002107768               0.001446859               0.000000000               0.000000000               0.000000000               0.000000000               0.000053354               0.005529554              -0.000043265              -0.000671185               0.002066894               0.001395710               0.000000000               0.000000000               0.000000000               0.000000000               0.000013552               0.005426905              -0.000026613              -0.000673280               0.002033377               0.001360097               0.000000000               0.000000000               0.000000000               0.000000000               0.001519351               0.013430139               0.001976476              -0.001109009               0.004846338               0.003737329               0.000000000               0.000000000               0.000000000               0.000000000               0.001364367               0.011009882               0.001167067              -0.000864596               0.003958123               0.003093527               0.000000000               0.000000000               0.000000000               0.000000000               0.001618353               0.009133638               0.000351904              -0.000534821               0.003222789               0.002687968               0.000000000               0.000000000               0.000000000               0.000000000               0.001548360               0.008069687              -0.000003849              -0.000428075               0.002832560               0.002404486               0.000000000               0.000000000               0.000000000               0.000000000               0.001381574               0.007411536              -0.000162677              -0.000408351               0.002606604               0.002198253               0.000000000               0.000000000               0.000000000               0.000000000               0.001195138               0.006976353              -0.000232051              -0.000423866               0.002466717               0.002042850               0.000000000               0.000000000               0.000000000               0.000000000               0.001016409               0.006673282              -0.000259244              -0.000453006               0.002375407               0.001922401               0.000000000               0.000000000               0.000000000               0.000000000               0.000852849               0.006454109              -0.000266352              -0.000486944               0.002313663               0.001826719               0.000000000               0.000000000               0.000000000               0.000000000               0.000703073               0.006287937              -0.000262537              -0.000522338               0.002270071               0.001747732               0.000000000               0.000000000               0.000000000               0.000000000               0.000566957               0.006156924              -0.000256898              -0.000557005               0.002237956               0.001680951               0.000000000               0.000000000               0.000000000               0.000000000               0.000448645               0.006049859              -0.000252770              -0.000587989               0.002212596               0.001624607               0.000000000               0.000000000               0.000000000               0.000000000               0.000342573               0.005950103              -0.000240214              -0.000615296               0.002188447               0.001573150               0.000000000               0.000000000               0.000000000               0.000000000               0.000246439               0.005848938              -0.000215591              -0.000638701               0.002162527               0.001523826               0.000000000               0.000000000               0.000000000               0.000000000               0.000165506               0.005745587              -0.000182701              -0.000656132               0.002133887               0.001477755               0.000000000               0.000000000               0.000000000               0.000000000               0.000098469               0.005638085              -0.000139455              -0.000667833               0.002101954               0.001434121               0.000000000               0.000000000               0.000000000               0.000000000               0.000043814               0.005525828              -0.000079746              -0.000674296               0.002066690               0.001392393               0.000000000               0.000000000               0.000000000               0.000000000               0.000012601               0.005449787              -0.000048535              -0.000676496               0.002042076               0.001365580               0.000000000               0.000000000               0.000000000               0.000000000               0.001749083               0.012255230               0.002680928              -0.000875997               0.004377034               0.003501037               0.000000000               0.000000000               0.000000000               0.000000000               0.001345927               0.010215301               0.001591657              -0.000772189               0.003662462               0.002890274               0.000000000               0.000000000               0.000000000               0.000000000               0.001336587               0.008733400               0.000507329              -0.000590453               0.003107922               0.002517469               0.000000000               0.000000000               0.000000000               0.000000000               0.001174196               0.007866496               0.000051728              -0.000542987               0.002803135               0.002260148               0.000000000               0.000000000               0.000000000               0.000000000               0.000987997               0.007307740              -0.000150162              -0.000542967               0.002616878               0.002073911               0.000000000               0.000000000               0.000000000               0.000000000               0.000812963               0.006927334              -0.000239099              -0.000561054               0.002496106               0.001935052               0.000000000               0.000000000               0.000000000               0.000000000               0.000660068               0.006652481              -0.000275706              -0.000584033               0.002412149               0.001828116               0.000000000               0.000000000               0.000000000               0.000000000               0.000529548               0.006441326              -0.000289676              -0.000606584               0.002349282               0.001742698               0.000000000               0.000000000               0.000000000               0.000000000               0.000418353               0.006273047              -0.000292000              -0.000627247               0.002300077               0.001672830               0.000000000               0.000000000               0.000000000               0.000000000               0.000324859               0.006134842              -0.000289825              -0.000645032               0.002259937               0.001614906               0.000000000               0.000000000               0.000000000               0.000000000               0.000244275               0.006008956              -0.000282729              -0.000659515               0.002222803               0.001563289               0.000000000               0.000000000               0.000000000               0.000000000               0.000180264               0.005887699              -0.000264665              -0.000668362               0.002185334               0.001516972               0.000000000               0.000000000               0.000000000               0.000000000               0.000131035               0.005770860              -0.000234668              -0.000672218               0.002147673               0.001475456               0.000000000               0.000000000               0.000000000               0.000000000               0.000088646               0.005658840              -0.000194289              -0.000674111               0.002110965               0.001436854               0.000000000               0.000000000               0.000000000               0.000000000               0.000052830               0.005557484              -0.000143604              -0.000674873               0.002077434               0.001402561               0.000000000               0.000000000               0.000000000               0.000000000               0.000024442               0.005475567              -0.000079447              -0.000675279               0.002050263               0.001374985               0.000000000               0.000000000               0.000000000               0.000000000               0.000008704               0.005433965              -0.000045833              -0.000675980               0.002036630               0.001360650               0.000000000               0.000000000               0.000000000               0.000000000               0.001944082               0.010816395               0.003102356              -0.000623020               0.003813102               0.003190082               0.000000000               0.000000000               0.000000000               0.000000000               0.001273271               0.009260057               0.001864787              -0.000680030               0.003313331               0.002633301               0.000000000               0.000000000               0.000000000               0.000000000               0.000979061               0.008252682               0.000648104              -0.000664436               0.002972345               0.002307909               0.000000000               0.000000000               0.000000000               0.000000000               0.000741709               0.007605458               0.000159851              -0.000672540               0.002759307               0.002086768               0.000000000               0.000000000               0.000000000               0.000000000               0.000559084               0.007152808              -0.000055320              -0.000684443               0.002612393               0.001927950               0.000000000               0.000000000               0.000000000               0.000000000               0.000416214               0.006821376              -0.000155331              -0.000696590               0.002505966               0.001809376               0.000000000               0.000000000               0.000000000               0.000000000               0.000303455               0.006567772              -0.000200368              -0.000707174               0.002424960               0.001717786               0.000000000               0.000000000               0.000000000               0.000000000               0.000214825               0.006360553              -0.000221228              -0.000714508               0.002358332               0.001643824               0.000000000               0.000000000               0.000000000               0.000000000               0.000146239               0.006186942              -0.000232039              -0.000718526               0.002301802               0.001583276               0.000000000               0.000000000               0.000000000               0.000000000               0.000093177               0.006036018              -0.000234103              -0.000719559               0.002251839               0.001532280               0.000000000               0.000000000               0.000000000               0.000000000               0.000054015               0.005894477              -0.000227764              -0.000716552               0.002203657               0.001487104               0.000000000               0.000000000               0.000000000               0.000000000               0.000033894               0.005760811              -0.000210486              -0.000707389               0.002156048               0.001448658               0.000000000               0.000000000               0.000000000               0.000000000               0.000023768               0.005635002              -0.000180877              -0.000695461               0.002110135               0.001414675               0.000000000               0.000000000               0.000000000               0.000000000               0.000014721               0.005522521              -0.000143570              -0.000684793               0.002069086               0.001384293               0.000000000               0.000000000               0.000000000               0.000000000               0.000006075               0.005430701              -0.000101453              -0.000676558               0.002035735               0.001359177               0.000000000               0.000000000               0.000000000               0.000000000               0.000001246               0.005365102              -0.000053080              -0.000670169               0.002011739               0.001341570               0.000000000               0.000000000               0.000000000               0.000000000              -0.000002197               0.005334768              -0.000029054              -0.000667668               0.002000794               0.001333126               0.000000000               0.000000000               0.000000000               0.000000000               0.002028409               0.009243201               0.003246221              -0.000394749               0.003212618               0.002817869               0.000000000               0.000000000               0.000000000               0.000000000               0.001132497               0.008236884               0.002007929              -0.000604924               0.002947241               0.002342317               0.000000000               0.000000000               0.000000000               0.000000000               0.000589727               0.007727009               0.000796914              -0.000744727               0.002823886               0.002079159               0.000000000               0.000000000               0.000000000               0.000000000               0.000318017               0.007287617               0.000324586              -0.000791694               0.002693079               0.001901385               0.000000000               0.000000000               0.000000000               0.000000000               0.000165334               0.006930622               0.000111095              -0.000804325               0.002578293               0.001773967               0.000000000               0.000000000               0.000000000               0.000000000               0.000070795               0.006643657               0.000001435              -0.000803907               0.002482499               0.001678592               0.000000000               0.000000000               0.000000000               0.000000000               0.000007400               0.006404297              -0.000055915              -0.000797760               0.002400664               0.001602904               0.000000000               0.000000000               0.000000000               0.000000000              -0.000036755               0.006198478              -0.000089836              -0.000788591               0.002329002               0.001540411               0.000000000               0.000000000               0.000000000               0.000000000              -0.000063695               0.006024001              -0.000115743              -0.000776884               0.002266941               0.001490058               0.000000000               0.000000000               0.000000000               0.000000000              -0.000074953               0.005871168              -0.000129580              -0.000762001               0.002211037               0.001449035               0.000000000               0.000000000               0.000000000               0.000000000              -0.000073422               0.005724647              -0.000131108              -0.000743112               0.002155901               0.001412789               0.000000000               0.000000000               0.000000000               0.000000000              -0.000062314               0.005584053              -0.000122039              -0.000721372               0.002101790               0.001380417               0.000000000               0.000000000               0.000000000               0.000000000              -0.000049224               0.005458975              -0.000103895              -0.000700829               0.002053250               0.001352421               0.000000000               0.000000000               0.000000000               0.000000000              -0.000036555               0.005356605              -0.000081528              -0.000683282               0.002013278               0.001329996               0.000000000               0.000000000               0.000000000               0.000000000              -0.000025070               0.005277357              -0.000056830              -0.000669069               0.001982124               0.001313055               0.000000000               0.000000000               0.000000000               0.000000000              -0.000013781               0.005219166              -0.000028278              -0.000657562               0.001958892               0.001301330               0.000000000               0.000000000               0.000000000               0.000000000              -0.000011343               0.005188845              -0.000015167              -0.000652858               0.001947217               0.001294359               0.000000000               0.000000000               0.000000000               0.000000000               0.001963840               0.007658238               0.003151615              -0.000220843               0.002626334               0.002405491               0.000000000               0.000000000               0.000000000               0.000000000               0.000932658               0.007221033               0.002050963              -0.000552883               0.002591281               0.002038398               0.000000000               0.000000000               0.000000000               0.000000000               0.000217104               0.007183587               0.000960994              -0.000816533               0.002666683               0.001850150               0.000000000               0.000000000               0.000000000               0.000000000              -0.000041318               0.006924054               0.000528007              -0.000880999               0.002601661               0.001720662               0.000000000               0.000000000               0.000000000               0.000000000              -0.000142639               0.006649160               0.000315165              -0.000884633               0.002511242               0.001626609               0.000000000               0.000000000               0.000000000               0.000000000              -0.000188226               0.006398791               0.000190082              -0.000870431               0.002423053               0.001552621               0.000000000               0.000000000               0.000000000               0.000000000              -0.000207496               0.006176036               0.000112597              -0.000849813               0.002341929               0.001492116               0.000000000               0.000000000               0.000000000               0.000000000              -0.000207102               0.005986052               0.000057000              -0.000825917               0.002270636               0.001444719               0.000000000               0.000000000               0.000000000               0.000000000              -0.000192047               0.005823247               0.000009959              -0.000799921               0.002207703               0.001407782               0.000000000               0.000000000               0.000000000               0.000000000              -0.000167361               0.005669136              -0.000019409              -0.000771400               0.002146827               0.001375426               0.000000000               0.000000000               0.000000000               0.000000000              -0.000136773               0.005517085              -0.000031530              -0.000740924               0.002085985               0.001345061               0.000000000               0.000000000               0.000000000               0.000000000              -0.000103507               0.005378426              -0.000037318              -0.000711117               0.002029829               0.001318713               0.000000000               0.000000000               0.000000000               0.000000000              -0.000073215               0.005262319              -0.000039407              -0.000685244               0.001982503               0.001297259               0.000000000               0.000000000               0.000000000               0.000000000              -0.000049406               0.005169435              -0.000037175              -0.000664705               0.001944696               0.001279991               0.000000000               0.000000000               0.000000000               0.000000000              -0.000030882               0.005095575              -0.000029647              -0.000648526               0.001914683               0.001266157               0.000000000               0.000000000               0.000000000               0.000000000              -0.000015761               0.005036573              -0.000016997              -0.000635480               0.001890668               0.001255187               0.000000000               0.000000000               0.000000000               0.000000000              -0.000013329               0.005002592              -0.000012568              -0.000630321               0.001877621               0.001247300               0.000000000               0.000000000               0.000000000               0.000000000               0.001756445               0.006161921               0.002869146              -0.000111577               0.002091144               0.001979567               0.000000000               0.000000000               0.000000000               0.000000000               0.000692240               0.006269502               0.002019618              -0.000524098               0.002264512               0.001740413               0.000000000               0.000000000               0.000000000               0.000000000              -0.000094927               0.006635229               0.001137702              -0.000864999               0.002500054               0.001635054               0.000000000               0.000000000               0.000000000               0.000000000              -0.000301478               0.006524140               0.000744101              -0.000928570               0.002484215               0.001555645               0.000000000               0.000000000               0.000000000               0.000000000              -0.000347499               0.006322683               0.000521482              -0.000920645               0.002414422               0.001493776               0.000000000               0.000000000               0.000000000               0.000000000              -0.000348932               0.006114756               0.000372824              -0.000895192               0.002336629               0.001441437               0.000000000               0.000000000               0.000000000               0.000000000              -0.000329620               0.005924142               0.000267151              -0.000864123               0.002262735               0.001398612               0.000000000               0.000000000               0.000000000               0.000000000              -0.000293745               0.005759264               0.000187749              -0.000830060               0.002196422               0.001366362               0.000000000               0.000000000               0.000000000               0.000000000              -0.000246701               0.005603156               0.000124760              -0.000792906               0.002132002               0.001339096               0.000000000               0.000000000               0.000000000               0.000000000              -0.000195382               0.005443119               0.000080774              -0.000753656               0.002065574               0.001311917               0.000000000               0.000000000               0.000000000               0.000000000              -0.000141468               0.005292115               0.000050216              -0.000714563               0.002002208               0.001287645               0.000000000               0.000000000               0.000000000               0.000000000              -0.000094992               0.005160138               0.000022889              -0.000680638               0.001946908               0.001266270               0.000000000               0.000000000               0.000000000               0.000000000              -0.000062531               0.005048725               0.000000753              -0.000654538               0.001901071               0.001246533               0.000000000               0.000000000               0.000000000               0.000000000              -0.000041180               0.004955245              -0.000013041              -0.000634846               0.001863347               0.001228501               0.000000000               0.000000000               0.000000000               0.000000000              -0.000025872               0.004875289              -0.000016397              -0.000619112               0.001831450               0.001212339               0.000000000               0.000000000               0.000000000               0.000000000              -0.000012954               0.004806862              -0.000011546              -0.000605714               0.001804176               0.001198462               0.000000000               0.000000000               0.000000000               0.000000000              -0.000009638               0.004765093              -0.000010972              -0.000599249               0.001788098               0.001188849               0.000000000               0.000000000               0.000000000               0.000000000               0.001468500               0.004866869               0.002471287              -0.000057674               0.001641497               0.001583823               0.000000000               0.000000000               0.000000000               0.000000000               0.000472167               0.005415117               0.001955083              -0.000499828               0.001971629               0.001471802               0.000000000               0.000000000               0.000000000               0.000000000              -0.000304149               0.006114673               0.001341339              -0.000878389               0.002331000               0.001452611               0.000000000               0.000000000               0.000000000               0.000000000              -0.000451137               0.006155594               0.000973299              -0.000938623               0.002364719               0.001426095               0.000000000               0.000000000               0.000000000               0.000000000              -0.000455919               0.006039011               0.000729633              -0.000925844               0.002321598               0.001395754               0.000000000               0.000000000               0.000000000               0.000000000              -0.000425353               0.005888585               0.000554789              -0.000895578               0.002261368               0.001365790               0.000000000               0.000000000               0.000000000               0.000000000              -0.000377612               0.005738561               0.000425125              -0.000858923               0.002199142               0.001340219               0.000000000               0.000000000               0.000000000               0.000000000              -0.000318671               0.005593091               0.000327447              -0.000818636               0.002137224               0.001318588               0.000000000               0.000000000               0.000000000               0.000000000              -0.000249626               0.005442220               0.000250012              -0.000773885               0.002072017               0.001298132               0.000000000               0.000000000               0.000000000               0.000000000              -0.000175174               0.005285851               0.000184993              -0.000726420               0.002004073               0.001277653               0.000000000               0.000000000               0.000000000               0.000000000              -0.000108110               0.005138257               0.000128853              -0.000682822               0.001940342               0.001257521               0.000000000               0.000000000               0.000000000               0.000000000              -0.000065123               0.005005922               0.000079286              -0.000650160               0.001885344               0.001235184               0.000000000               0.000000000               0.000000000               0.000000000              -0.000044252               0.004890263               0.000038973              -0.000627876               0.001839363               0.001211488               0.000000000               0.000000000               0.000000000               0.000000000              -0.000039888               0.004786257               0.000010418              -0.000613238               0.001799816               0.001186577               0.000000000               0.000000000               0.000000000               0.000000000              -0.000045022               0.004690833              -0.000003230              -0.000603236               0.001764674               0.001161438               0.000000000               0.000000000               0.000000000               0.000000000              -0.000048093               0.004603713              -0.000004703              -0.000593497               0.001732388               0.001138891               0.000000000               0.000000000               0.000000000               0.000000000              -0.000045573               0.004557691              -0.000003828              -0.000586800               0.001714815               0.001128015               0.000000000               0.000000000               0.000000000               0.000000000               0.001088166               0.003642203               0.002024229              -0.000047216               0.001229793               0.001182577               0.000000000               0.000000000               0.000000000               0.000000000               0.000311720               0.004439082               0.001871547              -0.000437991               0.001625675               0.001187684               0.000000000               0.000000000               0.000000000               0.000000000              -0.000379824               0.005381044               0.001567817              -0.000815063               0.002065351               0.001250287               0.000000000               0.000000000               0.000000000               0.000000000              -0.000502417               0.005624254               0.001236778              -0.000891436               0.002171878               0.001280442               0.000000000               0.000000000               0.000000000               0.000000000              -0.000491740               0.005640389               0.000976157              -0.000889449               0.002176594               0.001287144               0.000000000               0.000000000               0.000000000               0.000000000              -0.000447856               0.005582376               0.000779104              -0.000865741               0.002149354               0.001283612               0.000000000               0.000000000               0.000000000               0.000000000              -0.000389143               0.005500775               0.000629244              -0.000833524               0.002111414               0.001277891               0.000000000               0.000000000               0.000000000               0.000000000              -0.000323928               0.005406720               0.000512561              -0.000797311               0.002067992               0.001270681               0.000000000               0.000000000               0.000000000               0.000000000              -0.000255129               0.005297955               0.000415728              -0.000757916               0.002018606               0.001260690               0.000000000               0.000000000               0.000000000               0.000000000              -0.000183527               0.005176296               0.000327577              -0.000715858               0.001964034               0.001248176               0.000000000               0.000000000               0.000000000               0.000000000              -0.000117255               0.005049613               0.000243178              -0.000675171               0.001908245               0.001233074               0.000000000               0.000000000               0.000000000               0.000000000              -0.000073440               0.004922921               0.000166801              -0.000642904               0.001855258               0.001212355               0.000000000               0.000000000               0.000000000               0.000000000              -0.000056070               0.004806142               0.000102937              -0.000621792               0.001809295               0.001187503               0.000000000               0.000000000               0.000000000               0.000000000              -0.000057376               0.004705567               0.000051147              -0.000609710               0.001771743               0.001162033               0.000000000               0.000000000               0.000000000               0.000000000              -0.000074989               0.004610358               0.000017267              -0.000604414               0.001738242               0.001133828               0.000000000               0.000000000               0.000000000               0.000000000              -0.000099641               0.004515716               0.000002996              -0.000601828               0.001705833               0.001104005               0.000000000               0.000000000               0.000000000               0.000000000              -0.000110507               0.004469298              -0.000000366              -0.000600101               0.001689785               0.001089684               0.000000000               0.000000000               0.000000000               0.000000000               0.000540130               0.002519432               0.001545951              -0.000112382               0.000877262               0.000764880               0.000000000               0.000000000               0.000000000               0.000000000               0.000126229               0.003471800               0.001730240              -0.000386640               0.001286134               0.000899494               0.000000000               0.000000000               0.000000000               0.000000000              -0.000381945               0.004561790               0.001739945              -0.000713453               0.001758399               0.001044946               0.000000000               0.000000000               0.000000000               0.000000000              -0.000479101               0.004997399               0.001491498              -0.000804337               0.001933895               0.001129558               0.000000000               0.000000000               0.000000000               0.000000000              -0.000461621               0.005164435               0.001238265              -0.000818661               0.001994348               0.001175687               0.000000000               0.000000000               0.000000000               0.000000000              -0.000416288               0.005217333               0.001031098              -0.000808273               0.002008518               0.001200245               0.000000000               0.000000000               0.000000000               0.000000000              -0.000360152               0.005222294               0.000865284              -0.000787842               0.002003361               0.001215519               0.000000000               0.000000000               0.000000000               0.000000000              -0.000300353               0.005197453               0.000731481              -0.000762313               0.001986571               0.001224259               0.000000000               0.000000000               0.000000000               0.000000000              -0.000242281               0.005144898               0.000617018              -0.000733966               0.001959604               0.001225638               0.000000000               0.000000000               0.000000000               0.000000000              -0.000180225               0.005074124               0.000511369              -0.000701848               0.001925307               0.001223459               0.000000000               0.000000000               0.000000000               0.000000000              -0.000116473               0.004985306               0.000407301              -0.000666839               0.001884032               0.001217193               0.000000000               0.000000000               0.000000000               0.000000000              -0.000065433               0.004878459               0.000307320              -0.000634343               0.001837585               0.001203241               0.000000000               0.000000000               0.000000000               0.000000000              -0.000041405               0.004770704               0.000216825              -0.000611863               0.001794173               0.001182310               0.000000000               0.000000000               0.000000000               0.000000000              -0.000045192               0.004671372               0.000136521              -0.000600867               0.001757397               0.001156530               0.000000000               0.000000000               0.000000000               0.000000000              -0.000073595               0.004580398               0.000071569              -0.000600146               0.001726833               0.001126687               0.000000000               0.000000000               0.000000000               0.000000000              -0.000122249               0.004497995               0.000026981              -0.000608091               0.001702014               0.001093923               0.000000000               0.000000000               0.000000000               0.000000000              -0.000159851               0.004451537               0.000005716              -0.000616385               0.001689292               0.001072907               0.000000000               0.000000000               0.000000000               0.000000000              -0.000146460               0.001566370               0.001061034              -0.000250719               0.000605690               0.000354971               0.000000000               0.000000000               0.000000000               0.000000000              -0.000130333               0.002559492               0.001507191              -0.000368812               0.000976092               0.000607280               0.000000000               0.000000000               0.000000000               0.000000000              -0.000350308               0.003662043               0.001781350              -0.000589121               0.001417042               0.000827921               0.000000000               0.000000000               0.000000000               0.000000000              -0.000379311               0.004234155               0.001647680              -0.000671510               0.001635207               0.000963697               0.000000000               0.000000000               0.000000000               0.000000000              -0.000349335               0.004542764               0.001433615              -0.000698845               0.001747187               0.001048342               0.000000000               0.000000000               0.000000000               0.000000000              -0.000307968               0.004716697               0.001234502              -0.000705074               0.001807241               0.001102167               0.000000000               0.000000000               0.000000000               0.000000000              -0.000261522               0.004818455               0.001065861              -0.000700376               0.001839594               0.001139218               0.000000000               0.000000000               0.000000000               0.000000000              -0.000215372               0.004874079               0.000922589              -0.000690023               0.001854684               0.001164661               0.000000000               0.000000000               0.000000000               0.000000000              -0.000171225               0.004892061               0.000798297              -0.000675716               0.001855909               0.001180193               0.000000000               0.000000000               0.000000000               0.000000000              -0.000123456               0.004884199               0.000686118              -0.000656819               0.001846990               0.001190171               0.000000000               0.000000000               0.000000000               0.000000000              -0.000069763               0.004852041               0.000576049              -0.000632665               0.001828219               0.001195554               0.000000000               0.000000000               0.000000000               0.000000000              -0.000017955               0.004792099               0.000464335              -0.000605744               0.001799265               0.001193521               0.000000000               0.000000000               0.000000000               0.000000000               0.000013547               0.004711016               0.000355063              -0.000583795               0.001764921               0.001181126               0.000000000               0.000000000               0.000000000               0.000000000               0.000017374               0.004622431               0.000251714              -0.000571287               0.001731224               0.001159937               0.000000000               0.000000000               0.000000000               0.000000000              -0.000010085               0.004541531               0.000155853              -0.000571472               0.001704319               0.001132847               0.000000000               0.000000000               0.000000000               0.000000000              -0.000073021               0.004474845               0.000070960              -0.000586737               0.001687179               0.001100442               0.000000000               0.000000000               0.000000000               0.000000000              -0.000133684               0.004432041               0.000024505              -0.000604135               0.001678711               0.001074576               0.000000000               0.000000000               0.000000000               0.000000000              -0.000919255               0.000831690               0.000624760              -0.000448681               0.000426787              -0.000021894               0.000000000               0.000000000               0.000000000               0.000000000              -0.000441345               0.001746454               0.001223538              -0.000383811               0.000710082               0.000326271               0.000000000               0.000000000               0.000000000               0.000000000              -0.000304895               0.002751151               0.001674984              -0.000458230               0.001069783               0.000611554               0.000000000               0.000000000               0.000000000               0.000000000              -0.000225020               0.003395640               0.001653268              -0.000508838               0.001301481               0.000792643               0.000000000               0.000000000               0.000000000               0.000000000              -0.000165992               0.003817311               0.001501483              -0.000539411               0.001452227               0.000912817               0.000000000               0.000000000               0.000000000               0.000000000              -0.000123623               0.004099706               0.001333831              -0.000558821               0.001552829               0.000994007               0.000000000               0.000000000               0.000000000               0.000000000              -0.000088848               0.004296667               0.001178374              -0.000570401               0.001622341               0.001051941               0.000000000               0.000000000               0.000000000               0.000000000              -0.000058050               0.004437328               0.001038965              -0.000576434               0.001671239               0.001094805               0.000000000               0.000000000               0.000000000               0.000000000              -0.000029583               0.004533732               0.000915916              -0.000577809               0.001703832               0.001126023               0.000000000               0.000000000               0.000000000               0.000000000               0.000000421               0.004599323               0.000804562              -0.000574757               0.001724678               0.001149921               0.000000000               0.000000000               0.000000000               0.000000000               0.000036989               0.004638663               0.000698202              -0.000565961               0.001734859               0.001168898               0.000000000               0.000000000               0.000000000               0.000000000               0.000079701               0.004645719               0.000587376              -0.000550826               0.001732166               0.001181340               0.000000000               0.000000000               0.000000000               0.000000000               0.000114909               0.004613556               0.000475181              -0.000533602               0.001715704               0.001182102               0.000000000               0.000000000               0.000000000               0.000000000               0.000133424               0.004558257               0.000364456              -0.000519747               0.001692653               0.001172906               0.000000000               0.000000000               0.000000000               0.000000000               0.000125969               0.004499924               0.000247787              -0.000515251               0.001671710               0.001156459               0.000000000               0.000000000               0.000000000               0.000000000               0.000078807               0.004452976               0.000125507              -0.000527068               0.001660000               0.001132932               0.000000000               0.000000000               0.000000000               0.000000000               0.000019773               0.004420343               0.000055958              -0.000545127               0.001655142               0.001110015               0.000000000               0.000000000               0.000000000               0.000000000              -0.001689189               0.000316876               0.000290796              -0.000673054               0.000329974              -0.000343080               0.000000000               0.000000000               0.000000000               0.000000000              -0.000774278               0.001075184               0.000906712              -0.000424752               0.000499974               0.000075222               0.000000000               0.000000000               0.000000000               0.000000000              -0.000263528               0.001911204               0.001415166              -0.000337724               0.000749636               0.000411912               0.000000000               0.000000000               0.000000000               0.000000000              -0.000047438               0.002571108               0.001474984              -0.000339178               0.000970086               0.000630908               0.000000000               0.000000000               0.000000000               0.000000000               0.000060823               0.003066119               0.001391019              -0.000360456               0.001142181               0.000781725               0.000000000               0.000000000               0.000000000               0.000000000               0.000114545               0.003431205               0.001270365              -0.000385946               0.001272372               0.000886426               0.000000000               0.000000000               0.000000000               0.000000000               0.000139673               0.003710272               0.001146494              -0.000411406               0.001373880               0.000962474               0.000000000               0.000000000               0.000000000               0.000000000               0.000157531               0.003930658               0.001028412              -0.000432257               0.001454292               0.001022034               0.000000000               0.000000000               0.000000000               0.000000000               0.000168199               0.004103261               0.000918485              -0.000449832               0.001517684               0.001067851               0.000000000               0.000000000               0.000000000               0.000000000               0.000178403               0.004244215               0.000817678              -0.000463625               0.001569266               0.001105641               0.000000000               0.000000000               0.000000000               0.000000000               0.000195435               0.004357921               0.000723739              -0.000471451               0.001609776               0.001138325               0.000000000               0.000000000               0.000000000               0.000000000               0.000224582               0.004437021               0.000626402              -0.000470409               0.001635795               0.001165386               0.000000000               0.000000000               0.000000000               0.000000000               0.000262494               0.004474222               0.000524260              -0.000460842               0.001645006               0.001184165               0.000000000               0.000000000               0.000000000               0.000000000               0.000298358               0.004475933               0.000419698              -0.000447606               0.001641165               0.001193559               0.000000000               0.000000000               0.000000000               0.000000000               0.000328127               0.004459578               0.000302161              -0.000434399               0.001631311               0.001196912               0.000000000               0.000000000               0.000000000               0.000000000               0.000339980               0.004440662               0.000162649              -0.000427589               0.001622736               0.001195146               0.000000000               0.000000000               0.000000000               0.000000000               0.000330401               0.004425706               0.000084001              -0.000429312               0.001618324               0.001189013               0.000000000               0.000000000               0.000000000               0.000000000              -0.002343876              -0.000003415               0.000087071              -0.000878526               0.000291702              -0.000586824               0.000000000               0.000000000               0.000000000               0.000000000              -0.001078623               0.000581519               0.000585835              -0.000477173               0.000352895              -0.000124279               0.000000000               0.000000000               0.000000000               0.000000000              -0.000238497               0.001236009               0.001019482              -0.000243938               0.000493311               0.000249373               0.000000000               0.000000000               0.000000000               0.000000000               0.000119727               0.001872233               0.001110362              -0.000189132               0.000687115               0.000497983               0.000000000               0.000000000               0.000000000               0.000000000               0.000285853               0.002400992               0.001078862              -0.000192930               0.000864632               0.000671702               0.000000000               0.000000000               0.000000000               0.000000000               0.000358375               0.002819513               0.001006028              -0.000218049               0.001012511               0.000794462               0.000000000               0.000000000               0.000000000               0.000000000               0.000383361               0.003157807               0.000925928              -0.000250966               0.001136247               0.000885281               0.000000000               0.000000000               0.000000000               0.000000000               0.000388579               0.003439744               0.000843735              -0.000284251               0.001241320               0.000957069               0.000000000               0.000000000               0.000000000               0.000000000               0.000385674               0.003676579               0.000761290              -0.000314944               0.001330495               0.001015551               0.000000000               0.000000000               0.000000000               0.000000000               0.000382822               0.003878227               0.000684055              -0.000341220               0.001406469               0.001065250               0.000000000               0.000000000               0.000000000               0.000000000               0.000387017               0.004050588               0.000612611              -0.000361192               0.001470580               0.001109388               0.000000000               0.000000000               0.000000000               0.000000000               0.000404091               0.004191108               0.000539879              -0.000372354               0.001521140               0.001148786               0.000000000               0.000000000               0.000000000               0.000000000               0.000440665               0.004295044               0.000460039              -0.000371631               0.001555544               0.001183913               0.000000000               0.000000000               0.000000000               0.000000000               0.000494477               0.004363519               0.000375010              -0.000360010               0.001574495               0.001214485               0.000000000               0.000000000               0.000000000               0.000000000               0.000564219               0.004401498               0.000277300              -0.000338604               0.001580020               0.001241415               0.000000000               0.000000000               0.000000000               0.000000000               0.000649220               0.004416977               0.000153114              -0.000308664               0.001575199               0.001266535               0.000000000               0.000000000               0.000000000               0.000000000               0.000712720               0.004425759               0.000085096              -0.000285949               0.001570555               0.001284605               0.000000000               0.000000000               0.000000000               0.000000000              -0.002784468              -0.000166114               0.000006838              -0.001023411               0.000285764              -0.000737647               0.000000000               0.000000000               0.000000000               0.000000000              -0.001296539               0.000286444               0.000284059              -0.000522007               0.000269482              -0.000252525               0.000000000               0.000000000               0.000000000               0.000000000              -0.000230345               0.000800931               0.000531489              -0.000186496               0.000329139               0.000142643               0.000000000               0.000000000               0.000000000               0.000000000               0.000240312               0.001401592               0.000595396              -0.000085082               0.000495553               0.000410471               0.000000000               0.000000000               0.000000000               0.000000000               0.000451679               0.001937454               0.000589192              -0.000072803               0.000670079               0.000597276               0.000000000               0.000000000               0.000000000               0.000000000               0.000542547               0.002386961               0.000556534              -0.000094915               0.000827284               0.000732369               0.000000000               0.000000000               0.000000000               0.000000000               0.000573430               0.002764221               0.000519109              -0.000130491               0.000964895               0.000834404               0.000000000               0.000000000               0.000000000               0.000000000               0.000572651               0.003081887               0.000478702              -0.000170492               0.001084116               0.000913624               0.000000000               0.000000000               0.000000000               0.000000000               0.000563541               0.003354086               0.000435555              -0.000207933               0.001187328               0.000979396               0.000000000               0.000000000               0.000000000               0.000000000               0.000557382               0.003590713               0.000393939              -0.000239821               0.001276833               0.001037012               0.000000000               0.000000000               0.000000000               0.000000000               0.000559014               0.003797527               0.000354791              -0.000265060               0.001354183               0.001089123               0.000000000               0.000000000               0.000000000               0.000000000               0.000571670               0.003975879               0.000315311              -0.000282608               0.001419482               0.001136874               0.000000000               0.000000000               0.000000000               0.000000000               0.000604468               0.004125652               0.000271536              -0.000289030               0.001471547               0.001182517               0.000000000               0.000000000               0.000000000               0.000000000               0.000665204               0.004245727               0.000222819              -0.000281264               0.001508983               0.001227719               0.000000000               0.000000000               0.000000000               0.000000000               0.000758459               0.004333684               0.000166400              -0.000257288               0.001530310               0.001273022               0.000000000               0.000000000               0.000000000               0.000000000               0.000894376               0.004389625               0.000092136              -0.000213312               0.001534297               0.001320986               0.000000000               0.000000000               0.000000000               0.000000000               0.001013477               0.004422901               0.000051599              -0.000172808               0.001531888               0.001359080               0.000000000               0.000000000               0.000000000               0.000000000              -0.002940804              -0.000214359              -0.000000000              -0.001076006               0.000287214              -0.000788792               0.000000000               0.000000000               0.000000000               0.000000000              -0.001376458               0.000188580               0.000000000              -0.000539744               0.000242773              -0.000296971               0.000000000               0.000000000               0.000000000               0.000000000              -0.000229369               0.000649905              -0.000000000              -0.000167251               0.000272383               0.000105132               0.000000000               0.000000000               0.000000000               0.000000000               0.000284658               0.001234311              -0.000000000              -0.000047542               0.000427280               0.000379738               0.000000000               0.000000000               0.000000000               0.000000000               0.000512756               0.001771040              -0.000000000              -0.000029097               0.000600039               0.000570943               0.000000000               0.000000000               0.000000000               0.000000000               0.000610597               0.002231670              -0.000000000              -0.000049985               0.000760544               0.000710559               0.000000000               0.000000000               0.000000000               0.000000000               0.000643960               0.002622156              -0.000000000              -0.000086284               0.000902805               0.000816520               0.000000000               0.000000000               0.000000000               0.000000000               0.000643438               0.002951886               0.000000000              -0.000127696               0.001026517               0.000898821               0.000000000               0.000000000               0.000000000               0.000000000               0.000634008               0.003233471              -0.000000000              -0.000166431               0.001133290               0.000966859               0.000000000               0.000000000               0.000000000               0.000000000               0.000628405               0.003479650               0.000000000              -0.000199304               0.001226306               0.001027003               0.000000000               0.000000000               0.000000000               0.000000000               0.000630232               0.003697295               0.000000000              -0.000225824               0.001307694               0.001081870               0.000000000               0.000000000               0.000000000               0.000000000               0.000643193               0.003888316              -0.000000000              -0.000244842               0.001377706               0.001132865               0.000000000               0.000000000               0.000000000               0.000000000               0.000674306               0.004055431               0.000000000              -0.000254064               0.001436485               0.001182421               0.000000000               0.000000000               0.000000000               0.000000000               0.000735458               0.004197932              -0.000000000              -0.000248944               0.001482278               0.001233334               0.000000000               0.000000000               0.000000000               0.000000000               0.000834910               0.004307993              -0.000000000              -0.000225407               0.001511119               0.001285712               0.000000000               0.000000000               0.000000000               0.000000000               0.000985430               0.004377923               0.000000000              -0.000177704               0.001518528               0.001340824               0.000000000               0.000000000               0.000000000               0.000000000               0.001123191               0.004418346               0.000000000              -0.000131096               0.001516466               0.001385370               0.000000000               0.000000000               0.000000000               0.000000000               0.001271388               0.014474304              -0.000000000              -0.001332514               0.005268891               0.003936377               0.000000000               0.000000000               0.000000000               0.000000000               0.001351575               0.011724464              -0.000000000              -0.000958715               0.004227687               0.003268972               0.000000000               0.000000000               0.000000000               0.000000000               0.001858585               0.009498956               0.000000000              -0.000490399               0.003329753               0.002839354               0.000000000               0.000000000               0.000000000               0.000000000               0.001895703               0.008255212               0.000000000              -0.000321012               0.002858714               0.002537702               0.000000000               0.000000000               0.000000000               0.000000000               0.001769817               0.007492892              -0.000000000              -0.000272930               0.002588582               0.002315653               0.000000000               0.000000000               0.000000000               0.000000000               0.001592567               0.007001870               0.000000000              -0.000278020               0.002426607               0.002148586               0.000000000               0.000000000               0.000000000               0.000000000               0.001396339               0.006668850               0.000000000              -0.000309978               0.002326254               0.002016275               0.000000000               0.000000000               0.000000000               0.000000000               0.001196837               0.006433030              -0.000000000              -0.000355314               0.002262760               0.001907446               0.000000000               0.000000000               0.000000000               0.000000000               0.001008127               0.006262317              -0.000000000              -0.000404741               0.002222332               0.001817591               0.000000000               0.000000000               0.000000000               0.000000000               0.000833739               0.006133969              -0.000000000              -0.000454093               0.002196000               0.001741908               0.000000000               0.000000000               0.000000000               0.000000000               0.000670463               0.006033331              -0.000000000              -0.000502741               0.002178671               0.001675929               0.000000000               0.000000000               0.000000000               0.000000000               0.000518057               0.005950745              -0.000000000              -0.000549570               0.002166752               0.001617182               0.000000000               0.000000000               0.000000000               0.000000000               0.000376235               0.005870846              -0.000000000              -0.000592766               0.002154518               0.001561752               0.000000000               0.000000000               0.000000000               0.000000000               0.000248349               0.005778042              -0.000000000              -0.000629123               0.002135702               0.001506580               0.000000000               0.000000000               0.000000000               0.000000000               0.000141143               0.005665359               0.000000000              -0.000655239               0.002106847               0.001451608               0.000000000               0.000000000               0.000000000               0.000000000               0.000060144               0.005528359              -0.000000000              -0.000668489               0.002065598               0.001397108               0.000000000               0.000000000               0.000000000               0.000000000               0.000015906               0.005420697              -0.000000000              -0.000671621               0.002030755               0.001359134               0.000000000               0.000000000               0.000000000               0.000000000               0.001339659               0.014204328              -0.001048075              -0.001273166               0.005159117               0.003885951               0.000000000               0.000000000               0.000000000               0.000000000               0.001357746               0.011539295              -0.000615584              -0.000933255               0.004157478               0.003224223               0.000000000               0.000000000               0.000000000               0.000000000               0.001797594               0.009403951              -0.000176469              -0.000501395               0.003301751               0.002800356               0.000000000               0.000000000               0.000000000               0.000000000               0.001804046               0.008206378               0.000018605              -0.000349279               0.002851859               0.002502579               0.000000000               0.000000000               0.000000000               0.000000000               0.001663448               0.007473421               0.000106102              -0.000310384               0.002594577               0.002284193               0.000000000               0.000000000               0.000000000               0.000000000               0.001479993               0.006995779               0.000143478              -0.000319474               0.002438394               0.002118920               0.000000000               0.000000000               0.000000000               0.000000000               0.001289843               0.006670774               0.000155776              -0.000350155               0.002340287               0.001990132               0.000000000               0.000000000               0.000000000               0.000000000               0.001103427               0.006441428               0.000157260              -0.000391392               0.002277585               0.001886193               0.000000000               0.000000000               0.000000000               0.000000000               0.000925216               0.006272583               0.000153598              -0.000437116               0.002236545               0.001799430               0.000000000               0.000000000               0.000000000               0.000000000               0.000758942               0.006142567               0.000147813              -0.000483216               0.002208574               0.001725358               0.000000000               0.000000000               0.000000000               0.000000000               0.000608120               0.006041686               0.000143189              -0.000527164               0.002189597               0.001662432               0.000000000               0.000000000               0.000000000               0.000000000               0.000468931               0.005957038               0.000136337              -0.000568779               0.002175252               0.001606473               0.000000000               0.000000000               0.000000000               0.000000000               0.000337718               0.005870604               0.000121902              -0.000607180               0.002159242               0.001552062               0.000000000               0.000000000               0.000000000               0.000000000               0.000221099               0.005774064               0.000101289              -0.000638844               0.002137617               0.001498773               0.000000000               0.000000000               0.000000000               0.000000000               0.000125056               0.005662451               0.000076492              -0.000660909               0.002107768               0.001446859               0.000000000               0.000000000               0.000000000               0.000000000               0.000053354               0.005529554               0.000043265              -0.000671185               0.002066894               0.001395710               0.000000000               0.000000000               0.000000000               0.000000000               0.000013552               0.005426905               0.000026613              -0.000673280               0.002033377               0.001360097               0.000000000               0.000000000               0.000000000               0.000000000               0.001519351               0.013430139              -0.001976476              -0.001109009               0.004846338               0.003737329               0.000000000               0.000000000               0.000000000               0.000000000               0.001364367               0.011009882              -0.001167067              -0.000864596               0.003958123               0.003093527               0.000000000               0.000000000               0.000000000               0.000000000               0.001618353               0.009133638              -0.000351904              -0.000534821               0.003222789               0.002687968               0.000000000               0.000000000               0.000000000               0.000000000               0.001548360               0.008069687               0.000003849              -0.000428075               0.002832560               0.002404486               0.000000000               0.000000000               0.000000000               0.000000000               0.001381574               0.007411536               0.000162677              -0.000408351               0.002606604               0.002198253               0.000000000               0.000000000               0.000000000               0.000000000               0.001195138               0.006976353               0.000232051              -0.000423866               0.002466717               0.002042850               0.000000000               0.000000000               0.000000000               0.000000000               0.001016409               0.006673282               0.000259244              -0.000453006               0.002375407               0.001922401               0.000000000               0.000000000               0.000000000               0.000000000               0.000852849               0.006454109               0.000266352              -0.000486944               0.002313663               0.001826719               0.000000000               0.000000000               0.000000000               0.000000000               0.000703073               0.006287937               0.000262537              -0.000522338               0.002270071               0.001747732               0.000000000               0.000000000               0.000000000               0.000000000               0.000566957               0.006156924               0.000256898              -0.000557005               0.002237956               0.001680951               0.000000000               0.000000000               0.000000000               0.000000000               0.000448645               0.006049859               0.000252770              -0.000587989               0.002212596               0.001624607               0.000000000               0.000000000               0.000000000               0.000000000               0.000342573               0.005950103               0.000240214              -0.000615296               0.002188447               0.001573150               0.000000000               0.000000000               0.000000000               0.000000000               0.000246439               0.005848938               0.000215591              -0.000638701               0.002162527               0.001523826               0.000000000               0.000000000               0.000000000               0.000000000               0.000165506               0.005745587               0.000182701              -0.000656132               0.002133887               0.001477755               0.000000000               0.000000000               0.000000000               0.000000000               0.000098469               0.005638085               0.000139455              -0.000667833               0.002101954               0.001434121               0.000000000               0.000000000               0.000000000               0.000000000               0.000043814               0.005525828               0.000079746              -0.000674296               0.002066690               0.001392393               0.000000000               0.000000000               0.000000000               0.000000000               0.000012601               0.005449787               0.000048535              -0.000676496               0.002042076               0.001365580               0.000000000               0.000000000               0.000000000               0.000000000               0.001749083               0.012255230              -0.002680928              -0.000875997               0.004377034               0.003501037               0.000000000               0.000000000               0.000000000               0.000000000               0.001345927               0.010215301              -0.001591657              -0.000772189               0.003662462               0.002890274               0.000000000               0.000000000               0.000000000               0.000000000               0.001336587               0.008733400              -0.000507329              -0.000590453               0.003107922               0.002517469               0.000000000               0.000000000               0.000000000               0.000000000               0.001174196               0.007866496              -0.000051728              -0.000542987               0.002803135               0.002260148               0.000000000               0.000000000               0.000000000               0.000000000               0.000987997               0.007307740               0.000150162              -0.000542967               0.002616878               0.002073911               0.000000000               0.000000000               0.000000000               0.000000000               0.000812963               0.006927334               0.000239099              -0.000561054               0.002496106               0.001935052               0.000000000               0.000000000               0.000000000               0.000000000               0.000660068               0.006652481               0.000275706              -0.000584033               0.002412149               0.001828116               0.000000000               0.000000000               0.000000000               0.000000000               0.000529548               0.006441326               0.000289676              -0.000606584               0.002349282               0.001742698               0.000000000               0.000000000               0.000000000               0.000000000               0.000418353               0.006273047               0.000292000              -0.000627247               0.002300077               0.001672830               0.000000000               0.000000000               0.000000000               0.000000000               0.000324859               0.006134842               0.000289825              -0.000645032               0.002259937               0.001614906               0.000000000               0.000000000               0.000000000               0.000000000               0.000244275               0.006008956               0.000282729              -0.000659515               0.002222803               0.001563289               0.000000000               0.000000000               0.000000000               0.000000000               0.000180264               0.005887699               0.000264665              -0.000668362               0.002185334               0.001516972               0.000000000               0.000000000               0.000000000               0.000000000               0.000131035               0.005770860               0.000234668              -0.000672218               0.002147673               0.001475456               0.000000000               0.000000000               0.000000000               0.000000000               0.000088646               0.005658840               0.000194289              -0.000674111               0.002110965               0.001436854               0.000000000               0.000000000               0.000000000               0.000000000               0.000052830               0.005557484               0.000143604              -0.000674873               0.002077434               0.001402561               0.000000000               0.000000000               0.000000000               0.000000000               0.000024442               0.005475567               0.000079447              -0.000675279               0.002050263               0.001374985               0.000000000               0.000000000               0.000000000               0.000000000               0.000008704               0.005433965               0.000045833              -0.000675980               0.002036630               0.001360650               0.000000000               0.000000000               0.000000000               0.000000000               0.001944082               0.010816395              -0.003102356              -0.000623020               0.003813102               0.003190082               0.000000000               0.000000000               0.000000000               0.000000000               0.001273271               0.009260057              -0.001864787              -0.000680030               0.003313331               0.002633301               0.000000000               0.000000000               0.000000000               0.000000000               0.000979061               0.008252682              -0.000648104              -0.000664436               0.002972345               0.002307909               0.000000000               0.000000000               0.000000000               0.000000000               0.000741709               0.007605458              -0.000159851              -0.000672540               0.002759307               0.002086768               0.000000000               0.000000000               0.000000000               0.000000000               0.000559084               0.007152808               0.000055320              -0.000684443               0.002612393               0.001927950               0.000000000               0.000000000               0.000000000               0.000000000               0.000416214               0.006821376               0.000155331              -0.000696590               0.002505966               0.001809376               0.000000000               0.000000000               0.000000000               0.000000000               0.000303455               0.006567772               0.000200368              -0.000707174               0.002424960               0.001717786               0.000000000               0.000000000               0.000000000               0.000000000               0.000214825               0.006360553               0.000221228              -0.000714508               0.002358332               0.001643824               0.000000000               0.000000000               0.000000000               0.000000000               0.000146239               0.006186942               0.000232039              -0.000718526               0.002301802               0.001583276               0.000000000               0.000000000               0.000000000               0.000000000               0.000093177               0.006036018               0.000234103              -0.000719559               0.002251839               0.001532280               0.000000000               0.000000000               0.000000000               0.000000000               0.000054015               0.005894477               0.000227764              -0.000716552               0.002203657               0.001487104               0.000000000               0.000000000               0.000000000               0.000000000               0.000033894               0.005760811               0.000210486              -0.000707389               0.002156048               0.001448658               0.000000000               0.000000000               0.000000000               0.000000000               0.000023768               0.005635002               0.000180877              -0.000695461               0.002110135               0.001414675               0.000000000               0.000000000               0.000000000               0.000000000               0.000014721               0.005522521               0.000143570              -0.000684793               0.002069086               0.001384293               0.000000000               0.000000000               0.000000000               0.000000000               0.000006075               0.005430701               0.000101453              -0.000676558               0.002035735               0.001359177               0.000000000               0.000000000               0.000000000               0.000000000               0.000001246               0.005365102               0.000053080              -0.000670169               0.002011739               0.001341570               0.000000000               0.000000000               0.000000000               0.000000000              -0.000002197               0.005334768               0.000029054              -0.000667668               0.002000794               0.001333126               0.000000000               0.000000000               0.000000000               0.000000000               0.002028409               0.009243201              -0.003246221              -0.000394749               0.003212618               0.002817869               0.000000000               0.000000000               0.000000000               0.000000000               0.001132497               0.008236884              -0.002007929              -0.000604924               0.002947241               0.002342317               0.000000000               0.000000000               0.000000000               0.000000000               0.000589727               0.007727009              -0.000796914              -0.000744727               0.002823886               0.002079159               0.000000000               0.000000000               0.000000000               0.000000000               0.000318017               0.007287617              -0.000324586              -0.000791694               0.002693079               0.001901385               0.000000000               0.000000000               0.000000000               0.000000000               0.000165334               0.006930622              -0.000111095              -0.000804325               0.002578293               0.001773967               0.000000000               0.000000000               0.000000000               0.000000000               0.000070795               0.006643657              -0.000001435              -0.000803907               0.002482499               0.001678592               0.000000000               0.000000000               0.000000000               0.000000000               0.000007400               0.006404297               0.000055915              -0.000797760               0.002400664               0.001602904               0.000000000               0.000000000               0.000000000               0.000000000              -0.000036755               0.006198478               0.000089836              -0.000788591               0.002329002               0.001540411               0.000000000               0.000000000               0.000000000               0.000000000              -0.000063695               0.006024001               0.000115743              -0.000776884               0.002266941               0.001490058               0.000000000               0.000000000               0.000000000               0.000000000              -0.000074953               0.005871168               0.000129580              -0.000762001               0.002211037               0.001449035               0.000000000               0.000000000               0.000000000               0.000000000              -0.000073422               0.005724647               0.000131108              -0.000743112               0.002155901               0.001412789               0.000000000               0.000000000               0.000000000               0.000000000              -0.000062314               0.005584053               0.000122039              -0.000721372               0.002101790               0.001380417               0.000000000               0.000000000               0.000000000               0.000000000              -0.000049224               0.005458975               0.000103895              -0.000700829               0.002053250               0.001352421               0.000000000               0.000000000               0.000000000               0.000000000              -0.000036555               0.005356605               0.000081528              -0.000683282               0.002013278               0.001329996               0.000000000               0.000000000               0.000000000               0.000000000              -0.000025070               0.005277357               0.000056830              -0.000669069               0.001982124               0.001313055               0.000000000               0.000000000               0.000000000               0.000000000              -0.000013781               0.005219166               0.000028278              -0.000657562               0.001958892               0.001301330               0.000000000               0.000000000               0.000000000               0.000000000              -0.000011343               0.005188845               0.000015167              -0.000652858               0.001947217               0.001294359               0.000000000               0.000000000               0.000000000               0.000000000               0.001963840               0.007658238              -0.003151615              -0.000220843               0.002626334               0.002405491               0.000000000               0.000000000               0.000000000               0.000000000               0.000932658               0.007221033              -0.002050963              -0.000552883               0.002591281               0.002038398               0.000000000               0.000000000               0.000000000               0.000000000               0.000217104               0.007183587              -0.000960994              -0.000816533               0.002666683               0.001850150               0.000000000               0.000000000               0.000000000               0.000000000              -0.000041318               0.006924054              -0.000528007              -0.000880999               0.002601661               0.001720662               0.000000000               0.000000000               0.000000000               0.000000000              -0.000142639               0.006649160              -0.000315165              -0.000884633               0.002511242               0.001626609               0.000000000               0.000000000               0.000000000               0.000000000              -0.000188226               0.006398791              -0.000190082              -0.000870431               0.002423053               0.001552621               0.000000000               0.000000000               0.000000000               0.000000000              -0.000207496               0.006176036              -0.000112597              -0.000849813               0.002341929               0.001492116               0.000000000               0.000000000               0.000000000               0.000000000              -0.000207102               0.005986052              -0.000057000              -0.000825917               0.002270636               0.001444719               0.000000000               0.000000000               0.000000000               0.000000000              -0.000192047               0.005823247              -0.000009959              -0.000799921               0.002207703               0.001407782               0.000000000               0.000000000               0.000000000               0.000000000              -0.000167361               0.005669136               0.000019409              -0.000771400               0.002146827               0.001375426               0.000000000               0.000000000               0.000000000               0.000000000              -0.000136773               0.005517085               0.000031530              -0.000740924               0.002085985               0.001345061               0.000000000               0.000000000               0.000000000               0.000000000              -0.000103507               0.005378426               0.000037318              -0.000711117               0.002029829               0.001318713               0.000000000               0.000000000               0.000000000               0.000000000              -0.000073215               0.005262319               0.000039407              -0.000685244               0.001982503               0.001297259               0.000000000               0.000000000               0.000000000               0.000000000              -0.000049406               0.005169435               0.000037175              -0.000664705               0.001944696               0.001279991               0.000000000               0.000000000               0.000000000               0.000000000              -0.000030882               0.005095575               0.000029647              -0.000648526               0.001914683               0.001266157               0.000000000               0.000000000               0.000000000               0.000000000              -0.000015761               0.005036573               0.000016997              -0.000635480               0.001890668               0.001255187               0.000000000               0.000000000               0.000000000               0.000000000              -0.000013329               0.005002592               0.000012568              -0.000630321               0.001877621               0.001247300               0.000000000               0.000000000               0.000000000               0.000000000               0.001756445               0.006161921              -0.002869146              -0.000111577               0.002091144               0.001979567               0.000000000               0.000000000               0.000000000               0.000000000               0.000692240               0.006269502              -0.002019618              -0.000524098               0.002264512               0.001740413               0.000000000               0.000000000               0.000000000               0.000000000              -0.000094927               0.006635229              -0.001137702              -0.000864999               0.002500054               0.001635054               0.000000000               0.000000000               0.000000000               0.000000000              -0.000301478               0.006524140              -0.000744101              -0.000928570               0.002484215               0.001555645               0.000000000               0.000000000               0.000000000               0.000000000              -0.000347499               0.006322683              -0.000521482              -0.000920645               0.002414422               0.001493776               0.000000000               0.000000000               0.000000000               0.000000000              -0.000348932               0.006114756              -0.000372824              -0.000895192               0.002336629               0.001441437               0.000000000               0.000000000               0.000000000               0.000000000              -0.000329620               0.005924142              -0.000267151              -0.000864123               0.002262735               0.001398612               0.000000000               0.000000000               0.000000000               0.000000000              -0.000293745               0.005759264              -0.000187749              -0.000830060               0.002196422               0.001366362               0.000000000               0.000000000               0.000000000               0.000000000              -0.000246701               0.005603156              -0.000124760              -0.000792906               0.002132002               0.001339096               0.000000000               0.000000000               0.000000000               0.000000000              -0.000195382               0.005443119              -0.000080774              -0.000753656               0.002065574               0.001311917               0.000000000               0.000000000               0.000000000               0.000000000              -0.000141468               0.005292115              -0.000050216              -0.000714563               0.002002208               0.001287645               0.000000000               0.000000000               0.000000000               0.000000000              -0.000094992               0.005160138              -0.000022889              -0.000680638               0.001946908               0.001266270               0.000000000               0.000000000               0.000000000               0.000000000              -0.000062531               0.005048725              -0.000000753              -0.000654538               0.001901071               0.001246533               0.000000000               0.000000000               0.000000000               0.000000000              -0.000041180               0.004955245               0.000013041              -0.000634846               0.001863347               0.001228501               0.000000000               0.000000000               0.000000000               0.000000000              -0.000025872               0.004875289               0.000016397              -0.000619112               0.001831450               0.001212339               0.000000000               0.000000000               0.000000000               0.000000000              -0.000012954               0.004806862               0.000011546              -0.000605714               0.001804176               0.001198462               0.000000000               0.000000000               0.000000000               0.000000000              -0.000009638               0.004765093               0.000010972              -0.000599249               0.001788098               0.001188849               0.000000000               0.000000000               0.000000000               0.000000000               0.001468500               0.004866869              -0.002471287              -0.000057674               0.001641497               0.001583823               0.000000000               0.000000000               0.000000000               0.000000000               0.000472167               0.005415117              -0.001955083              -0.000499828               0.001971629               0.001471802               0.000000000               0.000000000               0.000000000               0.000000000              -0.000304149               0.006114673              -0.001341339              -0.000878389               0.002331000               0.001452611               0.000000000               0.000000000               0.000000000               0.000000000              -0.000451137               0.006155594              -0.000973299              -0.000938623               0.002364719               0.001426095               0.000000000               0.000000000               0.000000000               0.000000000              -0.000455919               0.006039011              -0.000729633              -0.000925844               0.002321598               0.001395754               0.000000000               0.000000000               0.000000000               0.000000000              -0.000425353               0.005888585              -0.000554789              -0.000895578               0.002261368               0.001365790               0.000000000               0.000000000               0.000000000               0.000000000              -0.000377612               0.005738561              -0.000425125              -0.000858923               0.002199142               0.001340219               0.000000000               0.000000000               0.000000000               0.000000000              -0.000318671               0.005593091              -0.000327447              -0.000818636               0.002137224               0.001318588               0.000000000               0.000000000               0.000000000               0.000000000              -0.000249626               0.005442220              -0.000250012              -0.000773885               0.002072017               0.001298132               0.000000000               0.000000000               0.000000000               0.000000000              -0.000175174               0.005285851              -0.000184993              -0.000726420               0.002004073               0.001277653               0.000000000               0.000000000               0.000000000               0.000000000              -0.000108110               0.005138257              -0.000128853              -0.000682822               0.001940342               0.001257521               0.000000000               0.000000000               0.000000000               0.000000000              -0.000065123               0.005005922              -0.000079286              -0.000650160               0.001885344               0.001235184               0.000000000               0.000000000               0.000000000               0.000000000              -0.000044252               0.004890263              -0.000038973              -0.000627876               0.001839363               0.001211488               0.000000000               0.000000000               0.000000000               0.000000000              -0.000039888               0.004786257              -0.000010418              -0.000613238               0.001799816               0.001186577               0.000000000               0.000000000               0.000000000               0.000000000              -0.000045022               0.004690833               0.000003230              -0.000603236               0.001764674               0.001161438               0.000000000               0.000000000               0.000000000               0.000000000              -0.000048093               0.004603713               0.000004703              -0.000593497               0.001732388               0.001138891               0.000000000               0.000000000               0.000000000               0.000000000              -0.000045573               0.004557691               0.000003828              -0.000586800               0.001714815               0.001128015               0.000000000               0.000000000               0.000000000               0.000000000               0.001088166               0.003642203              -0.002024229              -0.000047216               0.001229793               0.001182577               0.000000000               0.000000000               0.000000000               0.000000000               0.000311720               0.004439082              -0.001871547              -0.000437991               0.001625675               0.001187684               0.000000000               0.000000000               0.000000000               0.000000000              -0.000379824               0.005381044              -0.001567817              -0.000815063               0.002065351               0.001250287               0.000000000               0.000000000               0.000000000               0.000000000              -0.000502417               0.005624254              -0.001236778              -0.000891436               0.002171878               0.001280442               0.000000000               0.000000000               0.000000000               0.000000000              -0.000491740               0.005640389              -0.000976157              -0.000889449               0.002176594               0.001287144               0.000000000               0.000000000               0.000000000               0.000000000              -0.000447856               0.005582376              -0.000779104              -0.000865741               0.002149354               0.001283612               0.000000000               0.000000000               0.000000000               0.000000000              -0.000389143               0.005500775              -0.000629244              -0.000833524               0.002111414               0.001277891               0.000000000               0.000000000               0.000000000               0.000000000              -0.000323928               0.005406720              -0.000512561              -0.000797311               0.002067992               0.001270681               0.000000000               0.000000000               0.000000000               0.000000000              -0.000255129               0.005297955              -0.000415728              -0.000757916               0.002018606               0.001260690               0.000000000               0.000000000               0.000000000               0.000000000              -0.000183527               0.005176296              -0.000327577              -0.000715858               0.001964034               0.001248176               0.000000000               0.000000000               0.000000000               0.000000000              -0.000117255               0.005049613              -0.000243178              -0.000675171               0.001908245               0.001233074               0.000000000               0.000000000               0.000000000               0.000000000              -0.000073440               0.004922921              -0.000166801              -0.000642904               0.001855258               0.001212355               0.000000000               0.000000000               0.000000000               0.000000000              -0.000056070               0.004806142              -0.000102937              -0.000621792               0.001809295               0.001187503               0.000000000               0.000000000               0.000000000               0.000000000              -0.000057376               0.004705567              -0.000051147              -0.000609710               0.001771743               0.001162033               0.000000000               0.000000000               0.000000000               0.000000000              -0.000074989               0.004610358              -0.000017267              -0.000604414               0.001738242               0.001133828               0.000000000               0.000000000               0.000000000               0.000000000              -0.000099641               0.004515716              -0.000002996              -0.000601828               0.001705833               0.001104005               0.000000000               0.000000000               0.000000000               0.000000000              -0.000110507               0.004469298               0.000000366              -0.000600101               0.001689785               0.001089684               0.000000000               0.000000000               0.000000000               0.000000000               0.000540130               0.002519432              -0.001545951              -0.000112382               0.000877262               0.000764880               0.000000000               0.000000000               0.000000000               0.000000000               0.000126229               0.003471800              -0.001730240              -0.000386640               0.001286134               0.000899494               0.000000000               0.000000000               0.000000000               0.000000000              -0.000381945               0.004561790              -0.001739945              -0.000713453               0.001758399               0.001044946               0.000000000               0.000000000               0.000000000               0.000000000              -0.000479101               0.004997399              -0.001491498              -0.000804337               0.001933895               0.001129558               0.000000000               0.000000000               0.000000000               0.000000000              -0.000461621               0.005164435              -0.001238265              -0.000818661               0.001994348               0.001175687               0.000000000               0.000000000               0.000000000               0.000000000              -0.000416288               0.005217333              -0.001031098              -0.000808273               0.002008518               0.001200245               0.000000000               0.000000000               0.000000000               0.000000000              -0.000360152               0.005222294              -0.000865284              -0.000787842               0.002003361               0.001215519               0.000000000               0.000000000               0.000000000               0.000000000              -0.000300353               0.005197453              -0.000731481              -0.000762313               0.001986571               0.001224259               0.000000000               0.000000000               0.000000000               0.000000000              -0.000242281               0.005144898              -0.000617018              -0.000733966               0.001959604               0.001225638               0.000000000               0.000000000               0.000000000               0.000000000              -0.000180225               0.005074124              -0.000511369              -0.000701848               0.001925307               0.001223459               0.000000000               0.000000000               0.000000000               0.000000000              -0.000116473               0.004985306              -0.000407301              -0.000666839               0.001884032               0.001217193               0.000000000               0.000000000               0.000000000               0.000000000              -0.000065433               0.004878459              -0.000307320              -0.000634343               0.001837585               0.001203241               0.000000000               0.000000000               0.000000000               0.000000000              -0.000041405               0.004770704              -0.000216825              -0.000611863               0.001794173               0.001182310               0.000000000               0.000000000               0.000000000               0.000000000              -0.000045192               0.004671372              -0.000136521              -0.000600867               0.001757397               0.001156530               0.000000000               0.000000000               0.000000000               0.000000000              -0.000073595               0.004580398              -0.000071569              -0.000600146               0.001726833               0.001126687               0.000000000               0.000000000               0.000000000               0.000000000              -0.000122249               0.004497995              -0.000026981              -0.000608091               0.001702014               0.001093923               0.000000000               0.000000000               0.000000000               0.000000000              -0.000159851               0.004451537              -0.000005716              -0.000616385               0.001689292               0.001072907               0.000000000               0.000000000               0.000000000               0.000000000              -0.000146460               0.001566370              -0.001061034              -0.000250719               0.000605690               0.000354971               0.000000000               0.000000000               0.000000000               0.000000000              -0.000130333               0.002559492              -0.001507191              -0.000368812               0.000976092               0.000607280               0.000000000               0.000000000               0.000000000               0.000000000              -0.000350308               0.003662043              -0.001781350              -0.000589121               0.001417042               0.000827921               0.000000000               0.000000000               0.000000000               0.000000000              -0.000379311               0.004234155              -0.001647680              -0.000671510               0.001635207               0.000963697               0.000000000               0.000000000               0.000000000               0.000000000              -0.000349335               0.004542764              -0.001433615              -0.000698845               0.001747187               0.001048342               0.000000000               0.000000000               0.000000000               0.000000000              -0.000307968               0.004716697              -0.001234502              -0.000705074               0.001807241               0.001102167               0.000000000               0.000000000               0.000000000               0.000000000              -0.000261522               0.004818455              -0.001065861              -0.000700376               0.001839594               0.001139218               0.000000000               0.000000000               0.000000000               0.000000000              -0.000215372               0.004874079              -0.000922589              -0.000690023               0.001854684               0.001164661               0.000000000               0.000000000               0.000000000               0.000000000              -0.000171225               0.004892061              -0.000798297              -0.000675716               0.001855909               0.001180193               0.000000000               0.000000000               0.000000000               0.000000000              -0.000123456               0.004884199              -0.000686118              -0.000656819               0.001846990               0.001190171               0.000000000               0.000000000               0.000000000               0.000000000              -0.000069763               0.004852041              -0.000576049              -0.000632665               0.001828219               0.001195554               0.000000000               0.000000000               0.000000000               0.000000000              -0.000017955               0.004792099              -0.000464335              -0.000605744               0.001799265               0.001193521               0.000000000               0.000000000               0.000000000               0.000000000               0.000013547               0.004711016              -0.000355063              -0.000583795               0.001764921               0.001181126               0.000000000               0.000000000               0.000000000               0.000000000               0.000017374               0.004622431              -0.000251714              -0.000571287               0.001731224               0.001159937               0.000000000               0.000000000               0.000000000               0.000000000              -0.000010085               0.004541531              -0.000155853              -0.000571472               0.001704319               0.001132847               0.000000000               0.000000000               0.000000000               0.000000000              -0.000073021               0.004474845              -0.000070960              -0.000586737               0.001687179               0.001100442               0.000000000               0.000000000               0.000000000               0.000000000              -0.000133684               0.004432041              -0.000024505              -0.000604135               0.001678711               0.001074576               0.000000000               0.000000000               0.000000000               0.000000000              -0.000919255               0.000831690              -0.000624760              -0.000448681               0.000426787              -0.000021894               0.000000000               0.000000000               0.000000000               0.000000000              -0.000441345               0.001746454              -0.001223538              -0.000383811               0.000710082               0.000326271               0.000000000               0.000000000               0.000000000               0.000000000              -0.000304895               0.002751151              -0.001674984              -0.000458230               0.001069783               0.000611554               0.000000000               0.000000000               0.000000000               0.000000000              -0.000225020               0.003395640              -0.001653268              -0.000508838               0.001301481               0.000792643               0.000000000               0.000000000               0.000000000               0.000000000              -0.000165992               0.003817311              -0.001501483              -0.000539411               0.001452227               0.000912817               0.000000000               0.000000000               0.000000000               0.000000000              -0.000123623               0.004099706              -0.001333831              -0.000558821               0.001552829               0.000994007               0.000000000               0.000000000               0.000000000               0.000000000              -0.000088848               0.004296667              -0.001178374              -0.000570401               0.001622341               0.001051941               0.000000000               0.000000000               0.000000000               0.000000000              -0.000058050               0.004437328              -0.001038965              -0.000576434               0.001671239               0.001094805               0.000000000               0.000000000               0.000000000               0.000000000              -0.000029583               0.004533732              -0.000915916              -0.000577809               0.001703832               0.001126023               0.000000000               0.000000000               0.000000000               0.000000000               0.000000421               0.004599323              -0.000804562              -0.000574757               0.001724678               0.001149921               0.000000000               0.000000000               0.000000000               0.000000000               0.000036989               0.004638663              -0.000698202              -0.000565961               0.001734859               0.001168898               0.000000000               0.000000000               0.000000000               0.000000000               0.000079701               0.004645719              -0.000587376              -0.000550826               0.001732166               0.001181340               0.000000000               0.000000000               0.000000000               0.000000000               0.000114909               0.004613556              -0.000475181              -0.000533602               0.001715704               0.001182102               0.000000000               0.000000000               0.000000000               0.000000000               0.000133424               0.004558257              -0.000364456              -0.000519747               0.001692653               0.001172906               0.000000000               0.000000000               0.000000000               0.000000000               0.000125969               0.004499924              -0.000247787              -0.000515251               0.001671710               0.001156459               0.000000000               0.000000000               0.000000000               0.000000000               0.000078807               0.004452976              -0.000125507              -0.000527068               0.001660000               0.001132932               0.000000000               0.000000000               0.000000000               0.000000000               0.000019773               0.004420343              -0.000055958              -0.000545127               0.001655142               0.001110015               0.000000000               0.000000000               0.000000000               0.000000000              -0.001689189               0.000316876              -0.000290796              -0.000673054               0.000329974              -0.000343080               0.000000000               0.000000000               0.000000000               0.000000000              -0.000774278               0.001075184              -0.000906712              -0.000424752               0.000499974               0.000075222               0.000000000               0.000000000               0.000000000               0.000000000              -0.000263528               0.001911204              -0.001415166              -0.000337724               0.000749636               0.000411912               0.000000000               0.000000000               0.000000000               0.000000000              -0.000047438               0.002571108              -0.001474984              -0.000339178               0.000970086               0.000630908               0.000000000               0.000000000               0.000000000               0.000000000               0.000060823               0.003066119              -0.001391019              -0.000360456               0.001142181               0.000781725               0.000000000               0.000000000               0.000000000               0.000000000               0.000114545               0.003431205              -0.001270365              -0.000385946               0.001272372               0.000886426               0.000000000               0.000000000               0.000000000               0.000000000               0.000139673               0.003710272              -0.001146494              -0.000411406               0.001373880               0.000962474               0.000000000               0.000000000               0.000000000               0.000000000               0.000157531               0.003930658              -0.001028412              -0.000432257               0.001454292               0.001022034               0.000000000               0.000000000               0.000000000               0.000000000               0.000168199               0.004103261              -0.000918485              -0.000449832               0.001517684               0.001067851               0.000000000               0.000000000               0.000000000               0.000000000               0.000178403               0.004244215              -0.000817678              -0.000463625               0.001569266               0.001105641               0.000000000               0.000000000               0.000000000               0.000000000               0.000195435               0.004357921              -0.000723739              -0.000471451               0.001609776               0.001138325               0.000000000               0.000000000               0.000000000               0.000000000               0.000224582               0.004437021              -0.000626402              -0.000470409               0.001635795               0.001165386               0.000000000               0.000000000               0.000000000               0.000000000               0.000262494               0.004474222              -0.000524260              -0.000460842               0.001645006               0.001184165               0.000000000               0.000000000               0.000000000               0.000000000               0.000298358               0.004475933              -0.000419698              -0.000447606               0.001641165               0.001193559               0.000000000               0.000000000               0.000000000               0.000000000               0.000328127               0.004459578              -0.000302161              -0.000434399               0.001631311               0.001196912               0.000000000               0.000000000               0.000000000               0.000000000               0.000339980               0.004440662              -0.000162649              -0.000427589               0.001622736               0.001195146               0.000000000               0.000000000               0.000000000               0.000000000               0.000330401               0.004425706              -0.000084001              -0.000429312               0.001618324               0.001189013               0.000000000               0.000000000               0.000000000               0.000000000              -0.002343876              -0.000003415              -0.000087071              -0.000878526               0.000291702              -0.000586824               0.000000000               0.000000000               0.000000000               0.000000000              -0.001078623               0.000581519              -0.000585835              -0.000477173               0.000352895              -0.000124279               0.000000000               0.000000000               0.000000000               0.000000000              -0.000238497               0.001236009              -0.001019482              -0.000243938               0.000493311               0.000249373               0.000000000               0.000000000               0.000000000               0.000000000               0.000119727               0.001872233              -0.001110362              -0.000189132               0.000687115               0.000497983               0.000000000               0.000000000               0.000000000               0.000000000               0.000285853               0.002400992              -0.001078862              -0.000192930               0.000864632               0.000671702               0.000000000               0.000000000               0.000000000               0.000000000               0.000358375               0.002819513              -0.001006028              -0.000218049               0.001012511               0.000794462               0.000000000               0.000000000               0.000000000               0.000000000               0.000383361               0.003157807              -0.000925928              -0.000250966               0.001136247               0.000885281               0.000000000               0.000000000               0.000000000               0.000000000               0.000388579               0.003439744              -0.000843735              -0.000284251               0.001241320               0.000957069               0.000000000               0.000000000               0.000000000               0.000000000               0.000385674               0.003676579              -0.000761290              -0.000314944               0.001330495               0.001015551               0.000000000               0.000000000               0.000000000               0.000000000               0.000382822               0.003878227              -0.000684055              -0.000341220               0.001406469               0.001065250               0.000000000               0.000000000               0.000000000               0.000000000               0.000387017               0.004050588              -0.000612611              -0.000361192               0.001470580               0.001109388               0.000000000               0.000000000               0.000000000               0.000000000               0.000404091               0.004191108              -0.000539879              -0.000372354               0.001521140               0.001148786               0.000000000               0.000000000               0.000000000               0.000000000               0.000440665               0.004295044              -0.000460039              -0.000371631               0.001555544               0.001183913               0.000000000               0.000000000               0.000000000               0.000000000               0.000494477               0.004363519              -0.000375010              -0.000360010               0.001574495               0.001214485               0.000000000               0.000000000               0.000000000               0.000000000               0.000564219               0.004401498              -0.000277300              -0.000338604               0.001580020               0.001241415               0.000000000               0.000000000               0.000000000               0.000000000               0.000649220               0.004416977              -0.000153114              -0.000308664               0.001575199               0.001266535               0.000000000               0.000000000               0.000000000               0.000000000               0.000712720               0.004425759              -0.000085096              -0.000285949               0.001570555               0.001284605               0.000000000               0.000000000               0.000000000               0.000000000              -0.002784468              -0.000166114              -0.000006838              -0.001023411               0.000285764              -0.000737647               0.000000000               0.000000000               0.000000000               0.000000000              -0.001296539               0.000286444              -0.000284059              -0.000522007               0.000269482              -0.000252525               0.000000000               0.000000000               0.000000000               0.000000000              -0.000230345               0.000800931              -0.000531489              -0.000186496               0.000329139               0.000142643               0.000000000               0.000000000               0.000000000               0.000000000               0.000240312               0.001401592              -0.000595396              -0.000085082               0.000495553               0.000410471               0.000000000               0.000000000               0.000000000               0.000000000               0.000451679               0.001937454              -0.000589192              -0.000072803               0.000670079               0.000597276               0.000000000               0.000000000               0.000000000               0.000000000               0.000542547               0.002386961              -0.000556534              -0.000094915               0.000827284               0.000732369               0.000000000               0.000000000               0.000000000               0.000000000               0.000573430               0.002764221              -0.000519109              -0.000130491               0.000964895               0.000834404               0.000000000               0.000000000               0.000000000               0.000000000               0.000572651               0.003081887              -0.000478702              -0.000170492               0.001084116               0.000913624               0.000000000               0.000000000               0.000000000               0.000000000               0.000563541               0.003354086              -0.000435555              -0.000207933               0.001187328               0.000979396               0.000000000               0.000000000               0.000000000               0.000000000               0.000557382               0.003590713              -0.000393939              -0.000239821               0.001276833               0.001037012               0.000000000               0.000000000               0.000000000               0.000000000               0.000559014               0.003797527              -0.000354791              -0.000265060               0.001354183               0.001089123               0.000000000               0.000000000               0.000000000               0.000000000               0.000571670               0.003975879              -0.000315311              -0.000282608               0.001419482               0.001136874               0.000000000               0.000000000               0.000000000               0.000000000               0.000604468               0.004125652              -0.000271536              -0.000289030               0.001471547               0.001182517               0.000000000               0.000000000               0.000000000               0.000000000               0.000665204               0.004245727              -0.000222819              -0.000281264               0.001508983               0.001227719               0.000000000               0.000000000               0.000000000               0.000000000               0.000758459               0.004333684              -0.000166400              -0.000257288               0.001530310               0.001273022               0.000000000               0.000000000               0.000000000               0.000000000               0.000894376               0.004389625              -0.000092136              -0.000213312               0.001534297               0.001320986               0.000000000               0.000000000               0.000000000               0.000000000               0.001013477               0.004422901              -0.000051599              -0.000172808               0.001531888               0.001359080               0.000000000               0.000000000               0.000000000               0.000000000               0.000000000               0.000000000               0.000000000               0.000000000               0.000000000               0.000000000               0.000000000               0.000000000               0.000000000               0.000000000               0.000000000               0.000000000               0.000000000               0.000000000               0.000000000               0.000000000               0.000000000               0.000000000               0.000000000               0.000000000               0.000000000               0.000000000               0.000000000               0.000000000               0.000000000               0.000000000               0.000000000               0.000000000               0.000000000               0.000000000               0.000000000               0.000000000               0.000000000               0.000000000               0.000000000               0.000000000               0.000000000               0.000000000               0.000000000               0.000000000               0.000000000               0.000000000               0.000000000               0.000000000               0.000000000               0.000000000               0.000000000               0.000000000               0.000000000               0.000000000               0.000000000               0.000000000               0.000000000               0.000000000               0.000000000               0.000000000               0.000000000               0.000000000               0.000000000               0.000000000               0.000000000               0.000000000               0.000000000               0.000000000               0.000000000               0.000000000               0.000000000               0.000000000               0.000000000               0.000000000               0.000000000               0.000000000               0.000000000               0.000000000               0.000000000               0.000000000               0.000000000               0.000000000               0.000000000               0.000000000               0.000000000               0.000000000               0.000000000               0.000000000               0.000000000               0.000000000               0.000000000               0.000000000               0.000000000               0.000000000               0.000000000               0.000000000               0.000000000               0.000000000               0.000000000               0.000000000               0.000000000               0.000000000               0.000000000               0.000000000               0.000000000               0.000000000               0.000000000               0.000000000               0.000000000               0.000000000               0.000000000               0.000000000               0.000000000               0.000000000               0.000000000               0.000000000               0.000000000               0.000000000               0.000000000               0.000000000               0.000000000               0.000000000               0.000000000               0.000000000               0.000000000               0.000000000               0.000000000               0.000000000               0.000000000               0.000000000               0.000000000               0.000000000               0.000000000               0.000000000               0.000000000               0.000000000               0.000000000               0.000000000               0.000000000               0.000000000               0.000000000               0.000000000               0.000000000               0.000000000               0.000000000               0.000000000               0.000000000               0.000000000               0.000000000               0.000000000               0.000000000               0.000000000               0.000000000               0.000000000               0.000000000               0.000000000               0.000000000               0.000000000               0.000000000               0.000000000               0.000000000               0.000000000               0.000000000               0.000000000               0.000000000               0.000000000               0.000000000               0.000000000               0.000000000               0.000000000               0.000000000               0.000000000               0.000000000               0.000000000               0.000000000               0.000000000               0.000000000               0.000000000               0.000000000               0.000000000               0.000000000               0.000000000               0.000000000               0.000000000               0.000000000               0.000000000               0.000000000               0.000000000               0.000000000               0.000000000               0.000000000               0.000000000               0.000000000               0.000000000               0.000000000               0.000000000               0.000000000               0.000000000               0.000000000               0.000000000               0.000000000               0.000000000               0.000000000               0.000000000               0.000000000               0.000000000               0.000000000               0.000000000               0.000000000               0.000000000               0.000000000               0.000000000               0.000000000               0.000000000               0.000000000               0.000000000               0.000000000               0.000000000               0.000000000               0.000000000               0.000000000               0.000000000               0.000000000               0.000000000               0.000000000               0.000000000               0.000000000               0.000000000               0.000000000               0.000000000               0.000000000               0.000000000               0.000000000               0.000000000               0.000000000               0.000000000               0.000000000               0.000000000               0.000000000               0.000000000               0.000000000               0.000000000               0.000000000               0.000000000               0.000000000               0.000000000               0.000000000               0.000000000               0.000000000               0.000000000               0.000000000               0.000000000               0.000000000               0.000000000               0.000000000               0.000000000               0.000000000               0.000000000               0.000000000               0.000000000               0.000000000               0.000000000               0.000000000               0.000000000               0.000000000               0.000000000               0.000000000               0.000000000               0.000000000               0.000000000               0.000000000               0.000000000               0.000000000               0.000000000               0.000000000               0.000000000               0.000000000               0.000000000               0.000000000               0.000000000               0.000000000               0.000000000               0.000000000               0.000000000               0.000000000               0.000000000               0.000000000               0.000000000               0.000000000               0.000000000               0.000000000               0.000000000               0.000000000               0.000000000               0.000000000               0.000000000               0.000000000               0.000000000               0.000000000               0.000000000               0.000000000               0.000000000               0.000000000               0.000000000               0.000000000               0.000000000               0.000000000               0.000000000               0.000000000               0.000000000               0.000000000               0.000000000               0.000000000               0.000000000               0.000000000               0.000000000               0.000000000               0.000000000               0.000000000               0.000000000               0.000000000               0.000000000               0.000000000               0.000000000               0.000000000               0.000000000               0.000000000               0.000000000               0.000000000               0.000000000               0.000000000               0.000000000               0.000000000               0.000000000               0.000000000               0.000000000               0.000000000               0.000000000               0.000000000               0.000000000               0.000000000               0.000000000               0.000000000               0.000000000               0.001339659               0.014204328               0.001048075              -0.001273166               0.005159117               0.003885951               0.000000000               0.000000000               0.000000000               0.000000000               0.001357746               0.011539295               0.000615584              -0.000933255               0.004157478               0.003224223               0.000000000               0.000000000               0.000000000               0.000000000               0.001797594               0.009403951               0.000176469              -0.000501395               0.003301751               0.002800356               0.000000000               0.000000000               0.000000000               0.000000000               0.001804046               0.008206378              -0.000018605              -0.000349279               0.002851859               0.002502579               0.000000000               0.000000000               0.000000000               0.000000000               0.001663448               0.007473421              -0.000106102              -0.000310384               0.002594577               0.002284193               0.000000000               0.000000000               0.000000000               0.000000000               0.001479993               0.006995779              -0.000143478              -0.000319474               0.002438394               0.002118920               0.000000000               0.000000000               0.000000000               0.000000000               0.001289843               0.006670774              -0.000155776              -0.000350155               0.002340287               0.001990132               0.000000000               0.000000000               0.000000000               0.000000000               0.001103427               0.006441428              -0.000157260              -0.000391392               0.002277585               0.001886193               0.000000000               0.000000000               0.000000000               0.000000000               0.000925216               0.006272583              -0.000153598              -0.000437116               0.002236545               0.001799430               0.000000000               0.000000000               0.000000000               0.000000000               0.000758942               0.006142567              -0.000147813              -0.000483216               0.002208574               0.001725358               0.000000000               0.000000000               0.000000000               0.000000000               0.000608120               0.006041686              -0.000143189              -0.000527164               0.002189597               0.001662432               0.000000000               0.000000000               0.000000000               0.000000000               0.000468931               0.005957038              -0.000136337              -0.000568779               0.002175252               0.001606473               0.000000000               0.000000000               0.000000000               0.000000000               0.000337718               0.005870604              -0.000121902              -0.000607180               0.002159242               0.001552062               0.000000000               0.000000000               0.000000000               0.000000000               0.000221099               0.005774064              -0.000101289              -0.000638844               0.002137617               0.001498773               0.000000000               0.000000000               0.000000000               0.000000000               0.000125056               0.005662451              -0.000076492              -0.000660909               0.002107768               0.001446859               0.000000000               0.000000000               0.000000000               0.000000000               0.000053354               0.005529554              -0.000043265              -0.000671185               0.002066894               0.001395710               0.000000000               0.000000000               0.000000000               0.000000000               0.000013552               0.005426905              -0.000026613              -0.000673280               0.002033377               0.001360097               0.000000000               0.000000000               0.000000000               0.000000000               0.001519351               0.013430139               0.001976476              -0.001109009               0.004846338               0.003737329               0.000000000               0.000000000               0.000000000               0.000000000               0.001364367               0.011009882               0.001167067              -0.000864596               0.003958123               0.003093527               0.000000000               0.000000000               0.000000000               0.000000000               0.001618353               0.009133638               0.000351904              -0.000534821               0.003222789               0.002687968               0.000000000               0.000000000               0.000000000               0.000000000               0.001548360               0.008069687              -0.000003849              -0.000428075               0.002832560               0.002404486               0.000000000               0.000000000               0.000000000               0.000000000               0.001381574               0.007411536              -0.000162677              -0.000408351               0.002606604               0.002198253               0.000000000               0.000000000               0.000000000               0.000000000               0.001195138               0.006976353              -0.000232051              -0.000423866               0.002466717               0.002042850               0.000000000               0.000000000               0.000000000               0.000000000               0.001016409               0.006673282              -0.000259244              -0.000453006               0.002375407               0.001922401               0.000000000               0.000000000               0.000000000               0.000000000               0.000852849               0.006454109              -0.000266352              -0.000486944               0.002313663               0.001826719               0.000000000               0.000000000               0.000000000               0.000000000               0.000703073               0.006287937              -0.000262537              -0.000522338               0.002270071               0.001747732               0.000000000               0.000000000               0.000000000               0.000000000               0.000566957               0.006156924              -0.000256898              -0.000557005               0.002237956               0.001680951               0.000000000               0.000000000               0.000000000               0.000000000               0.000448645               0.006049859              -0.000252770              -0.000587989               0.002212596               0.001624607               0.000000000               0.000000000               0.000000000               0.000000000               0.000342573               0.005950103              -0.000240214              -0.000615296               0.002188447               0.001573150               0.000000000               0.000000000               0.000000000               0.000000000               0.000246439               0.005848938              -0.000215591              -0.000638701               0.002162527               0.001523826               0.000000000               0.000000000               0.000000000               0.000000000               0.000165506               0.005745587              -0.000182701              -0.000656132               0.002133887               0.001477755               0.000000000               0.000000000               0.000000000               0.000000000               0.000098469               0.005638085              -0.000139455              -0.000667833               0.002101954               0.001434121               0.000000000               0.000000000               0.000000000               0.000000000               0.000043814               0.005525828              -0.000079746              -0.000674296               0.002066690               0.001392393               0.000000000               0.000000000               0.000000000               0.000000000               0.000012601               0.005449787              -0.000048535              -0.000676496               0.002042076               0.001365580               0.000000000               0.000000000               0.000000000               0.000000000               0.001749083               0.012255230               0.002680928              -0.000875997               0.004377034               0.003501037               0.000000000               0.000000000               0.000000000               0.000000000               0.001345927               0.010215301               0.001591657              -0.000772189               0.003662462               0.002890274               0.000000000               0.000000000               0.000000000               0.000000000               0.001336587               0.008733400               0.000507329              -0.000590453               0.003107922               0.002517469               0.000000000               0.000000000               0.000000000               0.000000000               0.001174196               0.007866496               0.000051728              -0.000542987               0.002803135               0.002260148               0.000000000               0.000000000               0.000000000               0.000000000               0.000987997               0.007307740              -0.000150162              -0.000542967               0.002616878               0.002073911               0.000000000               0.000000000               0.000000000               0.000000000               0.000812963               0.006927334              -0.000239099              -0.000561054               0.002496106               0.001935052               0.000000000               0.000000000               0.000000000               0.000000000               0.000660068               0.006652481              -0.000275706              -0.000584033               0.002412149               0.001828116               0.000000000               0.000000000               0.000000000               0.000000000               0.000529548               0.006441326              -0.000289676              -0.000606584               0.002349282               0.001742698               0.000000000               0.000000000               0.000000000               0.000000000               0.000418353               0.006273047              -0.000292000              -0.000627247               0.002300077               0.001672830               0.000000000               0.000000000               0.000000000               0.000000000               0.000324859               0.006134842              -0.000289825              -0.000645032               0.002259937               0.001614906               0.000000000               0.000000000               0.000000000               0.000000000               0.000244275               0.006008956              -0.000282729              -0.000659515               0.002222803               0.001563289               0.000000000               0.000000000               0.000000000               0.000000000               0.000180264               0.005887699              -0.000264665              -0.000668362               0.002185334               0.001516972               0.000000000               0.000000000               0.000000000               0.000000000               0.000131035               0.005770860              -0.000234668              -0.000672218               0.002147673               0.001475456               0.000000000               0.000000000               0.000000000               0.000000000               0.000088646               0.005658840              -0.000194289              -0.000674111               0.002110965               0.001436854               0.000000000               0.000000000               0.000000000               0.000000000               0.000052830               0.005557484              -0.000143604              -0.000674873               0.002077434               0.001402561               0.000000000               0.000000000               0.000000000               0.000000000               0.000024442               0.005475567              -0.000079447              -0.000675279               0.002050263               0.001374985               0.000000000               0.000000000               0.000000000               0.000000000               0.000008704               0.005433965              -0.000045833              -0.000675980               0.002036630               0.001360650               0.000000000               0.000000000               0.000000000               0.000000000               0.001944082               0.010816395               0.003102356              -0.000623020               0.003813102               0.003190082               0.000000000               0.000000000               0.000000000               0.000000000               0.001273271               0.009260057               0.001864787              -0.000680030               0.003313331               0.002633301               0.000000000               0.000000000               0.000000000               0.000000000               0.000979061               0.008252682               0.000648104              -0.000664436               0.002972345               0.002307909               0.000000000               0.000000000               0.000000000               0.000000000               0.000741709               0.007605458               0.000159851              -0.000672540               0.002759307               0.002086768               0.000000000               0.000000000               0.000000000               0.000000000               0.000559084               0.007152808              -0.000055320              -0.000684443               0.002612393               0.001927950               0.000000000               0.000000000               0.000000000               0.000000000               0.000416214               0.006821376              -0.000155331              -0.000696590               0.002505966               0.001809376               0.000000000               0.000000000               0.000000000               0.000000000               0.000303455               0.006567772              -0.000200368              -0.000707174               0.002424960               0.001717786               0.000000000               0.000000000               0.000000000               0.000000000               0.000214825               0.006360553              -0.000221228              -0.000714508               0.002358332               0.001643824               0.000000000               0.000000000               0.000000000               0.000000000               0.000146239               0.006186942              -0.000232039              -0.000718526               0.002301802               0.001583276               0.000000000               0.000000000               0.000000000               0.000000000               0.000093177               0.006036018              -0.000234103              -0.000719559               0.002251839               0.001532280               0.000000000               0.000000000               0.000000000               0.000000000               0.000054015               0.005894477              -0.000227764              -0.000716552               0.002203657               0.001487104               0.000000000               0.000000000               0.000000000               0.000000000               0.000033894               0.005760811              -0.000210486              -0.000707389               0.002156048               0.001448658               0.000000000               0.000000000               0.000000000               0.000000000               0.000023768               0.005635002              -0.000180877              -0.000695461               0.002110135               0.001414675               0.000000000               0.000000000               0.000000000               0.000000000               0.000014721               0.005522521              -0.000143570              -0.000684793               0.002069086               0.001384293               0.000000000               0.000000000               0.000000000               0.000000000               0.000006075               0.005430701              -0.000101453              -0.000676558               0.002035735               0.001359177               0.000000000               0.000000000               0.000000000               0.000000000               0.000001246               0.005365102              -0.000053080              -0.000670169               0.002011739               0.001341570               0.000000000               0.000000000               0.000000000               0.000000000              -0.000002197               0.005334768              -0.000029054              -0.000667668               0.002000794               0.001333126               0.000000000               0.000000000               0.000000000               0.000000000               0.002028409               0.009243201               0.003246221              -0.000394749               0.003212618               0.002817869               0.000000000               0.000000000               0.000000000               0.000000000               0.001132497               0.008236884               0.002007929              -0.000604924               0.002947241               0.002342317               0.000000000               0.000000000               0.000000000               0.000000000               0.000589727               0.007727009               0.000796914              -0.000744727               0.002823886               0.002079159               0.000000000               0.000000000               0.000000000               0.000000000               0.000318017               0.007287617               0.000324586              -0.000791694               0.002693079               0.001901385               0.000000000               0.000000000               0.000000000               0.000000000               0.000165334               0.006930622               0.000111095              -0.000804325               0.002578293               0.001773967               0.000000000               0.000000000               0.000000000               0.000000000               0.000070795               0.006643657               0.000001435              -0.000803907               0.002482499               0.001678592               0.000000000               0.000000000               0.000000000               0.000000000               0.000007400               0.006404297              -0.000055915              -0.000797760               0.002400664               0.001602904               0.000000000               0.000000000               0.000000000               0.000000000              -0.000036755               0.006198478              -0.000089836              -0.000788591               0.002329002               0.001540411               0.000000000               0.000000000               0.000000000               0.000000000              -0.000063695               0.006024001              -0.000115743              -0.000776884               0.002266941               0.001490058               0.000000000               0.000000000               0.000000000               0.000000000              -0.000074953               0.005871168              -0.000129580              -0.000762001               0.002211037               0.001449035               0.000000000               0.000000000               0.000000000               0.000000000              -0.000073422               0.005724647              -0.000131108              -0.000743112               0.002155901               0.001412789               0.000000000               0.000000000               0.000000000               0.000000000              -0.000062314               0.005584053              -0.000122039              -0.000721372               0.002101790               0.001380417               0.000000000               0.000000000               0.000000000               0.000000000              -0.000049224               0.005458975              -0.000103895              -0.000700829               0.002053250               0.001352421               0.000000000               0.000000000               0.000000000               0.000000000              -0.000036555               0.005356605              -0.000081528              -0.000683282               0.002013278               0.001329996               0.000000000               0.000000000               0.000000000               0.000000000              -0.000025070               0.005277357              -0.000056830              -0.000669069               0.001982124               0.001313055               0.000000000               0.000000000               0.000000000               0.000000000              -0.000013781               0.005219166              -0.000028278              -0.000657562               0.001958892               0.001301330               0.000000000               0.000000000               0.000000000               0.000000000              -0.000011343               0.005188845              -0.000015167              -0.000652858               0.001947217               0.001294359               0.000000000               0.000000000               0.000000000               0.000000000               0.001963840               0.007658238               0.003151615              -0.000220843               0.002626334               0.002405491               0.000000000               0.000000000               0.000000000               0.000000000               0.000932658               0.007221033               0.002050963              -0.000552883               0.002591281               0.002038398               0.000000000               0.000000000               0.000000000               0.000000000               0.000217104               0.007183587               0.000960994              -0.000816533               0.002666683               0.001850150               0.000000000               0.000000000               0.000000000               0.000000000              -0.000041318               0.006924054               0.000528007              -0.000880999               0.002601661               0.001720662               0.000000000               0.000000000               0.000000000               0.000000000              -0.000142639               0.006649160               0.000315165              -0.000884633               0.002511242               0.001626609               0.000000000               0.000000000               0.000000000               0.000000000              -0.000188226               0.006398791               0.000190082              -0.000870431               0.002423053               0.001552621               0.000000000               0.000000000               0.000000000               0.000000000              -0.000207496               0.006176036               0.000112597              -0.000849813               0.002341929               0.001492116               0.000000000               0.000000000               0.000000000               0.000000000              -0.000207102               0.005986052               0.000057000              -0.000825917               0.002270636               0.001444719               0.000000000               0.000000000               0.000000000               0.000000000              -0.000192047               0.005823247               0.000009959              -0.000799921               0.002207703               0.001407782               0.000000000               0.000000000               0.000000000               0.000000000              -0.000167361               0.005669136              -0.000019409              -0.000771400               0.002146827               0.001375426               0.000000000               0.000000000               0.000000000               0.000000000              -0.000136773               0.005517085              -0.000031530              -0.000740924               0.002085985               0.001345061               0.000000000               0.000000000               0.000000000               0.000000000              -0.000103507               0.005378426              -0.000037318              -0.000711117               0.002029829               0.001318713               0.000000000               0.000000000               0.000000000               0.000000000              -0.000073215               0.005262319              -0.000039407              -0.000685244               0.001982503               0.001297259               0.000000000               0.000000000               0.000000000               0.000000000              -0.000049406               0.005169435              -0.000037175              -0.000664705               0.001944696               0.001279991               0.000000000               0.000000000               0.000000000               0.000000000              -0.000030882               0.005095575              -0.000029647              -0.000648526               0.001914683               0.001266157               0.000000000               0.000000000               0.000000000               0.000000000              -0.000015761               0.005036573              -0.000016997              -0.000635480               0.001890668               0.001255187               0.000000000               0.000000000               0.000000000               0.000000000              -0.000013329               0.005002592              -0.000012568              -0.000630321               0.001877621               0.001247300               0.000000000               0.000000000               0.000000000               0.000000000               0.001756445               0.006161921               0.002869146              -0.000111577               0.002091144               0.001979567               0.000000000               0.000000000               0.000000000               0.000000000               0.000692240               0.006269502               0.002019618              -0.000524098               0.002264512               0.001740413               0.000000000               0.000000000               0.000000000               0.000000000              -0.000094927               0.006635229               0.001137702              -0.000864999               0.002500054               0.001635054               0.000000000               0.000000000               0.000000000               0.000000000              -0.000301478               0.006524140               0.000744101              -0.000928570               0.002484215               0.001555645               0.000000000               0.000000000               0.000000000               0.000000000              -0.000347499               0.006322683               0.000521482              -0.000920645               0.002414422               0.001493776               0.000000000               0.000000000               0.000000000               0.000000000              -0.000348932               0.006114756               0.000372824              -0.000895192               0.002336629               0.001441437               0.000000000               0.000000000               0.000000000               0.000000000              -0.000329620               0.005924142               0.000267151              -0.000864123               0.002262735               0.001398612               0.000000000               0.000000000               0.000000000               0.000000000              -0.000293745               0.005759264               0.000187749              -0.000830060               0.002196422               0.001366362               0.000000000               0.000000000               0.000000000               0.000000000              -0.000246701               0.005603156               0.000124760              -0.000792906               0.002132002               0.001339096               0.000000000               0.000000000               0.000000000               0.000000000              -0.000195382               0.005443119               0.000080774              -0.000753656               0.002065574               0.001311917               0.000000000               0.000000000               0.000000000               0.000000000              -0.000141468               0.005292115               0.000050216              -0.000714563               0.002002208               0.001287645               0.000000000               0.000000000               0.000000000               0.000000000              -0.000094992               0.005160138               0.000022889              -0.000680638               0.001946908               0.001266270               0.000000000               0.000000000               0.000000000               0.000000000              -0.000062531               0.005048725               0.000000753              -0.000654538               0.001901071               0.001246533               0.000000000               0.000000000               0.000000000               0.000000000              -0.000041180               0.004955245              -0.000013041              -0.000634846               0.001863347               0.001228501               0.000000000               0.000000000               0.000000000               0.000000000              -0.000025872               0.004875289              -0.000016397              -0.000619112               0.001831450               0.001212339               0.000000000               0.000000000               0.000000000               0.000000000              -0.000012954               0.004806862              -0.000011546              -0.000605714               0.001804176               0.001198462               0.000000000               0.000000000               0.000000000               0.000000000              -0.000009638               0.004765093              -0.000010972              -0.000599249               0.001788098               0.001188849               0.000000000               0.000000000               0.000000000               0.000000000               0.001468500               0.004866869               0.002471287              -0.000057674               0.001641497               0.001583823               0.000000000               0.000000000               0.000000000               0.000000000               0.000472167               0.005415117               0.001955083              -0.000499828               0.001971629               0.001471802               0.000000000               0.000000000               0.000000000               0.000000000              -0.000304149               0.006114673               0.001341339              -0.000878389               0.002331000               0.001452611               0.000000000               0.000000000               0.000000000               0.000000000              -0.000451137               0.006155594               0.000973299              -0.000938623               0.002364719               0.001426095               0.000000000               0.000000000               0.000000000               0.000000000              -0.000455919               0.006039011               0.000729633              -0.000925844               0.002321598               0.001395754               0.000000000               0.000000000               0.000000000               0.000000000              -0.000425353               0.005888585               0.000554789              -0.000895578               0.002261368               0.001365790               0.000000000               0.000000000               0.000000000               0.000000000              -0.000377612               0.005738561               0.000425125              -0.000858923               0.002199142               0.001340219               0.000000000               0.000000000               0.000000000               0.000000000              -0.000318671               0.005593091               0.000327447              -0.000818636               0.002137224               0.001318588               0.000000000               0.000000000               0.000000000               0.000000000              -0.000249626               0.005442220               0.000250012              -0.000773885               0.002072017               0.001298132               0.000000000               0.000000000               0.000000000               0.000000000              -0.000175174               0.005285851               0.000184993              -0.000726420               0.002004073               0.001277653               0.000000000               0.000000000               0.000000000               0.000000000              -0.000108110               0.005138257               0.000128853              -0.000682822               0.001940342               0.001257521               0.000000000               0.000000000               0.000000000               0.000000000              -0.000065123               0.005005922               0.000079286              -0.000650160               0.001885344               0.001235184               0.000000000               0.000000000               0.000000000               0.000000000              -0.000044252               0.004890263               0.000038973              -0.000627876               0.001839363               0.001211488               0.000000000               0.000000000               0.000000000               0.000000000              -0.000039888               0.004786257               0.000010418              -0.000613238               0.001799816               0.001186577               0.000000000               0.000000000               0.000000000               0.000000000              -0.000045022               0.004690833              -0.000003230              -0.000603236               0.001764674               0.001161438               0.000000000               0.000000000               0.000000000               0.000000000              -0.000048093               0.004603713              -0.000004703              -0.000593497               0.001732388               0.001138891               0.000000000               0.000000000               0.000000000               0.000000000              -0.000045573               0.004557691              -0.000003828              -0.000586800               0.001714815               0.001128015               0.000000000               0.000000000               0.000000000               0.000000000               0.001088166               0.003642203               0.002024229              -0.000047216               0.001229793               0.001182577               0.000000000               0.000000000               0.000000000               0.000000000               0.000311720               0.004439082               0.001871547              -0.000437991               0.001625675               0.001187684               0.000000000               0.000000000               0.000000000               0.000000000              -0.000379824               0.005381044               0.001567817              -0.000815063               0.002065351               0.001250287               0.000000000               0.000000000               0.000000000               0.000000000              -0.000502417               0.005624254               0.001236778              -0.000891436               0.002171878               0.001280442               0.000000000               0.000000000               0.000000000               0.000000000              -0.000491740               0.005640389               0.000976157              -0.000889449               0.002176594               0.001287144               0.000000000               0.000000000               0.000000000               0.000000000              -0.000447856               0.005582376               0.000779104              -0.000865741               0.002149354               0.001283612               0.000000000               0.000000000               0.000000000               0.000000000              -0.000389143               0.005500775               0.000629244              -0.000833524               0.002111414               0.001277891               0.000000000               0.000000000               0.000000000               0.000000000              -0.000323928               0.005406720               0.000512561              -0.000797311               0.002067992               0.001270681               0.000000000               0.000000000               0.000000000               0.000000000              -0.000255129               0.005297955               0.000415728              -0.000757916               0.002018606               0.001260690               0.000000000               0.000000000               0.000000000               0.000000000              -0.000183527               0.005176296               0.000327577              -0.000715858               0.001964034               0.001248176               0.000000000               0.000000000               0.000000000               0.000000000              -0.000117255               0.005049613               0.000243178              -0.000675171               0.001908245               0.001233074               0.000000000               0.000000000               0.000000000               0.000000000              -0.000073440               0.004922921               0.000166801              -0.000642904               0.001855258               0.001212355               0.000000000               0.000000000               0.000000000               0.000000000              -0.000056070               0.004806142               0.000102937              -0.000621792               0.001809295               0.001187503               0.000000000               0.000000000               0.000000000               0.000000000              -0.000057376               0.004705567               0.000051147              -0.000609710               0.001771743               0.001162033               0.000000000               0.000000000               0.000000000               0.000000000              -0.000074989               0.004610358               0.000017267              -0.000604414               0.001738242               0.001133828               0.000000000               0.000000000               0.000000000               0.000000000              -0.000099641               0.004515716               0.000002996              -0.000601828               0.001705833               0.001104005               0.000000000               0.000000000               0.000000000               0.000000000              -0.000110507               0.004469298              -0.000000366              -0.000600101               0.001689785               0.001089684               0.000000000               0.000000000               0.000000000               0.000000000               0.000540130               0.002519432               0.001545951              -0.000112382               0.000877262               0.000764880               0.000000000               0.000000000               0.000000000               0.000000000               0.000126229               0.003471800               0.001730240              -0.000386640               0.001286134               0.000899494               0.000000000               0.000000000               0.000000000               0.000000000              -0.000381945               0.004561790               0.001739945              -0.000713453               0.001758399               0.001044946               0.000000000               0.000000000               0.000000000               0.000000000              -0.000479101               0.004997399               0.001491498              -0.000804337               0.001933895               0.001129558               0.000000000               0.000000000               0.000000000               0.000000000              -0.000461621               0.005164435               0.001238265              -0.000818661               0.001994348               0.001175687               0.000000000               0.000000000               0.000000000               0.000000000              -0.000416288               0.005217333               0.001031098              -0.000808273               0.002008518               0.001200245               0.000000000               0.000000000               0.000000000               0.000000000              -0.000360152               0.005222294               0.000865284              -0.000787842               0.002003361               0.001215519               0.000000000               0.000000000               0.000000000               0.000000000              -0.000300353               0.005197453               0.000731481              -0.000762313               0.001986571               0.001224259               0.000000000               0.000000000               0.000000000               0.000000000              -0.000242281               0.005144898               0.000617018              -0.000733966               0.001959604               0.001225638               0.000000000               0.000000000               0.000000000               0.000000000              -0.000180225               0.005074124               0.000511369              -0.000701848               0.001925307               0.001223459               0.000000000               0.000000000               0.000000000               0.000000000              -0.000116473               0.004985306               0.000407301              -0.000666839               0.001884032               0.001217193               0.000000000               0.000000000               0.000000000               0.000000000              -0.000065433               0.004878459               0.000307320              -0.000634343               0.001837585               0.001203241               0.000000000               0.000000000               0.000000000               0.000000000              -0.000041405               0.004770704               0.000216825              -0.000611863               0.001794173               0.001182310               0.000000000               0.000000000               0.000000000               0.000000000              -0.000045192               0.004671372               0.000136521              -0.000600867               0.001757397               0.001156530               0.000000000               0.000000000               0.000000000               0.000000000              -0.000073595               0.004580398               0.000071569              -0.000600146               0.001726833               0.001126687               0.000000000               0.000000000               0.000000000               0.000000000              -0.000122249               0.004497995               0.000026981              -0.000608091               0.001702014               0.001093923               0.000000000               0.000000000               0.000000000               0.000000000              -0.000159851               0.004451537               0.000005716              -0.000616385               0.001689292               0.001072907               0.000000000               0.000000000               0.000000000               0.000000000              -0.000146460               0.001566370               0.001061034              -0.000250719               0.000605690               0.000354971               0.000000000               0.000000000               0.000000000               0.000000000              -0.000130333               0.002559492               0.001507191              -0.000368812               0.000976092               0.000607280               0.000000000               0.000000000               0.000000000               0.000000000              -0.000350308               0.003662043               0.001781350              -0.000589121               0.001417042               0.000827921               0.000000000               0.000000000               0.000000000               0.000000000              -0.000379311               0.004234155               0.001647680              -0.000671510               0.001635207               0.000963697               0.000000000               0.000000000               0.000000000               0.000000000              -0.000349335               0.004542764               0.001433615              -0.000698845               0.001747187               0.001048342               0.000000000               0.000000000               0.000000000               0.000000000              -0.000307968               0.004716697               0.001234502              -0.000705074               0.001807241               0.001102167               0.000000000               0.000000000               0.000000000               0.000000000              -0.000261522               0.004818455               0.001065861              -0.000700376               0.001839594               0.001139218               0.000000000               0.000000000               0.000000000               0.000000000              -0.000215372               0.004874079               0.000922589              -0.000690023               0.001854684               0.001164661               0.000000000               0.000000000               0.000000000               0.000000000              -0.000171225               0.004892061               0.000798297              -0.000675716               0.001855909               0.001180193               0.000000000               0.000000000               0.000000000               0.000000000              -0.000123456               0.004884199               0.000686118              -0.000656819               0.001846990               0.001190171               0.000000000               0.000000000               0.000000000               0.000000000              -0.000069763               0.004852041               0.000576049              -0.000632665               0.001828219               0.001195554               0.000000000               0.000000000               0.000000000               0.000000000              -0.000017955               0.004792099               0.000464335              -0.000605744               0.001799265               0.001193521               0.000000000               0.000000000               0.000000000               0.000000000               0.000013547               0.004711016               0.000355063              -0.000583795               0.001764921               0.001181126               0.000000000               0.000000000               0.000000000               0.000000000               0.000017374               0.004622431               0.000251714              -0.000571287               0.001731224               0.001159937               0.000000000               0.000000000               0.000000000               0.000000000              -0.000010085               0.004541531               0.000155853              -0.000571472               0.001704319               0.001132847               0.000000000               0.000000000               0.000000000               0.000000000              -0.000073021               0.004474845               0.000070960              -0.000586737               0.001687179               0.001100442               0.000000000               0.000000000               0.000000000               0.000000000              -0.000133684               0.004432041               0.000024505              -0.000604135               0.001678711               0.001074576               0.000000000               0.000000000               0.000000000               0.000000000              -0.000919255               0.000831690               0.000624760              -0.000448681               0.000426787              -0.000021894               0.000000000               0.000000000               0.000000000               0.000000000              -0.000441345               0.001746454               0.001223538              -0.000383811               0.000710082               0.000326271               0.000000000               0.000000000               0.000000000               0.000000000              -0.000304895               0.002751151               0.001674984              -0.000458230               0.001069783               0.000611554               0.000000000               0.000000000               0.000000000               0.000000000              -0.000225020               0.003395640               0.001653268              -0.000508838               0.001301481               0.000792643               0.000000000               0.000000000               0.000000000               0.000000000              -0.000165992               0.003817311               0.001501483              -0.000539411               0.001452227               0.000912817               0.000000000               0.000000000               0.000000000               0.000000000              -0.000123623               0.004099706               0.001333831              -0.000558821               0.001552829               0.000994007               0.000000000               0.000000000               0.000000000               0.000000000              -0.000088848               0.004296667               0.001178374              -0.000570401               0.001622341               0.001051941               0.000000000               0.000000000               0.000000000               0.000000000              -0.000058050               0.004437328               0.001038965              -0.000576434               0.001671239               0.001094805               0.000000000               0.000000000               0.000000000               0.000000000              -0.000029583               0.004533732               0.000915916              -0.000577809               0.001703832               0.001126023               0.000000000               0.000000000               0.000000000               0.000000000               0.000000421               0.004599323               0.000804562              -0.000574757               0.001724678               0.001149921               0.000000000               0.000000000               0.000000000               0.000000000               0.000036989               0.004638663               0.000698202              -0.000565961               0.001734859               0.001168898               0.000000000               0.000000000               0.000000000               0.000000000               0.000079701               0.004645719               0.000587376              -0.000550826               0.001732166               0.001181340               0.000000000               0.000000000               0.000000000               0.000000000               0.000114909               0.004613556               0.000475181              -0.000533602               0.001715704               0.001182102               0.000000000               0.000000000               0.000000000               0.000000000               0.000133424               0.004558257               0.000364456              -0.000519747               0.001692653               0.001172906               0.000000000               0.000000000               0.000000000               0.000000000               0.000125969               0.004499924               0.000247787              -0.000515251               0.001671710               0.001156459               0.000000000               0.000000000               0.000000000               0.000000000               0.000078807               0.004452976               0.000125507              -0.000527068               0.001660000               0.001132932               0.000000000               0.000000000               0.000000000               0.000000000               0.000019773               0.004420343               0.000055958              -0.000545127               0.001655142               0.001110015               0.000000000               0.000000000               0.000000000               0.000000000              -0.001689189               0.000316876               0.000290796              -0.000673054               0.000329974              -0.000343080               0.000000000               0.000000000               0.000000000               0.000000000              -0.000774278               0.001075184               0.000906712              -0.000424752               0.000499974               0.000075222               0.000000000               0.000000000               0.000000000               0.000000000              -0.000263528               0.001911204               0.001415166              -0.000337724               0.000749636               0.000411912               0.000000000               0.000000000               0.000000000               0.000000000              -0.000047438               0.002571108               0.001474984              -0.000339178               0.000970086               0.000630908               0.000000000               0.000000000               0.000000000               0.000000000               0.000060823               0.003066119               0.001391019              -0.000360456               0.001142181               0.000781725               0.000000000               0.000000000               0.000000000               0.000000000               0.000114545               0.003431205               0.001270365              -0.000385946               0.001272372               0.000886426               0.000000000               0.000000000               0.000000000               0.000000000               0.000139673               0.003710272               0.001146494              -0.000411406               0.001373880               0.000962474               0.000000000               0.000000000               0.000000000               0.000000000               0.000157531               0.003930658               0.001028412              -0.000432257               0.001454292               0.001022034               0.000000000               0.000000000               0.000000000               0.000000000               0.000168199               0.004103261               0.000918485              -0.000449832               0.001517684               0.001067851               0.000000000               0.000000000               0.000000000               0.000000000               0.000178403               0.004244215               0.000817678              -0.000463625               0.001569266               0.001105641               0.000000000               0.000000000               0.000000000               0.000000000               0.000195435               0.004357921               0.000723739              -0.000471451               0.001609776               0.001138325               0.000000000               0.000000000               0.000000000               0.000000000               0.000224582               0.004437021               0.000626402              -0.000470409               0.001635795               0.001165386               0.000000000               0.000000000               0.000000000               0.000000000               0.000262494               0.004474222               0.000524260              -0.000460842               0.001645006               0.001184165               0.000000000               0.000000000               0.000000000               0.000000000               0.000298358               0.004475933               0.000419698              -0.000447606               0.001641165               0.001193559               0.000000000               0.000000000               0.000000000               0.000000000               0.000328127               0.004459578               0.000302161              -0.000434399               0.001631311               0.001196912               0.000000000               0.000000000               0.000000000               0.000000000               0.000339980               0.004440662               0.000162649              -0.000427589               0.001622736               0.001195146               0.000000000               0.000000000               0.000000000               0.000000000               0.000330401               0.004425706               0.000084001              -0.000429312               0.001618324               0.001189013               0.000000000               0.000000000               0.000000000               0.000000000              -0.002343876              -0.000003415               0.000087071              -0.000878526               0.000291702              -0.000586824               0.000000000               0.000000000               0.000000000               0.000000000              -0.001078623               0.000581519               0.000585835              -0.000477173               0.000352895              -0.000124279               0.000000000               0.000000000               0.000000000               0.000000000              -0.000238497               0.001236009               0.001019482              -0.000243938               0.000493311               0.000249373               0.000000000               0.000000000               0.000000000               0.000000000               0.000119727               0.001872233               0.001110362              -0.000189132               0.000687115               0.000497983               0.000000000               0.000000000               0.000000000               0.000000000               0.000285853               0.002400992               0.001078862              -0.000192930               0.000864632               0.000671702               0.000000000               0.000000000               0.000000000               0.000000000               0.000358375               0.002819513               0.001006028              -0.000218049               0.001012511               0.000794462               0.000000000               0.000000000               0.000000000               0.000000000               0.000383361               0.003157807               0.000925928              -0.000250966               0.001136247               0.000885281               0.000000000               0.000000000               0.000000000               0.000000000               0.000388579               0.003439744               0.000843735              -0.000284251               0.001241320               0.000957069               0.000000000               0.000000000               0.000000000               0.000000000               0.000385674               0.003676579               0.000761290              -0.000314944               0.001330495               0.001015551               0.000000000               0.000000000               0.000000000               0.000000000               0.000382822               0.003878227               0.000684055              -0.000341220               0.001406469               0.001065250               0.000000000               0.000000000               0.000000000               0.000000000               0.000387017               0.004050588               0.000612611              -0.000361192               0.001470580               0.001109388               0.000000000               0.000000000               0.000000000               0.000000000               0.000404091               0.004191108               0.000539879              -0.000372354               0.001521140               0.001148786               0.000000000               0.000000000               0.000000000               0.000000000               0.000440665               0.004295044               0.000460039              -0.000371631               0.001555544               0.001183913               0.000000000               0.000000000               0.000000000               0.000000000               0.000494477               0.004363519               0.000375010              -0.000360010               0.001574495               0.001214485               0.000000000               0.000000000               0.000000000               0.000000000               0.000564219               0.004401498               0.000277300              -0.000338604               0.001580020               0.001241415               0.000000000               0.000000000               0.000000000               0.000000000               0.000649220               0.004416977               0.000153114              -0.000308664               0.001575199               0.001266535               0.000000000               0.000000000               0.000000000               0.000000000               0.000712720               0.004425759               0.000085096              -0.000285949               0.001570555               0.001284605               0.000000000               0.000000000               0.000000000               0.000000000              -0.002784468              -0.000166114               0.000006838              -0.001023411               0.000285764              -0.000737647               0.000000000               0.000000000               0.000000000               0.000000000              -0.001296539               0.000286444               0.000284059              -0.000522007               0.000269482              -0.000252525               0.000000000               0.000000000               0.000000000               0.000000000              -0.000230345               0.000800931               0.000531489              -0.000186496               0.000329139               0.000142643               0.000000000               0.000000000               0.000000000               0.000000000               0.000240312               0.001401592               0.000595396              -0.000085082               0.000495553               0.000410471               0.000000000               0.000000000               0.000000000               0.000000000               0.000451679               0.001937454               0.000589192              -0.000072803               0.000670079               0.000597276               0.000000000               0.000000000               0.000000000               0.000000000               0.000542547               0.002386961               0.000556534              -0.000094915               0.000827284               0.000732369               0.000000000               0.000000000               0.000000000               0.000000000               0.000573430               0.002764221               0.000519109              -0.000130491               0.000964895               0.000834404               0.000000000               0.000000000               0.000000000               0.000000000               0.000572651               0.003081887               0.000478702              -0.000170492               0.001084116               0.000913624               0.000000000               0.000000000               0.000000000               0.000000000               0.000563541               0.003354086               0.000435555              -0.000207933               0.001187328               0.000979396               0.000000000               0.000000000               0.000000000               0.000000000               0.000557382               0.003590713               0.000393939              -0.000239821               0.001276833               0.001037012               0.000000000               0.000000000               0.000000000               0.000000000               0.000559014               0.003797527               0.000354791              -0.000265060               0.001354183               0.001089123               0.000000000               0.000000000               0.000000000               0.000000000               0.000571670               0.003975879               0.000315311              -0.000282608               0.001419482               0.001136874               0.000000000               0.000000000               0.000000000               0.000000000               0.000604468               0.004125652               0.000271536              -0.000289030               0.001471547               0.001182517               0.000000000               0.000000000               0.000000000               0.000000000               0.000665204               0.004245727               0.000222819              -0.000281264               0.001508983               0.001227719               0.000000000               0.000000000               0.000000000               0.000000000               0.000758459               0.004333684               0.000166400              -0.000257288               0.001530310               0.001273022               0.000000000               0.000000000               0.000000000               0.000000000               0.000894376               0.004389625               0.000092136              -0.000213312               0.001534297               0.001320986               0.000000000               0.000000000               0.000000000               0.000000000               0.001013477               0.004422901               0.000051599              -0.000172808               0.001531888               0.001359080               0.000000000               0.000000000               0.000000000               0.000000000               0.000000000               0.000000000               0.000000000               0.000000000               0.000000000               0.000000000               0.000000000               0.000000000               0.000000000               0.000000000               0.000000000               0.000000000               0.000000000               0.000000000               0.000000000               0.000000000               0.000000000               0.000000000               0.000000000               0.000000000               0.000000000               0.000000000               0.000000000               0.000000000               0.000000000               0.000000000               0.000000000               0.000000000               0.000000000               0.000000000               0.000000000               0.000000000               0.000000000               0.000000000               0.000000000               0.000000000               0.000000000               0.000000000               0.000000000               0.000000000               0.000000000               0.000000000               0.000000000               0.000000000               0.000000000               0.000000000               0.000000000               0.000000000               0.000000000               0.000000000               0.000000000               0.000000000               0.000000000               0.000000000               0.000000000               0.000000000               0.000000000               0.000000000               0.000000000               0.000000000               0.000000000               0.000000000               0.000000000               0.000000000               0.000000000               0.000000000               0.000000000               0.000000000               0.000000000               0.000000000               0.000000000               0.000000000               0.000000000               0.000000000               0.000000000               0.000000000               0.000000000               0.000000000               0.000000000               0.000000000               0.000000000               0.000000000               0.000000000               0.000000000               0.000000000               0.000000000               0.000000000               0.000000000               0.000000000               0.000000000               0.000000000               0.000000000               0.000000000               0.000000000               0.000000000               0.000000000               0.000000000               0.000000000               0.000000000               0.000000000               0.000000000               0.000000000               0.000000000               0.000000000               0.000000000               0.000000000               0.000000000               0.000000000               0.000000000               0.000000000               0.000000000               0.000000000               0.000000000               0.000000000               0.000000000               0.000000000               0.000000000               0.000000000               0.000000000               0.000000000               0.000000000               0.000000000               0.000000000               0.000000000               0.000000000               0.000000000               0.000000000               0.000000000               0.000000000               0.000000000               0.000000000               0.000000000               0.000000000               0.000000000               0.000000000               0.000000000               0.000000000               0.000000000               0.000000000               0.000000000               0.000000000               0.000000000               0.000000000               0.000000000               0.000000000               0.000000000               0.000000000               0.000000000               0.000000000               0.000000000               0.000000000               0.000000000               0.000000000               0.000000000               0.000000000               0.000000000               0.000000000               0.000000000               0.000000000               0.000000000               0.000000000               0.000000000               0.000000000               0.000000000               0.000000000               0.000000000               0.000000000               0.000000000               0.000000000               0.000000000 </DataArray>
</PointData>
</Piece>
</UnstructuredGrid> </VTKFile>
