<?xml version="1.0"?>
<VTKFile type="UnstructuredGrid" version="0.1">
<UnstructuredGrid>
<Piece NumberOfPoints="      1156" NumberOfCells="      1024">
<Points>
<DataArray type="Float64"                                    Name="coordinates"                                                      NumberOfComponents=" 3" format="ascii">
              0.133000000               0.000000000               0.000000000               0.155937500               0.000000000               0.000000000               0.178875000               0.000000000               0.000000000               0.201812500               0.000000000               0.000000000               0.224750000               0.000000000               0.000000000               0.247687500               0.000000000               0.000000000               0.270625000               0.000000000               0.000000000               0.293562500               0.000000000               0.000000000               0.316500000               0.000000000               0.000000000               0.339437500               0.000000000               0.000000000               0.362375000               0.000000000               0.000000000               0.385312500               0.000000000               0.000000000               0.408250000               0.000000000               0.000000000               0.431187500               0.000000000               0.000000000               0.454125000               0.000000000               0.000000000               0.477062500               0.000000000               0.000000000               0.500000000               0.000000000               0.000000000               0.132359569               0.013036280               0.000000000               0.155337096               0.016127762               0.000000000               0.178314623               0.019219245               0.000000000               0.201292150               0.022310727               0.000000000               0.224269676               0.025402210               0.000000000               0.247247203               0.028493692               0.000000000               0.270224730               0.031585175               0.000000000               0.293202257               0.034676657               0.000000000               0.316179784               0.037768140               0.000000000               0.339157311               0.040859622               0.000000000               0.362134838               0.043951105               0.000000000               0.385112365               0.047042587               0.000000000               0.408089892               0.050134070               0.000000000               0.431067419               0.053225552               0.000000000               0.454044946               0.056317035               0.000000000               0.477022473               0.059408517               0.000000000               0.500000000               0.062500000               0.000000000               0.130444442               0.025947013               0.000000000               0.153541665               0.032137825               0.000000000               0.176638887               0.038328636               0.000000000               0.199736109               0.044519448               0.000000000               0.222833332               0.050710260               0.000000000               0.245930554               0.056901071               0.000000000               0.269027776               0.063091883               0.000000000               0.292124999               0.069282695               0.000000000               0.315222221               0.075473506               0.000000000               0.338319444               0.081664318               0.000000000               0.361416666               0.087855130               0.000000000               0.384513888               0.094045942               0.000000000               0.407611111               0.100236753               0.000000000               0.430708333               0.106427565               0.000000000               0.453805555               0.112618377               0.000000000               0.476902778               0.118809188               0.000000000               0.500000000               0.125000000               0.000000000               0.127273065               0.038607862               0.000000000               0.150568498               0.047913621               0.000000000               0.173863932               0.057219379               0.000000000               0.197159365               0.066525138               0.000000000               0.220454798               0.075830897               0.000000000               0.243750232               0.085136655               0.000000000               0.267045665               0.094442414               0.000000000               0.290341099               0.103748172               0.000000000               0.313636532               0.113053931               0.000000000               0.336931966               0.122359690               0.000000000               0.360227399               0.131665448               0.000000000               0.383522833               0.140971207               0.000000000               0.406818266               0.150276966               0.000000000               0.430113700               0.159582724               0.000000000               0.453409133               0.168888483               0.000000000               0.476704567               0.178194241               0.000000000               0.500000000               0.187500000               0.000000000               0.122875978               0.050896897               0.000000000               0.146446229               0.063340840               0.000000000               0.170016481               0.075784784               0.000000000               0.193586732               0.088228728               0.000000000               0.217156983               0.100672672               0.000000000               0.240727235               0.113116616               0.000000000               0.264297486               0.125560560               0.000000000               0.287867738               0.138004504               0.000000000               0.311437989               0.150448448               0.000000000               0.335008240               0.162892392               0.000000000               0.358578492               0.175336336               0.000000000               0.382148743               0.187780280               0.000000000               0.405718994               0.200224224               0.000000000               0.429289246               0.212668168               0.000000000               0.452859497               0.225112112               0.000000000               0.476429749               0.237556056               0.000000000               0.500000000               0.250000000               0.000000000               0.117295528               0.062695766               0.000000000               0.141214558               0.078308531               0.000000000               0.165133587               0.093921295               0.000000000               0.189052617               0.109534060               0.000000000               0.212971646               0.125146824               0.000000000               0.236890676               0.140759589               0.000000000               0.260809705               0.156372354               0.000000000               0.284728735               0.171985118               0.000000000               0.308647764               0.187597883               0.000000000               0.332566794               0.203210648               0.000000000               0.356485823               0.218823412               0.000000000               0.380404853               0.234436177               0.000000000               0.404323882               0.250048941               0.000000000               0.428242912               0.265661706               0.000000000               0.452161941               0.281274471               0.000000000               0.476080971               0.296887235               0.000000000               0.500000000               0.312500000               0.000000000               0.110585458               0.073890841               0.000000000               0.134923867               0.092710163               0.000000000               0.159262276               0.111529486               0.000000000               0.183600685               0.130348808               0.000000000               0.207939094               0.149168131               0.000000000               0.232277503               0.167987453               0.000000000               0.256615912               0.186806776               0.000000000               0.280954320               0.205626098               0.000000000               0.305292729               0.224445420               0.000000000               0.329631138               0.243264743               0.000000000               0.353969547               0.262084065               0.000000000               0.378307956               0.280903388               0.000000000               0.402646365               0.299722710               0.000000000               0.426984773               0.318542033               0.000000000               0.451323182               0.337361355               0.000000000               0.475661591               0.356180678               0.000000000               0.500000000               0.375000000               0.000000000               0.102810390               0.084374307               0.000000000               0.127634741               0.106444663               0.000000000               0.152459092               0.128515018               0.000000000               0.177283442               0.150585374               0.000000000               0.202107793               0.172655730               0.000000000               0.226932143               0.194726086               0.000000000               0.251756494               0.216796442               0.000000000               0.276580845               0.238866798               0.000000000               0.301405195               0.260937153               0.000000000               0.326229546               0.283007509               0.000000000               0.351053896               0.305077865               0.000000000               0.375878247               0.327148221               0.000000000               0.400702598               0.349218577               0.000000000               0.425526948               0.371288933               0.000000000               0.450351299               0.393359288               0.000000000               0.475175649               0.415429644               0.000000000               0.500000000               0.437500000               0.000000000               0.094045202               0.094045202               0.000000000               0.119417377               0.119417377               0.000000000               0.144789552               0.144789552               0.000000000               0.170161727               0.170161727               0.000000000               0.195533901               0.195533901               0.000000000               0.220906076               0.220906076               0.000000000               0.246278251               0.246278251               0.000000000               0.271650426               0.271650426               0.000000000               0.297022601               0.297022601               0.000000000               0.322394776               0.322394776               0.000000000               0.347766951               0.347766951               0.000000000               0.373139126               0.373139126               0.000000000               0.398511300               0.398511300               0.000000000               0.423883475               0.423883475               0.000000000               0.449255650               0.449255650               0.000000000               0.474627825               0.474627825               0.000000000               0.500000000               0.500000000               0.000000000               0.084374307               0.102810390               0.000000000               0.106444663               0.127634741               0.000000000               0.128515018               0.152459092               0.000000000               0.150585374               0.177283442               0.000000000               0.172655730               0.202107793               0.000000000               0.194726086               0.226932143               0.000000000               0.216796442               0.251756494               0.000000000               0.238866798               0.276580845               0.000000000               0.260937153               0.301405195               0.000000000               0.283007509               0.326229546               0.000000000               0.305077865               0.351053896               0.000000000               0.327148221               0.375878247               0.000000000               0.349218577               0.400702598               0.000000000               0.371288933               0.425526948               0.000000000               0.393359288               0.450351299               0.000000000               0.415429644               0.475175649               0.000000000               0.437500000               0.500000000               0.000000000               0.073890841               0.110585458               0.000000000               0.092710163               0.134923867               0.000000000               0.111529486               0.159262276               0.000000000               0.130348808               0.183600685               0.000000000               0.149168131               0.207939094               0.000000000               0.167987453               0.232277503               0.000000000               0.186806776               0.256615912               0.000000000               0.205626098               0.280954320               0.000000000               0.224445420               0.305292729               0.000000000               0.243264743               0.329631138               0.000000000               0.262084065               0.353969547               0.000000000               0.280903388               0.378307956               0.000000000               0.299722710               0.402646365               0.000000000               0.318542033               0.426984773               0.000000000               0.337361355               0.451323182               0.000000000               0.356180678               0.475661591               0.000000000               0.375000000               0.500000000               0.000000000               0.062695766               0.117295528               0.000000000               0.078308531               0.141214558               0.000000000               0.093921295               0.165133587               0.000000000               0.109534060               0.189052617               0.000000000               0.125146824               0.212971646               0.000000000               0.140759589               0.236890676               0.000000000               0.156372354               0.260809705               0.000000000               0.171985118               0.284728735               0.000000000               0.187597883               0.308647764               0.000000000               0.203210648               0.332566794               0.000000000               0.218823412               0.356485823               0.000000000               0.234436177               0.380404853               0.000000000               0.250048941               0.404323882               0.000000000               0.265661706               0.428242912               0.000000000               0.281274471               0.452161941               0.000000000               0.296887235               0.476080971               0.000000000               0.312500000               0.500000000               0.000000000               0.050896897               0.122875978               0.000000000               0.063340840               0.146446229               0.000000000               0.075784784               0.170016481               0.000000000               0.088228728               0.193586732               0.000000000               0.100672672               0.217156983               0.000000000               0.113116616               0.240727235               0.000000000               0.125560560               0.264297486               0.000000000               0.138004504               0.287867738               0.000000000               0.150448448               0.311437989               0.000000000               0.162892392               0.335008240               0.000000000               0.175336336               0.358578492               0.000000000               0.187780280               0.382148743               0.000000000               0.200224224               0.405718994               0.000000000               0.212668168               0.429289246               0.000000000               0.225112112               0.452859497               0.000000000               0.237556056               0.476429749               0.000000000               0.250000000               0.500000000               0.000000000               0.038607862               0.127273065               0.000000000               0.047913621               0.150568498               0.000000000               0.057219379               0.173863932               0.000000000               0.066525138               0.197159365               0.000000000               0.075830897               0.220454798               0.000000000               0.085136655               0.243750232               0.000000000               0.094442414               0.267045665               0.000000000               0.103748172               0.290341099               0.000000000               0.113053931               0.313636532               0.000000000               0.122359690               0.336931966               0.000000000               0.131665448               0.360227399               0.000000000               0.140971207               0.383522833               0.000000000               0.150276966               0.406818266               0.000000000               0.159582724               0.430113700               0.000000000               0.168888483               0.453409133               0.000000000               0.178194241               0.476704567               0.000000000               0.187500000               0.500000000               0.000000000               0.025947013               0.130444442               0.000000000               0.032137825               0.153541665               0.000000000               0.038328636               0.176638887               0.000000000               0.044519448               0.199736109               0.000000000               0.050710260               0.222833332               0.000000000               0.056901071               0.245930554               0.000000000               0.063091883               0.269027776               0.000000000               0.069282695               0.292124999               0.000000000               0.075473506               0.315222221               0.000000000               0.081664318               0.338319444               0.000000000               0.087855130               0.361416666               0.000000000               0.094045942               0.384513888               0.000000000               0.100236753               0.407611111               0.000000000               0.106427565               0.430708333               0.000000000               0.112618377               0.453805555               0.000000000               0.118809188               0.476902778               0.000000000               0.125000000               0.500000000               0.000000000               0.013036280               0.132359569               0.000000000               0.016127762               0.155337096               0.000000000               0.019219245               0.178314623               0.000000000               0.022310727               0.201292150               0.000000000               0.025402210               0.224269676               0.000000000               0.028493692               0.247247203               0.000000000               0.031585175               0.270224730               0.000000000               0.034676657               0.293202257               0.000000000               0.037768140               0.316179784               0.000000000               0.040859622               0.339157311               0.000000000               0.043951105               0.362134838               0.000000000               0.047042587               0.385112365               0.000000000               0.050134070               0.408089892               0.000000000               0.053225552               0.431067419               0.000000000               0.056317035               0.454044946               0.000000000               0.059408517               0.477022473               0.000000000               0.062500000               0.500000000               0.000000000               0.000000000               0.133000000               0.000000000               0.000000000               0.155937500               0.000000000               0.000000000               0.178875000               0.000000000               0.000000000               0.201812500               0.000000000               0.000000000               0.224750000               0.000000000               0.000000000               0.247687500               0.000000000               0.000000000               0.270625000               0.000000000               0.000000000               0.293562500               0.000000000               0.000000000               0.316500000               0.000000000               0.000000000               0.339437500               0.000000000               0.000000000               0.362375000               0.000000000               0.000000000               0.385312500               0.000000000               0.000000000               0.408250000               0.000000000               0.000000000               0.431187500               0.000000000               0.000000000               0.454125000               0.000000000               0.000000000               0.477062500               0.000000000               0.000000000               0.500000000               0.000000000               0.133000000               0.000000000               0.000000000               0.155937500               0.000000000               0.000000000               0.178875000               0.000000000               0.000000000               0.201812500               0.000000000               0.000000000               0.224750000               0.000000000               0.000000000               0.247687500               0.000000000               0.000000000               0.270625000               0.000000000               0.000000000               0.293562500               0.000000000               0.000000000               0.316500000               0.000000000               0.000000000               0.339437500               0.000000000               0.000000000               0.362375000               0.000000000               0.000000000               0.385312500               0.000000000               0.000000000               0.408250000               0.000000000               0.000000000               0.431187500               0.000000000               0.000000000               0.454125000               0.000000000               0.000000000               0.477062500               0.000000000               0.000000000               0.500000000               0.000000000               0.000000000               0.132359569              -0.013036280               0.000000000               0.155337096              -0.016127762               0.000000000               0.178314623              -0.019219245               0.000000000               0.201292150              -0.022310727               0.000000000               0.224269676              -0.025402210               0.000000000               0.247247203              -0.028493692               0.000000000               0.270224730              -0.031585175               0.000000000               0.293202257              -0.034676657               0.000000000               0.316179784              -0.037768140               0.000000000               0.339157311              -0.040859622               0.000000000               0.362134838              -0.043951105               0.000000000               0.385112365              -0.047042587               0.000000000               0.408089892              -0.050134070               0.000000000               0.431067419              -0.053225552               0.000000000               0.454044946              -0.056317035               0.000000000               0.477022473              -0.059408517               0.000000000               0.500000000              -0.062500000               0.000000000               0.130444442              -0.025947013               0.000000000               0.153541665              -0.032137825               0.000000000               0.176638887              -0.038328636               0.000000000               0.199736109              -0.044519448               0.000000000               0.222833332              -0.050710260               0.000000000               0.245930554              -0.056901071               0.000000000               0.269027776              -0.063091883               0.000000000               0.292124999              -0.069282695               0.000000000               0.315222221              -0.075473506               0.000000000               0.338319444              -0.081664318               0.000000000               0.361416666              -0.087855130               0.000000000               0.384513888              -0.094045942               0.000000000               0.407611111              -0.100236753               0.000000000               0.430708333              -0.106427565               0.000000000               0.453805555              -0.112618377               0.000000000               0.476902778              -0.118809188               0.000000000               0.500000000              -0.125000000               0.000000000               0.127273065              -0.038607862               0.000000000               0.150568498              -0.047913621               0.000000000               0.173863932              -0.057219379               0.000000000               0.197159365              -0.066525138               0.000000000               0.220454798              -0.075830897               0.000000000               0.243750232              -0.085136655               0.000000000               0.267045665              -0.094442414               0.000000000               0.290341099              -0.103748172               0.000000000               0.313636532              -0.113053931               0.000000000               0.336931966              -0.122359690               0.000000000               0.360227399              -0.131665448               0.000000000               0.383522833              -0.140971207               0.000000000               0.406818266              -0.150276966               0.000000000               0.430113700              -0.159582724               0.000000000               0.453409133              -0.168888483               0.000000000               0.476704567              -0.178194241               0.000000000               0.500000000              -0.187500000               0.000000000               0.122875978              -0.050896897               0.000000000               0.146446229              -0.063340840               0.000000000               0.170016481              -0.075784784               0.000000000               0.193586732              -0.088228728               0.000000000               0.217156983              -0.100672672               0.000000000               0.240727235              -0.113116616               0.000000000               0.264297486              -0.125560560               0.000000000               0.287867738              -0.138004504               0.000000000               0.311437989              -0.150448448               0.000000000               0.335008240              -0.162892392               0.000000000               0.358578492              -0.175336336               0.000000000               0.382148743              -0.187780280               0.000000000               0.405718994              -0.200224224               0.000000000               0.429289246              -0.212668168               0.000000000               0.452859497              -0.225112112               0.000000000               0.476429749              -0.237556056               0.000000000               0.500000000              -0.250000000               0.000000000               0.117295528              -0.062695766               0.000000000               0.141214558              -0.078308531               0.000000000               0.165133587              -0.093921295               0.000000000               0.189052617              -0.109534060               0.000000000               0.212971646              -0.125146824               0.000000000               0.236890676              -0.140759589               0.000000000               0.260809705              -0.156372354               0.000000000               0.284728735              -0.171985118               0.000000000               0.308647764              -0.187597883               0.000000000               0.332566794              -0.203210648               0.000000000               0.356485823              -0.218823412               0.000000000               0.380404853              -0.234436177               0.000000000               0.404323882              -0.250048941               0.000000000               0.428242912              -0.265661706               0.000000000               0.452161941              -0.281274471               0.000000000               0.476080971              -0.296887235               0.000000000               0.500000000              -0.312500000               0.000000000               0.110585458              -0.073890841               0.000000000               0.134923867              -0.092710163               0.000000000               0.159262276              -0.111529486               0.000000000               0.183600685              -0.130348808               0.000000000               0.207939094              -0.149168131               0.000000000               0.232277503              -0.167987453               0.000000000               0.256615912              -0.186806776               0.000000000               0.280954320              -0.205626098               0.000000000               0.305292729              -0.224445420               0.000000000               0.329631138              -0.243264743               0.000000000               0.353969547              -0.262084065               0.000000000               0.378307956              -0.280903388               0.000000000               0.402646365              -0.299722710               0.000000000               0.426984773              -0.318542033               0.000000000               0.451323182              -0.337361355               0.000000000               0.475661591              -0.356180678               0.000000000               0.500000000              -0.375000000               0.000000000               0.102810390              -0.084374307               0.000000000               0.127634741              -0.106444663               0.000000000               0.152459092              -0.128515018               0.000000000               0.177283442              -0.150585374               0.000000000               0.202107793              -0.172655730               0.000000000               0.226932143              -0.194726086               0.000000000               0.251756494              -0.216796442               0.000000000               0.276580845              -0.238866798               0.000000000               0.301405195              -0.260937153               0.000000000               0.326229546              -0.283007509               0.000000000               0.351053896              -0.305077865               0.000000000               0.375878247              -0.327148221               0.000000000               0.400702598              -0.349218577               0.000000000               0.425526948              -0.371288933               0.000000000               0.450351299              -0.393359288               0.000000000               0.475175649              -0.415429644               0.000000000               0.500000000              -0.437500000               0.000000000               0.094045202              -0.094045202               0.000000000               0.119417377              -0.119417377               0.000000000               0.144789552              -0.144789552               0.000000000               0.170161727              -0.170161727               0.000000000               0.195533901              -0.195533901               0.000000000               0.220906076              -0.220906076               0.000000000               0.246278251              -0.246278251               0.000000000               0.271650426              -0.271650426               0.000000000               0.297022601              -0.297022601               0.000000000               0.322394776              -0.322394776               0.000000000               0.347766951              -0.347766951               0.000000000               0.373139126              -0.373139126               0.000000000               0.398511300              -0.398511300               0.000000000               0.423883475              -0.423883475               0.000000000               0.449255650              -0.449255650               0.000000000               0.474627825              -0.474627825               0.000000000               0.500000000              -0.500000000               0.000000000               0.084374307              -0.102810390               0.000000000               0.106444663              -0.127634741               0.000000000               0.128515018              -0.152459092               0.000000000               0.150585374              -0.177283442               0.000000000               0.172655730              -0.202107793               0.000000000               0.194726086              -0.226932143               0.000000000               0.216796442              -0.251756494               0.000000000               0.238866798              -0.276580845               0.000000000               0.260937153              -0.301405195               0.000000000               0.283007509              -0.326229546               0.000000000               0.305077865              -0.351053896               0.000000000               0.327148221              -0.375878247               0.000000000               0.349218577              -0.400702598               0.000000000               0.371288933              -0.425526948               0.000000000               0.393359288              -0.450351299               0.000000000               0.415429644              -0.475175649               0.000000000               0.437500000              -0.500000000               0.000000000               0.073890841              -0.110585458               0.000000000               0.092710163              -0.134923867               0.000000000               0.111529486              -0.159262276               0.000000000               0.130348808              -0.183600685               0.000000000               0.149168131              -0.207939094               0.000000000               0.167987453              -0.232277503               0.000000000               0.186806776              -0.256615912               0.000000000               0.205626098              -0.280954320               0.000000000               0.224445420              -0.305292729               0.000000000               0.243264743              -0.329631138               0.000000000               0.262084065              -0.353969547               0.000000000               0.280903388              -0.378307956               0.000000000               0.299722710              -0.402646365               0.000000000               0.318542033              -0.426984773               0.000000000               0.337361355              -0.451323182               0.000000000               0.356180678              -0.475661591               0.000000000               0.375000000              -0.500000000               0.000000000               0.062695766              -0.117295528               0.000000000               0.078308531              -0.141214558               0.000000000               0.093921295              -0.165133587               0.000000000               0.109534060              -0.189052617               0.000000000               0.125146824              -0.212971646               0.000000000               0.140759589              -0.236890676               0.000000000               0.156372354              -0.260809705               0.000000000               0.171985118              -0.284728735               0.000000000               0.187597883              -0.308647764               0.000000000               0.203210648              -0.332566794               0.000000000               0.218823412              -0.356485823               0.000000000               0.234436177              -0.380404853               0.000000000               0.250048941              -0.404323882               0.000000000               0.265661706              -0.428242912               0.000000000               0.281274471              -0.452161941               0.000000000               0.296887235              -0.476080971               0.000000000               0.312500000              -0.500000000               0.000000000               0.050896897              -0.122875978               0.000000000               0.063340840              -0.146446229               0.000000000               0.075784784              -0.170016481               0.000000000               0.088228728              -0.193586732               0.000000000               0.100672672              -0.217156983               0.000000000               0.113116616              -0.240727235               0.000000000               0.125560560              -0.264297486               0.000000000               0.138004504              -0.287867738               0.000000000               0.150448448              -0.311437989               0.000000000               0.162892392              -0.335008240               0.000000000               0.175336336              -0.358578492               0.000000000               0.187780280              -0.382148743               0.000000000               0.200224224              -0.405718994               0.000000000               0.212668168              -0.429289246               0.000000000               0.225112112              -0.452859497               0.000000000               0.237556056              -0.476429749               0.000000000               0.250000000              -0.500000000               0.000000000               0.038607862              -0.127273065               0.000000000               0.047913621              -0.150568498               0.000000000               0.057219379              -0.173863932               0.000000000               0.066525138              -0.197159365               0.000000000               0.075830897              -0.220454798               0.000000000               0.085136655              -0.243750232               0.000000000               0.094442414              -0.267045665               0.000000000               0.103748172              -0.290341099               0.000000000               0.113053931              -0.313636532               0.000000000               0.122359690              -0.336931966               0.000000000               0.131665448              -0.360227399               0.000000000               0.140971207              -0.383522833               0.000000000               0.150276966              -0.406818266               0.000000000               0.159582724              -0.430113700               0.000000000               0.168888483              -0.453409133               0.000000000               0.178194241              -0.476704567               0.000000000               0.187500000              -0.500000000               0.000000000               0.025947013              -0.130444442               0.000000000               0.032137825              -0.153541665               0.000000000               0.038328636              -0.176638887               0.000000000               0.044519448              -0.199736109               0.000000000               0.050710260              -0.222833332               0.000000000               0.056901071              -0.245930554               0.000000000               0.063091883              -0.269027776               0.000000000               0.069282695              -0.292124999               0.000000000               0.075473506              -0.315222221               0.000000000               0.081664318              -0.338319444               0.000000000               0.087855130              -0.361416666               0.000000000               0.094045942              -0.384513888               0.000000000               0.100236753              -0.407611111               0.000000000               0.106427565              -0.430708333               0.000000000               0.112618377              -0.453805555               0.000000000               0.118809188              -0.476902778               0.000000000               0.125000000              -0.500000000               0.000000000               0.013036280              -0.132359569               0.000000000               0.016127762              -0.155337096               0.000000000               0.019219245              -0.178314623               0.000000000               0.022310727              -0.201292150               0.000000000               0.025402210              -0.224269676               0.000000000               0.028493692              -0.247247203               0.000000000               0.031585175              -0.270224730               0.000000000               0.034676657              -0.293202257               0.000000000               0.037768140              -0.316179784               0.000000000               0.040859622              -0.339157311               0.000000000               0.043951105              -0.362134838               0.000000000               0.047042587              -0.385112365               0.000000000               0.050134070              -0.408089892               0.000000000               0.053225552              -0.431067419               0.000000000               0.056317035              -0.454044946               0.000000000               0.059408517              -0.477022473               0.000000000               0.062500000              -0.500000000               0.000000000               0.000000000              -0.133000000               0.000000000               0.000000000              -0.155937500               0.000000000               0.000000000              -0.178875000               0.000000000               0.000000000              -0.201812500               0.000000000               0.000000000              -0.224750000               0.000000000               0.000000000              -0.247687500               0.000000000               0.000000000              -0.270625000               0.000000000               0.000000000              -0.293562500               0.000000000               0.000000000              -0.316500000               0.000000000               0.000000000              -0.339437500               0.000000000               0.000000000              -0.362375000               0.000000000               0.000000000              -0.385312500               0.000000000               0.000000000              -0.408250000               0.000000000               0.000000000              -0.431187500               0.000000000               0.000000000              -0.454125000               0.000000000               0.000000000              -0.477062500               0.000000000               0.000000000              -0.500000000               0.000000000              -0.133000000               0.000000000               0.000000000              -0.155937500               0.000000000               0.000000000              -0.178875000               0.000000000               0.000000000              -0.201812500               0.000000000               0.000000000              -0.224750000               0.000000000               0.000000000              -0.247687500               0.000000000               0.000000000              -0.270625000               0.000000000               0.000000000              -0.293562500               0.000000000               0.000000000              -0.316500000               0.000000000               0.000000000              -0.339437500               0.000000000               0.000000000              -0.362375000               0.000000000               0.000000000              -0.385312500               0.000000000               0.000000000              -0.408250000               0.000000000               0.000000000              -0.431187500               0.000000000               0.000000000              -0.454125000               0.000000000               0.000000000              -0.477062500               0.000000000               0.000000000              -0.500000000               0.000000000               0.000000000              -0.132359569              -0.013036280               0.000000000              -0.155337096              -0.016127762               0.000000000              -0.178314623              -0.019219245               0.000000000              -0.201292150              -0.022310727               0.000000000              -0.224269676              -0.025402210               0.000000000              -0.247247203              -0.028493692               0.000000000              -0.270224730              -0.031585175               0.000000000              -0.293202257              -0.034676657               0.000000000              -0.316179784              -0.037768140               0.000000000              -0.339157311              -0.040859622               0.000000000              -0.362134838              -0.043951105               0.000000000              -0.385112365              -0.047042587               0.000000000              -0.408089892              -0.050134070               0.000000000              -0.431067419              -0.053225552               0.000000000              -0.454044946              -0.056317035               0.000000000              -0.477022473              -0.059408517               0.000000000              -0.500000000              -0.062500000               0.000000000              -0.130444442              -0.025947013               0.000000000              -0.153541665              -0.032137825               0.000000000              -0.176638887              -0.038328636               0.000000000              -0.199736109              -0.044519448               0.000000000              -0.222833332              -0.050710260               0.000000000              -0.245930554              -0.056901071               0.000000000              -0.269027776              -0.063091883               0.000000000              -0.292124999              -0.069282695               0.000000000              -0.315222221              -0.075473506               0.000000000              -0.338319444              -0.081664318               0.000000000              -0.361416666              -0.087855130               0.000000000              -0.384513888              -0.094045942               0.000000000              -0.407611111              -0.100236753               0.000000000              -0.430708333              -0.106427565               0.000000000              -0.453805555              -0.112618377               0.000000000              -0.476902778              -0.118809188               0.000000000              -0.500000000              -0.125000000               0.000000000              -0.127273065              -0.038607862               0.000000000              -0.150568498              -0.047913621               0.000000000              -0.173863932              -0.057219379               0.000000000              -0.197159365              -0.066525138               0.000000000              -0.220454798              -0.075830897               0.000000000              -0.243750232              -0.085136655               0.000000000              -0.267045665              -0.094442414               0.000000000              -0.290341099              -0.103748172               0.000000000              -0.313636532              -0.113053931               0.000000000              -0.336931966              -0.122359690               0.000000000              -0.360227399              -0.131665448               0.000000000              -0.383522833              -0.140971207               0.000000000              -0.406818266              -0.150276966               0.000000000              -0.430113700              -0.159582724               0.000000000              -0.453409133              -0.168888483               0.000000000              -0.476704567              -0.178194241               0.000000000              -0.500000000              -0.187500000               0.000000000              -0.122875978              -0.050896897               0.000000000              -0.146446229              -0.063340840               0.000000000              -0.170016481              -0.075784784               0.000000000              -0.193586732              -0.088228728               0.000000000              -0.217156983              -0.100672672               0.000000000              -0.240727235              -0.113116616               0.000000000              -0.264297486              -0.125560560               0.000000000              -0.287867738              -0.138004504               0.000000000              -0.311437989              -0.150448448               0.000000000              -0.335008240              -0.162892392               0.000000000              -0.358578492              -0.175336336               0.000000000              -0.382148743              -0.187780280               0.000000000              -0.405718994              -0.200224224               0.000000000              -0.429289246              -0.212668168               0.000000000              -0.452859497              -0.225112112               0.000000000              -0.476429749              -0.237556056               0.000000000              -0.500000000              -0.250000000               0.000000000              -0.117295528              -0.062695766               0.000000000              -0.141214558              -0.078308531               0.000000000              -0.165133587              -0.093921295               0.000000000              -0.189052617              -0.109534060               0.000000000              -0.212971646              -0.125146824               0.000000000              -0.236890676              -0.140759589               0.000000000              -0.260809705              -0.156372354               0.000000000              -0.284728735              -0.171985118               0.000000000              -0.308647764              -0.187597883               0.000000000              -0.332566794              -0.203210648               0.000000000              -0.356485823              -0.218823412               0.000000000              -0.380404853              -0.234436177               0.000000000              -0.404323882              -0.250048941               0.000000000              -0.428242912              -0.265661706               0.000000000              -0.452161941              -0.281274471               0.000000000              -0.476080971              -0.296887235               0.000000000              -0.500000000              -0.312500000               0.000000000              -0.110585458              -0.073890841               0.000000000              -0.134923867              -0.092710163               0.000000000              -0.159262276              -0.111529486               0.000000000              -0.183600685              -0.130348808               0.000000000              -0.207939094              -0.149168131               0.000000000              -0.232277503              -0.167987453               0.000000000              -0.256615912              -0.186806776               0.000000000              -0.280954320              -0.205626098               0.000000000              -0.305292729              -0.224445420               0.000000000              -0.329631138              -0.243264743               0.000000000              -0.353969547              -0.262084065               0.000000000              -0.378307956              -0.280903388               0.000000000              -0.402646365              -0.299722710               0.000000000              -0.426984773              -0.318542033               0.000000000              -0.451323182              -0.337361355               0.000000000              -0.475661591              -0.356180678               0.000000000              -0.500000000              -0.375000000               0.000000000              -0.102810390              -0.084374307               0.000000000              -0.127634741              -0.106444663               0.000000000              -0.152459092              -0.128515018               0.000000000              -0.177283442              -0.150585374               0.000000000              -0.202107793              -0.172655730               0.000000000              -0.226932143              -0.194726086               0.000000000              -0.251756494              -0.216796442               0.000000000              -0.276580845              -0.238866798               0.000000000              -0.301405195              -0.260937153               0.000000000              -0.326229546              -0.283007509               0.000000000              -0.351053896              -0.305077865               0.000000000              -0.375878247              -0.327148221               0.000000000              -0.400702598              -0.349218577               0.000000000              -0.425526948              -0.371288933               0.000000000              -0.450351299              -0.393359288               0.000000000              -0.475175649              -0.415429644               0.000000000              -0.500000000              -0.437500000               0.000000000              -0.094045202              -0.094045202               0.000000000              -0.119417377              -0.119417377               0.000000000              -0.144789552              -0.144789552               0.000000000              -0.170161727              -0.170161727               0.000000000              -0.195533901              -0.195533901               0.000000000              -0.220906076              -0.220906076               0.000000000              -0.246278251              -0.246278251               0.000000000              -0.271650426              -0.271650426               0.000000000              -0.297022601              -0.297022601               0.000000000              -0.322394776              -0.322394776               0.000000000              -0.347766951              -0.347766951               0.000000000              -0.373139126              -0.373139126               0.000000000              -0.398511300              -0.398511300               0.000000000              -0.423883475              -0.423883475               0.000000000              -0.449255650              -0.449255650               0.000000000              -0.474627825              -0.474627825               0.000000000              -0.500000000              -0.500000000               0.000000000              -0.084374307              -0.102810390               0.000000000              -0.106444663              -0.127634741               0.000000000              -0.128515018              -0.152459092               0.000000000              -0.150585374              -0.177283442               0.000000000              -0.172655730              -0.202107793               0.000000000              -0.194726086              -0.226932143               0.000000000              -0.216796442              -0.251756494               0.000000000              -0.238866798              -0.276580845               0.000000000              -0.260937153              -0.301405195               0.000000000              -0.283007509              -0.326229546               0.000000000              -0.305077865              -0.351053896               0.000000000              -0.327148221              -0.375878247               0.000000000              -0.349218577              -0.400702598               0.000000000              -0.371288933              -0.425526948               0.000000000              -0.393359288              -0.450351299               0.000000000              -0.415429644              -0.475175649               0.000000000              -0.437500000              -0.500000000               0.000000000              -0.073890841              -0.110585458               0.000000000              -0.092710163              -0.134923867               0.000000000              -0.111529486              -0.159262276               0.000000000              -0.130348808              -0.183600685               0.000000000              -0.149168131              -0.207939094               0.000000000              -0.167987453              -0.232277503               0.000000000              -0.186806776              -0.256615912               0.000000000              -0.205626098              -0.280954320               0.000000000              -0.224445420              -0.305292729               0.000000000              -0.243264743              -0.329631138               0.000000000              -0.262084065              -0.353969547               0.000000000              -0.280903388              -0.378307956               0.000000000              -0.299722710              -0.402646365               0.000000000              -0.318542033              -0.426984773               0.000000000              -0.337361355              -0.451323182               0.000000000              -0.356180678              -0.475661591               0.000000000              -0.375000000              -0.500000000               0.000000000              -0.062695766              -0.117295528               0.000000000              -0.078308531              -0.141214558               0.000000000              -0.093921295              -0.165133587               0.000000000              -0.109534060              -0.189052617               0.000000000              -0.125146824              -0.212971646               0.000000000              -0.140759589              -0.236890676               0.000000000              -0.156372354              -0.260809705               0.000000000              -0.171985118              -0.284728735               0.000000000              -0.187597883              -0.308647764               0.000000000              -0.203210648              -0.332566794               0.000000000              -0.218823412              -0.356485823               0.000000000              -0.234436177              -0.380404853               0.000000000              -0.250048941              -0.404323882               0.000000000              -0.265661706              -0.428242912               0.000000000              -0.281274471              -0.452161941               0.000000000              -0.296887235              -0.476080971               0.000000000              -0.312500000              -0.500000000               0.000000000              -0.050896897              -0.122875978               0.000000000              -0.063340840              -0.146446229               0.000000000              -0.075784784              -0.170016481               0.000000000              -0.088228728              -0.193586732               0.000000000              -0.100672672              -0.217156983               0.000000000              -0.113116616              -0.240727235               0.000000000              -0.125560560              -0.264297486               0.000000000              -0.138004504              -0.287867738               0.000000000              -0.150448448              -0.311437989               0.000000000              -0.162892392              -0.335008240               0.000000000              -0.175336336              -0.358578492               0.000000000              -0.187780280              -0.382148743               0.000000000              -0.200224224              -0.405718994               0.000000000              -0.212668168              -0.429289246               0.000000000              -0.225112112              -0.452859497               0.000000000              -0.237556056              -0.476429749               0.000000000              -0.250000000              -0.500000000               0.000000000              -0.038607862              -0.127273065               0.000000000              -0.047913621              -0.150568498               0.000000000              -0.057219379              -0.173863932               0.000000000              -0.066525138              -0.197159365               0.000000000              -0.075830897              -0.220454798               0.000000000              -0.085136655              -0.243750232               0.000000000              -0.094442414              -0.267045665               0.000000000              -0.103748172              -0.290341099               0.000000000              -0.113053931              -0.313636532               0.000000000              -0.122359690              -0.336931966               0.000000000              -0.131665448              -0.360227399               0.000000000              -0.140971207              -0.383522833               0.000000000              -0.150276966              -0.406818266               0.000000000              -0.159582724              -0.430113700               0.000000000              -0.168888483              -0.453409133               0.000000000              -0.178194241              -0.476704567               0.000000000              -0.187500000              -0.500000000               0.000000000              -0.025947013              -0.130444442               0.000000000              -0.032137825              -0.153541665               0.000000000              -0.038328636              -0.176638887               0.000000000              -0.044519448              -0.199736109               0.000000000              -0.050710260              -0.222833332               0.000000000              -0.056901071              -0.245930554               0.000000000              -0.063091883              -0.269027776               0.000000000              -0.069282695              -0.292124999               0.000000000              -0.075473506              -0.315222221               0.000000000              -0.081664318              -0.338319444               0.000000000              -0.087855130              -0.361416666               0.000000000              -0.094045942              -0.384513888               0.000000000              -0.100236753              -0.407611111               0.000000000              -0.106427565              -0.430708333               0.000000000              -0.112618377              -0.453805555               0.000000000              -0.118809188              -0.476902778               0.000000000              -0.125000000              -0.500000000               0.000000000              -0.013036280              -0.132359569               0.000000000              -0.016127762              -0.155337096               0.000000000              -0.019219245              -0.178314623               0.000000000              -0.022310727              -0.201292150               0.000000000              -0.025402210              -0.224269676               0.000000000              -0.028493692              -0.247247203               0.000000000              -0.031585175              -0.270224730               0.000000000              -0.034676657              -0.293202257               0.000000000              -0.037768140              -0.316179784               0.000000000              -0.040859622              -0.339157311               0.000000000              -0.043951105              -0.362134838               0.000000000              -0.047042587              -0.385112365               0.000000000              -0.050134070              -0.408089892               0.000000000              -0.053225552              -0.431067419               0.000000000              -0.056317035              -0.454044946               0.000000000              -0.059408517              -0.477022473               0.000000000              -0.062500000              -0.500000000               0.000000000               0.000000000              -0.133000000               0.000000000               0.000000000              -0.155937500               0.000000000               0.000000000              -0.178875000               0.000000000               0.000000000              -0.201812500               0.000000000               0.000000000              -0.224750000               0.000000000               0.000000000              -0.247687500               0.000000000               0.000000000              -0.270625000               0.000000000               0.000000000              -0.293562500               0.000000000               0.000000000              -0.316500000               0.000000000               0.000000000              -0.339437500               0.000000000               0.000000000              -0.362375000               0.000000000               0.000000000              -0.385312500               0.000000000               0.000000000              -0.408250000               0.000000000               0.000000000              -0.431187500               0.000000000               0.000000000              -0.454125000               0.000000000               0.000000000              -0.477062500               0.000000000               0.000000000              -0.500000000               0.000000000              -0.133000000               0.000000000               0.000000000              -0.155937500               0.000000000               0.000000000              -0.178875000               0.000000000               0.000000000              -0.201812500               0.000000000               0.000000000              -0.224750000               0.000000000               0.000000000              -0.247687500               0.000000000               0.000000000              -0.270625000               0.000000000               0.000000000              -0.293562500               0.000000000               0.000000000              -0.316500000               0.000000000               0.000000000              -0.339437500               0.000000000               0.000000000              -0.362375000               0.000000000               0.000000000              -0.385312500               0.000000000               0.000000000              -0.408250000               0.000000000               0.000000000              -0.431187500               0.000000000               0.000000000              -0.454125000               0.000000000               0.000000000              -0.477062500               0.000000000               0.000000000              -0.500000000               0.000000000               0.000000000              -0.132359569               0.013036280               0.000000000              -0.155337096               0.016127762               0.000000000              -0.178314623               0.019219245               0.000000000              -0.201292150               0.022310727               0.000000000              -0.224269676               0.025402210               0.000000000              -0.247247203               0.028493692               0.000000000              -0.270224730               0.031585175               0.000000000              -0.293202257               0.034676657               0.000000000              -0.316179784               0.037768140               0.000000000              -0.339157311               0.040859622               0.000000000              -0.362134838               0.043951105               0.000000000              -0.385112365               0.047042587               0.000000000              -0.408089892               0.050134070               0.000000000              -0.431067419               0.053225552               0.000000000              -0.454044946               0.056317035               0.000000000              -0.477022473               0.059408517               0.000000000              -0.500000000               0.062500000               0.000000000              -0.130444442               0.025947013               0.000000000              -0.153541665               0.032137825               0.000000000              -0.176638887               0.038328636               0.000000000              -0.199736109               0.044519448               0.000000000              -0.222833332               0.050710260               0.000000000              -0.245930554               0.056901071               0.000000000              -0.269027776               0.063091883               0.000000000              -0.292124999               0.069282695               0.000000000              -0.315222221               0.075473506               0.000000000              -0.338319444               0.081664318               0.000000000              -0.361416666               0.087855130               0.000000000              -0.384513888               0.094045942               0.000000000              -0.407611111               0.100236753               0.000000000              -0.430708333               0.106427565               0.000000000              -0.453805555               0.112618377               0.000000000              -0.476902778               0.118809188               0.000000000              -0.500000000               0.125000000               0.000000000              -0.127273065               0.038607862               0.000000000              -0.150568498               0.047913621               0.000000000              -0.173863932               0.057219379               0.000000000              -0.197159365               0.066525138               0.000000000              -0.220454798               0.075830897               0.000000000              -0.243750232               0.085136655               0.000000000              -0.267045665               0.094442414               0.000000000              -0.290341099               0.103748172               0.000000000              -0.313636532               0.113053931               0.000000000              -0.336931966               0.122359690               0.000000000              -0.360227399               0.131665448               0.000000000              -0.383522833               0.140971207               0.000000000              -0.406818266               0.150276966               0.000000000              -0.430113700               0.159582724               0.000000000              -0.453409133               0.168888483               0.000000000              -0.476704567               0.178194241               0.000000000              -0.500000000               0.187500000               0.000000000              -0.122875978               0.050896897               0.000000000              -0.146446229               0.063340840               0.000000000              -0.170016481               0.075784784               0.000000000              -0.193586732               0.088228728               0.000000000              -0.217156983               0.100672672               0.000000000              -0.240727235               0.113116616               0.000000000              -0.264297486               0.125560560               0.000000000              -0.287867738               0.138004504               0.000000000              -0.311437989               0.150448448               0.000000000              -0.335008240               0.162892392               0.000000000              -0.358578492               0.175336336               0.000000000              -0.382148743               0.187780280               0.000000000              -0.405718994               0.200224224               0.000000000              -0.429289246               0.212668168               0.000000000              -0.452859497               0.225112112               0.000000000              -0.476429749               0.237556056               0.000000000              -0.500000000               0.250000000               0.000000000              -0.117295528               0.062695766               0.000000000              -0.141214558               0.078308531               0.000000000              -0.165133587               0.093921295               0.000000000              -0.189052617               0.109534060               0.000000000              -0.212971646               0.125146824               0.000000000              -0.236890676               0.140759589               0.000000000              -0.260809705               0.156372354               0.000000000              -0.284728735               0.171985118               0.000000000              -0.308647764               0.187597883               0.000000000              -0.332566794               0.203210648               0.000000000              -0.356485823               0.218823412               0.000000000              -0.380404853               0.234436177               0.000000000              -0.404323882               0.250048941               0.000000000              -0.428242912               0.265661706               0.000000000              -0.452161941               0.281274471               0.000000000              -0.476080971               0.296887235               0.000000000              -0.500000000               0.312500000               0.000000000              -0.110585458               0.073890841               0.000000000              -0.134923867               0.092710163               0.000000000              -0.159262276               0.111529486               0.000000000              -0.183600685               0.130348808               0.000000000              -0.207939094               0.149168131               0.000000000              -0.232277503               0.167987453               0.000000000              -0.256615912               0.186806776               0.000000000              -0.280954320               0.205626098               0.000000000              -0.305292729               0.224445420               0.000000000              -0.329631138               0.243264743               0.000000000              -0.353969547               0.262084065               0.000000000              -0.378307956               0.280903388               0.000000000              -0.402646365               0.299722710               0.000000000              -0.426984773               0.318542033               0.000000000              -0.451323182               0.337361355               0.000000000              -0.475661591               0.356180678               0.000000000              -0.500000000               0.375000000               0.000000000              -0.102810390               0.084374307               0.000000000              -0.127634741               0.106444663               0.000000000              -0.152459092               0.128515018               0.000000000              -0.177283442               0.150585374               0.000000000              -0.202107793               0.172655730               0.000000000              -0.226932143               0.194726086               0.000000000              -0.251756494               0.216796442               0.000000000              -0.276580845               0.238866798               0.000000000              -0.301405195               0.260937153               0.000000000              -0.326229546               0.283007509               0.000000000              -0.351053896               0.305077865               0.000000000              -0.375878247               0.327148221               0.000000000              -0.400702598               0.349218577               0.000000000              -0.425526948               0.371288933               0.000000000              -0.450351299               0.393359288               0.000000000              -0.475175649               0.415429644               0.000000000              -0.500000000               0.437500000               0.000000000              -0.094045202               0.094045202               0.000000000              -0.119417377               0.119417377               0.000000000              -0.144789552               0.144789552               0.000000000              -0.170161727               0.170161727               0.000000000              -0.195533901               0.195533901               0.000000000              -0.220906076               0.220906076               0.000000000              -0.246278251               0.246278251               0.000000000              -0.271650426               0.271650426               0.000000000              -0.297022601               0.297022601               0.000000000              -0.322394776               0.322394776               0.000000000              -0.347766951               0.347766951               0.000000000              -0.373139126               0.373139126               0.000000000              -0.398511300               0.398511300               0.000000000              -0.423883475               0.423883475               0.000000000              -0.449255650               0.449255650               0.000000000              -0.474627825               0.474627825               0.000000000              -0.500000000               0.500000000               0.000000000              -0.084374307               0.102810390               0.000000000              -0.106444663               0.127634741               0.000000000              -0.128515018               0.152459092               0.000000000              -0.150585374               0.177283442               0.000000000              -0.172655730               0.202107793               0.000000000              -0.194726086               0.226932143               0.000000000              -0.216796442               0.251756494               0.000000000              -0.238866798               0.276580845               0.000000000              -0.260937153               0.301405195               0.000000000              -0.283007509               0.326229546               0.000000000              -0.305077865               0.351053896               0.000000000              -0.327148221               0.375878247               0.000000000              -0.349218577               0.400702598               0.000000000              -0.371288933               0.425526948               0.000000000              -0.393359288               0.450351299               0.000000000              -0.415429644               0.475175649               0.000000000              -0.437500000               0.500000000               0.000000000              -0.073890841               0.110585458               0.000000000              -0.092710163               0.134923867               0.000000000              -0.111529486               0.159262276               0.000000000              -0.130348808               0.183600685               0.000000000              -0.149168131               0.207939094               0.000000000              -0.167987453               0.232277503               0.000000000              -0.186806776               0.256615912               0.000000000              -0.205626098               0.280954320               0.000000000              -0.224445420               0.305292729               0.000000000              -0.243264743               0.329631138               0.000000000              -0.262084065               0.353969547               0.000000000              -0.280903388               0.378307956               0.000000000              -0.299722710               0.402646365               0.000000000              -0.318542033               0.426984773               0.000000000              -0.337361355               0.451323182               0.000000000              -0.356180678               0.475661591               0.000000000              -0.375000000               0.500000000               0.000000000              -0.062695766               0.117295528               0.000000000              -0.078308531               0.141214558               0.000000000              -0.093921295               0.165133587               0.000000000              -0.109534060               0.189052617               0.000000000              -0.125146824               0.212971646               0.000000000              -0.140759589               0.236890676               0.000000000              -0.156372354               0.260809705               0.000000000              -0.171985118               0.284728735               0.000000000              -0.187597883               0.308647764               0.000000000              -0.203210648               0.332566794               0.000000000              -0.218823412               0.356485823               0.000000000              -0.234436177               0.380404853               0.000000000              -0.250048941               0.404323882               0.000000000              -0.265661706               0.428242912               0.000000000              -0.281274471               0.452161941               0.000000000              -0.296887235               0.476080971               0.000000000              -0.312500000               0.500000000               0.000000000              -0.050896897               0.122875978               0.000000000              -0.063340840               0.146446229               0.000000000              -0.075784784               0.170016481               0.000000000              -0.088228728               0.193586732               0.000000000              -0.100672672               0.217156983               0.000000000              -0.113116616               0.240727235               0.000000000              -0.125560560               0.264297486               0.000000000              -0.138004504               0.287867738               0.000000000              -0.150448448               0.311437989               0.000000000              -0.162892392               0.335008240               0.000000000              -0.175336336               0.358578492               0.000000000              -0.187780280               0.382148743               0.000000000              -0.200224224               0.405718994               0.000000000              -0.212668168               0.429289246               0.000000000              -0.225112112               0.452859497               0.000000000              -0.237556056               0.476429749               0.000000000              -0.250000000               0.500000000               0.000000000              -0.038607862               0.127273065               0.000000000              -0.047913621               0.150568498               0.000000000              -0.057219379               0.173863932               0.000000000              -0.066525138               0.197159365               0.000000000              -0.075830897               0.220454798               0.000000000              -0.085136655               0.243750232               0.000000000              -0.094442414               0.267045665               0.000000000              -0.103748172               0.290341099               0.000000000              -0.113053931               0.313636532               0.000000000              -0.122359690               0.336931966               0.000000000              -0.131665448               0.360227399               0.000000000              -0.140971207               0.383522833               0.000000000              -0.150276966               0.406818266               0.000000000              -0.159582724               0.430113700               0.000000000              -0.168888483               0.453409133               0.000000000              -0.178194241               0.476704567               0.000000000              -0.187500000               0.500000000               0.000000000              -0.025947013               0.130444442               0.000000000              -0.032137825               0.153541665               0.000000000              -0.038328636               0.176638887               0.000000000              -0.044519448               0.199736109               0.000000000              -0.050710260               0.222833332               0.000000000              -0.056901071               0.245930554               0.000000000              -0.063091883               0.269027776               0.000000000              -0.069282695               0.292124999               0.000000000              -0.075473506               0.315222221               0.000000000              -0.081664318               0.338319444               0.000000000              -0.087855130               0.361416666               0.000000000              -0.094045942               0.384513888               0.000000000              -0.100236753               0.407611111               0.000000000              -0.106427565               0.430708333               0.000000000              -0.112618377               0.453805555               0.000000000              -0.118809188               0.476902778               0.000000000              -0.125000000               0.500000000               0.000000000              -0.013036280               0.132359569               0.000000000              -0.016127762               0.155337096               0.000000000              -0.019219245               0.178314623               0.000000000              -0.022310727               0.201292150               0.000000000              -0.025402210               0.224269676               0.000000000              -0.028493692               0.247247203               0.000000000              -0.031585175               0.270224730               0.000000000              -0.034676657               0.293202257               0.000000000              -0.037768140               0.316179784               0.000000000              -0.040859622               0.339157311               0.000000000              -0.043951105               0.362134838               0.000000000              -0.047042587               0.385112365               0.000000000              -0.050134070               0.408089892               0.000000000              -0.053225552               0.431067419               0.000000000              -0.056317035               0.454044946               0.000000000              -0.059408517               0.477022473               0.000000000              -0.062500000               0.500000000               0.000000000               0.000000000               0.133000000               0.000000000               0.000000000               0.155937500               0.000000000               0.000000000               0.178875000               0.000000000               0.000000000               0.201812500               0.000000000               0.000000000               0.224750000               0.000000000               0.000000000               0.247687500               0.000000000               0.000000000               0.270625000               0.000000000               0.000000000               0.293562500               0.000000000               0.000000000               0.316500000               0.000000000               0.000000000               0.339437500               0.000000000               0.000000000               0.362375000               0.000000000               0.000000000               0.385312500               0.000000000               0.000000000               0.408250000               0.000000000               0.000000000               0.431187500               0.000000000               0.000000000               0.454125000               0.000000000               0.000000000               0.477062500               0.000000000               0.000000000               0.500000000               0.000000000 </DataArray>
</Points>
<Cells>
<DataArray type="Int32"                                    Name="connectivity"                                                      NumberOfComponents=" 1" format="ascii">
         0          1         18         17          1          2         19         18          2          3         20         19          3          4         21         20          4          5         22         21          5          6         23         22          6          7         24         23          7          8         25         24          8          9         26         25          9         10         27         26         10         11         28         27         11         12         29         28         12         13         30         29         13         14         31         30         14         15         32         31         15         16         33         32         17         18         35         34         18         19         36         35         19         20         37         36         20         21         38         37         21         22         39         38         22         23         40         39         23         24         41         40         24         25         42         41         25         26         43         42         26         27         44         43         27         28         45         44         28         29         46         45         29         30         47         46         30         31         48         47         31         32         49         48         32         33         50         49         34         35         52         51         35         36         53         52         36         37         54         53         37         38         55         54         38         39         56         55         39         40         57         56         40         41         58         57         41         42         59         58         42         43         60         59         43         44         61         60         44         45         62         61         45         46         63         62         46         47         64         63         47         48         65         64         48         49         66         65         49         50         67         66         51         52         69         68         52         53         70         69         53         54         71         70         54         55         72         71         55         56         73         72         56         57         74         73         57         58         75         74         58         59         76         75         59         60         77         76         60         61         78         77         61         62         79         78         62         63         80         79         63         64         81         80         64         65         82         81         65         66         83         82         66         67         84         83         68         69         86         85         69         70         87         86         70         71         88         87         71         72         89         88         72         73         90         89         73         74         91         90         74         75         92         91         75         76         93         92         76         77         94         93         77         78         95         94         78         79         96         95         79         80         97         96         80         81         98         97         81         82         99         98         82         83        100         99         83         84        101        100         85         86        103        102         86         87        104        103         87         88        105        104         88         89        106        105         89         90        107        106         90         91        108        107         91         92        109        108         92         93        110        109         93         94        111        110         94         95        112        111         95         96        113        112         96         97        114        113         97         98        115        114         98         99        116        115         99        100        117        116        100        101        118        117        102        103        120        119        103        104        121        120        104        105        122        121        105        106        123        122        106        107        124        123        107        108        125        124        108        109        126        125        109        110        127        126        110        111        128        127        111        112        129        128        112        113        130        129        113        114        131        130        114        115        132        131        115        116        133        132        116        117        134        133        117        118        135        134        119        120        137        136        120        121        138        137        121        122        139        138        122        123        140        139        123        124        141        140        124        125        142        141        125        126        143        142        126        127        144        143        127        128        145        144        128        129        146        145        129        130        147        146        130        131        148        147        131        132        149        148        132        133        150        149        133        134        151        150        134        135        152        151        136        137        154        153        137        138        155        154        138        139        156        155        139        140        157        156        140        141        158        157        141        142        159        158        142        143        160        159        143        144        161        160        144        145        162        161        145        146        163        162        146        147        164        163        147        148        165        164        148        149        166        165        149        150        167        166        150        151        168        167        151        152        169        168        153        154        171        170        154        155        172        171        155        156        173        172        156        157        174        173        157        158        175        174        158        159        176        175        159        160        177        176        160        161        178        177        161        162        179        178        162        163        180        179        163        164        181        180        164        165        182        181        165        166        183        182        166        167        184        183        167        168        185        184        168        169        186        185        170        171        188        187        171        172        189        188        172        173        190        189        173        174        191        190        174        175        192        191        175        176        193        192        176        177        194        193        177        178        195        194        178        179        196        195        179        180        197        196        180        181        198        197        181        182        199        198        182        183        200        199        183        184        201        200        184        185        202        201        185        186        203        202        187        188        205        204        188        189        206        205        189        190        207        206        190        191        208        207        191        192        209        208        192        193        210        209        193        194        211        210        194        195        212        211        195        196        213        212        196        197        214        213        197        198        215        214        198        199        216        215        199        200        217        216        200        201        218        217        201        202        219        218        202        203        220        219        204        205        222        221        205        206        223        222        206        207        224        223        207        208        225        224        208        209        226        225        209        210        227        226        210        211        228        227        211        212        229        228        212        213        230        229        213        214        231        230        214        215        232        231        215        216        233        232        216        217        234        233        217        218        235        234        218        219        236        235        219        220        237        236        221        222        239        238        222        223        240        239        223        224        241        240        224        225        242        241        225        226        243        242        226        227        244        243        227        228        245        244        228        229        246        245        229        230        247        246        230        231        248        247        231        232        249        248        232        233        250        249        233        234        251        250        234        235        252        251        235        236        253        252        236        237        254        253        238        239        256        255        239        240        257        256        240        241        258        257        241        242        259        258        242        243        260        259        243        244        261        260        244        245        262        261        245        246        263        262        246        247        264        263        247        248        265        264        248        249        266        265        249        250        267        266        250        251        268        267        251        252        269        268        252        253        270        269        253        254        271        270        255        256        273        272        256        257        274        273        257        258        275        274        258        259        276        275        259        260        277        276        260        261        278        277        261        262        279        278        262        263        280        279        263        264        281        280        264        265        282        281        265        266        283        282        266        267        284        283        267        268        285        284        268        269        286        285        269        270        287        286        270        271        288        287        306        307          1          0        307        308          2          1        308        309          3          2        309        310          4          3        310        311          5          4        311        312          6          5        312        313          7          6        313        314          8          7        314        315          9          8        315        316         10          9        316        317         11         10        317        318         12         11        318        319         13         12        319        320         14         13        320        321         15         14        321        322         16         15        323        324        307        306        324        325        308        307        325        326        309        308        326        327        310        309        327        328        311        310        328        329        312        311        329        330        313        312        330        331        314        313        331        332        315        314        332        333        316        315        333        334        317        316        334        335        318        317        335        336        319        318        336        337        320        319        337        338        321        320        338        339        322        321        340        341        324        323        341        342        325        324        342        343        326        325        343        344        327        326        344        345        328        327        345        346        329        328        346        347        330        329        347        348        331        330        348        349        332        331        349        350        333        332        350        351        334        333        351        352        335        334        352        353        336        335        353        354        337        336        354        355        338        337        355        356        339        338        357        358        341        340        358        359        342        341        359        360        343        342        360        361        344        343        361        362        345        344        362        363        346        345        363        364        347        346        364        365        348        347        365        366        349        348        366        367        350        349        367        368        351        350        368        369        352        351        369        370        353        352        370        371        354        353        371        372        355        354        372        373        356        355        374        375        358        357        375        376        359        358        376        377        360        359        377        378        361        360        378        379        362        361        379        380        363        362        380        381        364        363        381        382        365        364        382        383        366        365        383        384        367        366        384        385        368        367        385        386        369        368        386        387        370        369        387        388        371        370        388        389        372        371        389        390        373        372        391        392        375        374        392        393        376        375        393        394        377        376        394        395        378        377        395        396        379        378        396        397        380        379        397        398        381        380        398        399        382        381        399        400        383        382        400        401        384        383        401        402        385        384        402        403        386        385        403        404        387        386        404        405        388        387        405        406        389        388        406        407        390        389        408        409        392        391        409        410        393        392        410        411        394        393        411        412        395        394        412        413        396        395        413        414        397        396        414        415        398        397        415        416        399        398        416        417        400        399        417        418        401        400        418        419        402        401        419        420        403        402        420        421        404        403        421        422        405        404        422        423        406        405        423        424        407        406        425        426        409        408        426        427        410        409        427        428        411        410        428        429        412        411        429        430        413        412        430        431        414        413        431        432        415        414        432        433        416        415        433        434        417        416        434        435        418        417        435        436        419        418        436        437        420        419        437        438        421        420        438        439        422        421        439        440        423        422        440        441        424        423        442        443        426        425        443        444        427        426        444        445        428        427        445        446        429        428        446        447        430        429        447        448        431        430        448        449        432        431        449        450        433        432        450        451        434        433        451        452        435        434        452        453        436        435        453        454        437        436        454        455        438        437        455        456        439        438        456        457        440        439        457        458        441        440        459        460        443        442        460        461        444        443        461        462        445        444        462        463        446        445        463        464        447        446        464        465        448        447        465        466        449        448        466        467        450        449        467        468        451        450        468        469        452        451        469        470        453        452        470        471        454        453        471        472        455        454        472        473        456        455        473        474        457        456        474        475        458        457        476        477        460        459        477        478        461        460        478        479        462        461        479        480        463        462        480        481        464        463        481        482        465        464        482        483        466        465        483        484        467        466        484        485        468        467        485        486        469        468        486        487        470        469        487        488        471        470        488        489        472        471        489        490        473        472        490        491        474        473        491        492        475        474        493        494        477        476        494        495        478        477        495        496        479        478        496        497        480        479        497        498        481        480        498        499        482        481        499        500        483        482        500        501        484        483        501        502        485        484        502        503        486        485        503        504        487        486        504        505        488        487        505        506        489        488        506        507        490        489        507        508        491        490        508        509        492        491        510        511        494        493        511        512        495        494        512        513        496        495        513        514        497        496        514        515        498        497        515        516        499        498        516        517        500        499        517        518        501        500        518        519        502        501        519        520        503        502        520        521        504        503        521        522        505        504        522        523        506        505        523        524        507        506        524        525        508        507        525        526        509        508        527        528        511        510        528        529        512        511        529        530        513        512        530        531        514        513        531        532        515        514        532        533        516        515        533        534        517        516        534        535        518        517        535        536        519        518        536        537        520        519        537        538        521        520        538        539        522        521        539        540        523        522        540        541        524        523        541        542        525        524        542        543        526        525        544        545        528        527        545        546        529        528        546        547        530        529        547        548        531        530        548        549        532        531        549        550        533        532        550        551        534        533        551        552        535        534        552        553        536        535        553        554        537        536        554        555        538        537        555        556        539        538        556        557        540        539        557        558        541        540        558        559        542        541        559        560        543        542        561        562        545        544        562        563        546        545        563        564        547        546        564        565        548        547        565        566        549        548        566        567        550        549        567        568        551        550        568        569        552        551        569        570        553        552        570        571        554        553        571        572        555        554        572        573        556        555        573        574        557        556        574        575        558        557        575        576        559        558        576        577        560        559        578        579        596        595        579        580        597        596        580        581        598        597        581        582        599        598        582        583        600        599        583        584        601        600        584        585        602        601        585        586        603        602        586        587        604        603        587        588        605        604        588        589        606        605        589        590        607        606        590        591        608        607        591        592        609        608        592        593        610        609        593        594        611        610        595        596        613        612        596        597        614        613        597        598        615        614        598        599        616        615        599        600        617        616        600        601        618        617        601        602        619        618        602        603        620        619        603        604        621        620        604        605        622        621        605        606        623        622        606        607        624        623        607        608        625        624        608        609        626        625        609        610        627        626        610        611        628        627        612        613        630        629        613        614        631        630        614        615        632        631        615        616        633        632        616        617        634        633        617        618        635        634        618        619        636        635        619        620        637        636        620        621        638        637        621        622        639        638        622        623        640        639        623        624        641        640        624        625        642        641        625        626        643        642        626        627        644        643        627        628        645        644        629        630        647        646        630        631        648        647        631        632        649        648        632        633        650        649        633        634        651        650        634        635        652        651        635        636        653        652        636        637        654        653        637        638        655        654        638        639        656        655        639        640        657        656        640        641        658        657        641        642        659        658        642        643        660        659        643        644        661        660        644        645        662        661        646        647        664        663        647        648        665        664        648        649        666        665        649        650        667        666        650        651        668        667        651        652        669        668        652        653        670        669        653        654        671        670        654        655        672        671        655        656        673        672        656        657        674        673        657        658        675        674        658        659        676        675        659        660        677        676        660        661        678        677        661        662        679        678        663        664        681        680        664        665        682        681        665        666        683        682        666        667        684        683        667        668        685        684        668        669        686        685        669        670        687        686        670        671        688        687        671        672        689        688        672        673        690        689        673        674        691        690        674        675        692        691        675        676        693        692        676        677        694        693        677        678        695        694        678        679        696        695        680        681        698        697        681        682        699        698        682        683        700        699        683        684        701        700        684        685        702        701        685        686        703        702        686        687        704        703        687        688        705        704        688        689        706        705        689        690        707        706        690        691        708        707        691        692        709        708        692        693        710        709        693        694        711        710        694        695        712        711        695        696        713        712        697        698        715        714        698        699        716        715        699        700        717        716        700        701        718        717        701        702        719        718        702        703        720        719        703        704        721        720        704        705        722        721        705        706        723        722        706        707        724        723        707        708        725        724        708        709        726        725        709        710        727        726        710        711        728        727        711        712        729        728        712        713        730        729        714        715        732        731        715        716        733        732        716        717        734        733        717        718        735        734        718        719        736        735        719        720        737        736        720        721        738        737        721        722        739        738        722        723        740        739        723        724        741        740        724        725        742        741        725        726        743        742        726        727        744        743        727        728        745        744        728        729        746        745        729        730        747        746        731        732        749        748        732        733        750        749        733        734        751        750        734        735        752        751        735        736        753        752        736        737        754        753        737        738        755        754        738        739        756        755        739        740        757        756        740        741        758        757        741        742        759        758        742        743        760        759        743        744        761        760        744        745        762        761        745        746        763        762        746        747        764        763        748        749        766        765        749        750        767        766        750        751        768        767        751        752        769        768        752        753        770        769        753        754        771        770        754        755        772        771        755        756        773        772        756        757        774        773        757        758        775        774        758        759        776        775        759        760        777        776        760        761        778        777        761        762        779        778        762        763        780        779        763        764        781        780        765        766        783        782        766        767        784        783        767        768        785        784        768        769        786        785        769        770        787        786        770        771        788        787        771        772        789        788        772        773        790        789        773        774        791        790        774        775        792        791        775        776        793        792        776        777        794        793        777        778        795        794        778        779        796        795        779        780        797        796        780        781        798        797        782        783        800        799        783        784        801        800        784        785        802        801        785        786        803        802        786        787        804        803        787        788        805        804        788        789        806        805        789        790        807        806        790        791        808        807        791        792        809        808        792        793        810        809        793        794        811        810        794        795        812        811        795        796        813        812        796        797        814        813        797        798        815        814        799        800        817        816        800        801        818        817        801        802        819        818        802        803        820        819        803        804        821        820        804        805        822        821        805        806        823        822        806        807        824        823        807        808        825        824        808        809        826        825        809        810        827        826        810        811        828        827        811        812        829        828        812        813        830        829        813        814        831        830        814        815        832        831        816        817        834        833        817        818        835        834        818        819        836        835        819        820        837        836        820        821        838        837        821        822        839        838        822        823        840        839        823        824        841        840        824        825        842        841        825        826        843        842        826        827        844        843        827        828        845        844        828        829        846        845        829        830        847        846        830        831        848        847        831        832        849        848        833        834        562        561        834        835        563        562        835        836        564        563        836        837        565        564        837        838        566        565        838        839        567        566        839        840        568        567        840        841        569        568        841        842        570        569        842        843        571        570        843        844        572        571        844        845        573        572        845        846        574        573        846        847        575        574        847        848        576        575        848        849        577        576        884        885        579        578        885        886        580        579        886        887        581        580        887        888        582        581        888        889        583        582        889        890        584        583        890        891        585        584        891        892        586        585        892        893        587        586        893        894        588        587        894        895        589        588        895        896        590        589        896        897        591        590        897        898        592        591        898        899        593        592        899        900        594        593        901        902        885        884        902        903        886        885        903        904        887        886        904        905        888        887        905        906        889        888        906        907        890        889        907        908        891        890        908        909        892        891        909        910        893        892        910        911        894        893        911        912        895        894        912        913        896        895        913        914        897        896        914        915        898        897        915        916        899        898        916        917        900        899        918        919        902        901        919        920        903        902        920        921        904        903        921        922        905        904        922        923        906        905        923        924        907        906        924        925        908        907        925        926        909        908        926        927        910        909        927        928        911        910        928        929        912        911        929        930        913        912        930        931        914        913        931        932        915        914        932        933        916        915        933        934        917        916        935        936        919        918        936        937        920        919        937        938        921        920        938        939        922        921        939        940        923        922        940        941        924        923        941        942        925        924        942        943        926        925        943        944        927        926        944        945        928        927        945        946        929        928        946        947        930        929        947        948        931        930        948        949        932        931        949        950        933        932        950        951        934        933        952        953        936        935        953        954        937        936        954        955        938        937        955        956        939        938        956        957        940        939        957        958        941        940        958        959        942        941        959        960        943        942        960        961        944        943        961        962        945        944        962        963        946        945        963        964        947        946        964        965        948        947        965        966        949        948        966        967        950        949        967        968        951        950        969        970        953        952        970        971        954        953        971        972        955        954        972        973        956        955        973        974        957        956        974        975        958        957        975        976        959        958        976        977        960        959        977        978        961        960        978        979        962        961        979        980        963        962        980        981        964        963        981        982        965        964        982        983        966        965        983        984        967        966        984        985        968        967        986        987        970        969        987        988        971        970        988        989        972        971        989        990        973        972        990        991        974        973        991        992        975        974        992        993        976        975        993        994        977        976        994        995        978        977        995        996        979        978        996        997        980        979        997        998        981        980        998        999        982        981        999       1000        983        982       1000       1001        984        983       1001       1002        985        984       1003       1004        987        986       1004       1005        988        987       1005       1006        989        988       1006       1007        990        989       1007       1008        991        990       1008       1009        992        991       1009       1010        993        992       1010       1011        994        993       1011       1012        995        994       1012       1013        996        995       1013       1014        997        996       1014       1015        998        997       1015       1016        999        998       1016       1017       1000        999       1017       1018       1001       1000       1018       1019       1002       1001       1020       1021       1004       1003       1021       1022       1005       1004       1022       1023       1006       1005       1023       1024       1007       1006       1024       1025       1008       1007       1025       1026       1009       1008       1026       1027       1010       1009       1027       1028       1011       1010       1028       1029       1012       1011       1029       1030       1013       1012       1030       1031       1014       1013       1031       1032       1015       1014       1032       1033       1016       1015       1033       1034       1017       1016       1034       1035       1018       1017       1035       1036       1019       1018       1037       1038       1021       1020       1038       1039       1022       1021       1039       1040       1023       1022       1040       1041       1024       1023       1041       1042       1025       1024       1042       1043       1026       1025       1043       1044       1027       1026       1044       1045       1028       1027       1045       1046       1029       1028       1046       1047       1030       1029       1047       1048       1031       1030       1048       1049       1032       1031       1049       1050       1033       1032       1050       1051       1034       1033       1051       1052       1035       1034       1052       1053       1036       1035       1054       1055       1038       1037       1055       1056       1039       1038       1056       1057       1040       1039       1057       1058       1041       1040       1058       1059       1042       1041       1059       1060       1043       1042       1060       1061       1044       1043       1061       1062       1045       1044       1062       1063       1046       1045       1063       1064       1047       1046       1064       1065       1048       1047       1065       1066       1049       1048       1066       1067       1050       1049       1067       1068       1051       1050       1068       1069       1052       1051       1069       1070       1053       1052       1071       1072       1055       1054       1072       1073       1056       1055       1073       1074       1057       1056       1074       1075       1058       1057       1075       1076       1059       1058       1076       1077       1060       1059       1077       1078       1061       1060       1078       1079       1062       1061       1079       1080       1063       1062       1080       1081       1064       1063       1081       1082       1065       1064       1082       1083       1066       1065       1083       1084       1067       1066       1084       1085       1068       1067       1085       1086       1069       1068       1086       1087       1070       1069       1088       1089       1072       1071       1089       1090       1073       1072       1090       1091       1074       1073       1091       1092       1075       1074       1092       1093       1076       1075       1093       1094       1077       1076       1094       1095       1078       1077       1095       1096       1079       1078       1096       1097       1080       1079       1097       1098       1081       1080       1098       1099       1082       1081       1099       1100       1083       1082       1100       1101       1084       1083       1101       1102       1085       1084       1102       1103       1086       1085       1103       1104       1087       1086       1105       1106       1089       1088       1106       1107       1090       1089       1107       1108       1091       1090       1108       1109       1092       1091       1109       1110       1093       1092       1110       1111       1094       1093       1111       1112       1095       1094       1112       1113       1096       1095       1113       1114       1097       1096       1114       1115       1098       1097       1115       1116       1099       1098       1116       1117       1100       1099       1117       1118       1101       1100       1118       1119       1102       1101       1119       1120       1103       1102       1120       1121       1104       1103       1122       1123       1106       1105       1123       1124       1107       1106       1124       1125       1108       1107       1125       1126       1109       1108       1126       1127       1110       1109       1127       1128       1111       1110       1128       1129       1112       1111       1129       1130       1113       1112       1130       1131       1114       1113       1131       1132       1115       1114       1132       1133       1116       1115       1133       1134       1117       1116       1134       1135       1118       1117       1135       1136       1119       1118       1136       1137       1120       1119       1137       1138       1121       1120        272        273       1123       1122        273        274       1124       1123        274        275       1125       1124        275        276       1126       1125        276        277       1127       1126        277        278       1128       1127        278        279       1129       1128        279        280       1130       1129        280        281       1131       1130        281        282       1132       1131        282        283       1133       1132        283        284       1134       1133        284        285       1135       1134        285        286       1136       1135        286        287       1137       1136        287        288       1138       1137 </DataArray>
<DataArray type="Int32"                                    Name="offsets"                                                      NumberOfComponents=" 1" format="ascii">
         4          8         12         16         20         24         28         32         36         40         44         48         52         56         60         64         68         72         76         80         84         88         92         96        100        104        108        112        116        120        124        128        132        136        140        144        148        152        156        160        164        168        172        176        180        184        188        192        196        200        204        208        212        216        220        224        228        232        236        240        244        248        252        256        260        264        268        272        276        280        284        288        292        296        300        304        308        312        316        320        324        328        332        336        340        344        348        352        356        360        364        368        372        376        380        384        388        392        396        400        404        408        412        416        420        424        428        432        436        440        444        448        452        456        460        464        468        472        476        480        484        488        492        496        500        504        508        512        516        520        524        528        532        536        540        544        548        552        556        560        564        568        572        576        580        584        588        592        596        600        604        608        612        616        620        624        628        632        636        640        644        648        652        656        660        664        668        672        676        680        684        688        692        696        700        704        708        712        716        720        724        728        732        736        740        744        748        752        756        760        764        768        772        776        780        784        788        792        796        800        804        808        812        816        820        824        828        832        836        840        844        848        852        856        860        864        868        872        876        880        884        888        892        896        900        904        908        912        916        920        924        928        932        936        940        944        948        952        956        960        964        968        972        976        980        984        988        992        996       1000       1004       1008       1012       1016       1020       1024       1028       1032       1036       1040       1044       1048       1052       1056       1060       1064       1068       1072       1076       1080       1084       1088       1092       1096       1100       1104       1108       1112       1116       1120       1124       1128       1132       1136       1140       1144       1148       1152       1156       1160       1164       1168       1172       1176       1180       1184       1188       1192       1196       1200       1204       1208       1212       1216       1220       1224       1228       1232       1236       1240       1244       1248       1252       1256       1260       1264       1268       1272       1276       1280       1284       1288       1292       1296       1300       1304       1308       1312       1316       1320       1324       1328       1332       1336       1340       1344       1348       1352       1356       1360       1364       1368       1372       1376       1380       1384       1388       1392       1396       1400       1404       1408       1412       1416       1420       1424       1428       1432       1436       1440       1444       1448       1452       1456       1460       1464       1468       1472       1476       1480       1484       1488       1492       1496       1500       1504       1508       1512       1516       1520       1524       1528       1532       1536       1540       1544       1548       1552       1556       1560       1564       1568       1572       1576       1580       1584       1588       1592       1596       1600       1604       1608       1612       1616       1620       1624       1628       1632       1636       1640       1644       1648       1652       1656       1660       1664       1668       1672       1676       1680       1684       1688       1692       1696       1700       1704       1708       1712       1716       1720       1724       1728       1732       1736       1740       1744       1748       1752       1756       1760       1764       1768       1772       1776       1780       1784       1788       1792       1796       1800       1804       1808       1812       1816       1820       1824       1828       1832       1836       1840       1844       1848       1852       1856       1860       1864       1868       1872       1876       1880       1884       1888       1892       1896       1900       1904       1908       1912       1916       1920       1924       1928       1932       1936       1940       1944       1948       1952       1956       1960       1964       1968       1972       1976       1980       1984       1988       1992       1996       2000       2004       2008       2012       2016       2020       2024       2028       2032       2036       2040       2044       2048       2052       2056       2060       2064       2068       2072       2076       2080       2084       2088       2092       2096       2100       2104       2108       2112       2116       2120       2124       2128       2132       2136       2140       2144       2148       2152       2156       2160       2164       2168       2172       2176       2180       2184       2188       2192       2196       2200       2204       2208       2212       2216       2220       2224       2228       2232       2236       2240       2244       2248       2252       2256       2260       2264       2268       2272       2276       2280       2284       2288       2292       2296       2300       2304       2308       2312       2316       2320       2324       2328       2332       2336       2340       2344       2348       2352       2356       2360       2364       2368       2372       2376       2380       2384       2388       2392       2396       2400       2404       2408       2412       2416       2420       2424       2428       2432       2436       2440       2444       2448       2452       2456       2460       2464       2468       2472       2476       2480       2484       2488       2492       2496       2500       2504       2508       2512       2516       2520       2524       2528       2532       2536       2540       2544       2548       2552       2556       2560       2564       2568       2572       2576       2580       2584       2588       2592       2596       2600       2604       2608       2612       2616       2620       2624       2628       2632       2636       2640       2644       2648       2652       2656       2660       2664       2668       2672       2676       2680       2684       2688       2692       2696       2700       2704       2708       2712       2716       2720       2724       2728       2732       2736       2740       2744       2748       2752       2756       2760       2764       2768       2772       2776       2780       2784       2788       2792       2796       2800       2804       2808       2812       2816       2820       2824       2828       2832       2836       2840       2844       2848       2852       2856       2860       2864       2868       2872       2876       2880       2884       2888       2892       2896       2900       2904       2908       2912       2916       2920       2924       2928       2932       2936       2940       2944       2948       2952       2956       2960       2964       2968       2972       2976       2980       2984       2988       2992       2996       3000       3004       3008       3012       3016       3020       3024       3028       3032       3036       3040       3044       3048       3052       3056       3060       3064       3068       3072       3076       3080       3084       3088       3092       3096       3100       3104       3108       3112       3116       3120       3124       3128       3132       3136       3140       3144       3148       3152       3156       3160       3164       3168       3172       3176       3180       3184       3188       3192       3196       3200       3204       3208       3212       3216       3220       3224       3228       3232       3236       3240       3244       3248       3252       3256       3260       3264       3268       3272       3276       3280       3284       3288       3292       3296       3300       3304       3308       3312       3316       3320       3324       3328       3332       3336       3340       3344       3348       3352       3356       3360       3364       3368       3372       3376       3380       3384       3388       3392       3396       3400       3404       3408       3412       3416       3420       3424       3428       3432       3436       3440       3444       3448       3452       3456       3460       3464       3468       3472       3476       3480       3484       3488       3492       3496       3500       3504       3508       3512       3516       3520       3524       3528       3532       3536       3540       3544       3548       3552       3556       3560       3564       3568       3572       3576       3580       3584       3588       3592       3596       3600       3604       3608       3612       3616       3620       3624       3628       3632       3636       3640       3644       3648       3652       3656       3660       3664       3668       3672       3676       3680       3684       3688       3692       3696       3700       3704       3708       3712       3716       3720       3724       3728       3732       3736       3740       3744       3748       3752       3756       3760       3764       3768       3772       3776       3780       3784       3788       3792       3796       3800       3804       3808       3812       3816       3820       3824       3828       3832       3836       3840       3844       3848       3852       3856       3860       3864       3868       3872       3876       3880       3884       3888       3892       3896       3900       3904       3908       3912       3916       3920       3924       3928       3932       3936       3940       3944       3948       3952       3956       3960       3964       3968       3972       3976       3980       3984       3988       3992       3996       4000       4004       4008       4012       4016       4020       4024       4028       4032       4036       4040       4044       4048       4052       4056       4060       4064       4068       4072       4076       4080       4084       4088       4092       4096 </DataArray>
<DataArray type="UInt8"                                    Name="types"                                                      NumberOfComponents=" 1" format="ascii">
         9          9          9          9          9          9          9          9          9          9          9          9          9          9          9          9          9          9          9          9          9          9          9          9          9          9          9          9          9          9          9          9          9          9          9          9          9          9          9          9          9          9          9          9          9          9          9          9          9          9          9          9          9          9          9          9          9          9          9          9          9          9          9          9          9          9          9          9          9          9          9          9          9          9          9          9          9          9          9          9          9          9          9          9          9          9          9          9          9          9          9          9          9          9          9          9          9          9          9          9          9          9          9          9          9          9          9          9          9          9          9          9          9          9          9          9          9          9          9          9          9          9          9          9          9          9          9          9          9          9          9          9          9          9          9          9          9          9          9          9          9          9          9          9          9          9          9          9          9          9          9          9          9          9          9          9          9          9          9          9          9          9          9          9          9          9          9          9          9          9          9          9          9          9          9          9          9          9          9          9          9          9          9          9          9          9          9          9          9          9          9          9          9          9          9          9          9          9          9          9          9          9          9          9          9          9          9          9          9          9          9          9          9          9          9          9          9          9          9          9          9          9          9          9          9          9          9          9          9          9          9          9          9          9          9          9          9          9          9          9          9          9          9          9          9          9          9          9          9          9          9          9          9          9          9          9          9          9          9          9          9          9          9          9          9          9          9          9          9          9          9          9          9          9          9          9          9          9          9          9          9          9          9          9          9          9          9          9          9          9          9          9          9          9          9          9          9          9          9          9          9          9          9          9          9          9          9          9          9          9          9          9          9          9          9          9          9          9          9          9          9          9          9          9          9          9          9          9          9          9          9          9          9          9          9          9          9          9          9          9          9          9          9          9          9          9          9          9          9          9          9          9          9          9          9          9          9          9          9          9          9          9          9          9          9          9          9          9          9          9          9          9          9          9          9          9          9          9          9          9          9          9          9          9          9          9          9          9          9          9          9          9          9          9          9          9          9          9          9          9          9          9          9          9          9          9          9          9          9          9          9          9          9          9          9          9          9          9          9          9          9          9          9          9          9          9          9          9          9          9          9          9          9          9          9          9          9          9          9          9          9          9          9          9          9          9          9          9          9          9          9          9          9          9          9          9          9          9          9          9          9          9          9          9          9          9          9          9          9          9          9          9          9          9          9          9          9          9          9          9          9          9          9          9          9          9          9          9          9          9          9          9          9          9          9          9          9          9          9          9          9          9          9          9          9          9          9          9          9          9          9          9          9          9          9          9          9          9          9          9          9          9          9          9          9          9          9          9          9          9          9          9          9          9          9          9          9          9          9          9          9          9          9          9          9          9          9          9          9          9          9          9          9          9          9          9          9          9          9          9          9          9          9          9          9          9          9          9          9          9          9          9          9          9          9          9          9          9          9          9          9          9          9          9          9          9          9          9          9          9          9          9          9          9          9          9          9          9          9          9          9          9          9          9          9          9          9          9          9          9          9          9          9          9          9          9          9          9          9          9          9          9          9          9          9          9          9          9          9          9          9          9          9          9          9          9          9          9          9          9          9          9          9          9          9          9          9          9          9          9          9          9          9          9          9          9          9          9          9          9          9          9          9          9          9          9          9          9          9          9          9          9          9          9          9          9          9          9          9          9          9          9          9          9          9          9          9          9          9          9          9          9          9          9          9          9          9          9          9          9          9          9          9          9          9          9          9          9          9          9          9          9          9          9          9          9          9          9          9          9          9          9          9          9          9          9          9          9          9          9          9          9          9          9          9          9          9          9          9          9          9          9          9          9          9          9          9          9          9          9          9          9          9          9          9          9          9          9          9          9          9          9          9          9          9          9          9          9          9          9          9          9          9          9          9          9          9          9          9          9          9          9          9          9          9          9          9          9          9          9          9          9          9          9          9          9          9          9          9          9          9          9          9          9          9          9          9          9          9          9          9          9          9          9          9          9          9          9          9          9          9          9          9          9          9          9          9          9          9          9          9          9          9          9          9          9          9          9          9          9          9          9          9          9          9          9          9          9          9          9          9          9          9          9          9          9          9          9          9          9          9          9          9          9          9          9          9          9          9          9          9          9          9          9          9          9          9          9          9          9          9          9          9          9          9          9          9          9          9          9          9          9          9          9          9          9          9          9          9          9          9          9          9          9          9          9          9          9          9          9          9          9          9          9          9          9          9          9          9          9          9          9          9          9          9          9          9          9          9          9          9          9          9          9          9          9          9          9          9          9          9          9          9          9          9          9          9          9          9          9          9          9          9          9          9          9          9          9          9          9          9          9          9          9          9          9          9          9          9          9          9          9          9          9          9          9          9          9          9          9          9          9          9          9          9          9          9          9          9          9          9          9          9          9          9          9          9          9          9          9          9          9          9          9          9          9          9          9          9          9          9          9          9          9          9          9          9          9          9          9          9          9          9          9 </DataArray>
</Cells>
<CellData>
<DataArray type="Int32"                                    Name="material"                                                      NumberOfComponents=" 1" format="ascii">
         1          1          1          1          1          1          1          1          1          1          1          1          1          1          1          1          1          1          1          1          1          1          1          1          1          1          1          1          1          1          1          1          1          1          1          1          1          1          1          1          1          1          1          1          1          1          1          1          1          1          1          1          1          1          1          1          1          1          1          1          1          1          1          1          1          1          1          1          1          1          1          1          1          1          1          1          1          1          1          1          1          1          1          1          1          1          1          1          1          1          1          1          1          1          1          1          1          1          1          1          1          1          1          1          1          1          1          1          1          1          1          1          1          1          1          1          1          1          1          1          1          1          1          1          1          1          1          1          1          1          1          1          1          1          1          1          1          1          1          1          1          1          1          1          1          1          1          1          1          1          1          1          1          1          1          1          1          1          1          1          1          1          1          1          1          1          1          1          1          1          1          1          1          1          1          1          1          1          1          1          1          1          1          1          1          1          1          1          1          1          1          1          1          1          1          1          1          1          1          1          1          1          1          1          1          1          1          1          1          1          1          1          1          1          1          1          1          1          1          1          1          1          1          1          1          1          1          1          1          1          1          1          1          1          1          1          1          1          1          1          1          1          1          1          1          1          1          1          1          1          1          1          1          1          1          1          1          1          1          1          1          1          1          1          1          1          1          1          1          1          1          1          1          1          1          1          1          1          1          1          1          1          1          1          1          1          1          1          1          1          1          1          1          1          1          1          1          1          1          1          1          1          1          1          1          1          1          1          1          1          1          1          1          1          1          1          1          1          1          1          1          1          1          1          1          1          1          1          1          1          1          1          1          1          1          1          1          1          1          1          1          1          1          1          1          1          1          1          1          1          1          1          1          1          1          1          1          1          1          1          1          1          1          1          1          1          1          1          1          1          1          1          1          1          1          1          1          1          1          1          1          1          1          1          1          1          1          1          1          1          1          1          1          1          1          1          1          1          1          1          1          1          1          1          1          1          1          1          1          1          1          1          1          1          1          1          1          1          1          1          1          1          1          1          1          1          1          1          1          1          1          1          1          1          1          1          1          1          1          1          1          1          1          1          1          1          1          1          1          1          1          1          1          1          1          1          1          1          1          1          1          1          1          1          1          1          1          1          1          1          1          1          1          1          1          1          1          1          1          1          1          1          1          1          1          1          1          1          1          1          1          1          1          1          1          1          1          1          1          1          1          1          1          1          1          1          1          1          1          1          1          1          1          1          1          1          1          1          1          1          1          1          1          1          1          1          1          1          1          1          1          1          1          1          1          1          1          1          1          1          1          1          1          1          1          1          1          1          1          1          1          1          1          1          1          1          1          1          1          1          1          1          1          1          1          1          1          1          1          1          1          1          1          1          1          1          1          1          1          1          1          1          1          1          1          1          1          1          1          1          1          1          1          1          1          1          1          1          1          1          1          1          1          1          1          1          1          1          1          1          1          1          1          1          1          1          1          1          1          1          1          1          1          1          1          1          1          1          1          1          1          1          1          1          1          1          1          1          1          1          1          1          1          1          1          1          1          1          1          1          1          1          1          1          1          1          1          1          1          1          1          1          1          1          1          1          1          1          1          1          1          1          1          1          1          1          1          1          1          1          1          1          1          1          1          1          1          1          1          1          1          1          1          1          1          1          1          1          1          1          1          1          1          1          1          1          1          1          1          1          1          1          1          1          1          1          1          1          1          1          1          1          1          1          1          1          1          1          1          1          1          1          1          1          1          1          1          1          1          1          1          1          1          1          1          1          1          1          1          1          1          1          1          1          1          1          1          1          1          1          1          1          1          1          1          1          1          1          1          1          1          1          1          1          1          1          1          1          1          1          1          1          1          1          1          1          1          1          1          1          1          1          1          1          1          1          1          1          1          1          1          1          1          1          1          1          1          1          1          1          1          1          1          1          1          1          1          1          1          1          1          1          1          1          1          1          1          1          1          1          1          1          1          1          1          1          1          1          1          1          1          1          1          1          1          1          1          1          1          1          1          1          1          1          1          1          1          1          1          1          1          1          1          1          1          1          1          1          1          1          1          1          1          1          1          1          1          1          1          1          1          1          1          1          1          1          1          1          1          1          1          1          1          1          1          1          1          1          1          1          1          1          1          1          1          1          1          1          1          1          1          1          1          1          1          1          1          1          1          1          1          1          1          1          1          1          1          1          1          1          1          1          1          1          1          1          1          1          1          1          1          1          1          1          1          1          1          1          1          1          1          1          1          1          1          1          1          1          1          1          1          1          1          1          1          1          1          1          1          1          1          1          1          1          1          1          1          1          1          1          1          1          1          1          1          1          1          1          1          1          1          1          1          1          1          1          1          1          1          1          1          1          1          1          1          1          1          1          1          1          1          1          1          1          1          1          1          1          1          1          1          1          1          1 </DataArray>
</CellData>
<PointData>
<DataArray type="Float64"                                    Name="u"                                                      NumberOfComponents=" 3" format="ascii">
             -0.000865706              -0.000000000               0.999999985              -0.000916388               0.000000000               0.999999985              -0.000937714              -0.000000000               0.999999985              -0.000949589               0.000000000               0.999999985              -0.000959335               0.000000000               0.999999985              -0.000969759              -0.000000000               0.999999985              -0.000981433               0.000000000               0.999999985              -0.000994380               0.000000000               0.999999985              -0.001008339              -0.000000000               0.999999985              -0.001022898               0.000000000               0.999999985              -0.001037636               0.000000000               0.999999985              -0.001051987               0.000000000               0.999999985              -0.001065555               0.000000000               0.999999985              -0.001077908              -0.000000000               0.999999985              -0.001088605              -0.000000000               0.999999985              -0.001096987               0.000000000               0.999999985              -0.001102267              -0.000000000               0.999999985              -0.000860854               0.000132501               0.999999985              -0.000907359               0.000105702               0.999999985              -0.000926008               0.000093569               0.999999985              -0.000936201               0.000088831               0.999999985              -0.000944772               0.000087841               0.999999985              -0.000954102               0.000088629               0.999999985              -0.000964869               0.000089871               0.999999985              -0.000976906               0.000091042               0.999999985              -0.000989754               0.000091490               0.999999985              -0.001002991               0.000090888               0.999999985              -0.001016161               0.000089040               0.999999985              -0.001028843               0.000085701               0.999999985              -0.001040519               0.000080313               0.999999985              -0.001050731               0.000072534               0.999999985              -0.001059152               0.000062085               0.999999985              -0.001065226               0.000047773               0.999999985              -0.001068311               0.000028219               0.999999985              -0.000846485               0.000263761               0.999999985              -0.000880754               0.000210982               0.999999985              -0.000891882               0.000188005               0.999999985              -0.000897397               0.000179665               0.999999985              -0.000902876               0.000178486               0.999999985              -0.000909807               0.000180490               0.999999985              -0.000918210               0.000183418               0.999999985              -0.000927584               0.000185687               0.999999985              -0.000937308               0.000186544               0.999999985              -0.000946867               0.000185460               0.999999985              -0.000955782               0.000182050               0.999999985              -0.000963724               0.000175790               0.999999985              -0.000970266               0.000165801               0.999999985              -0.000974955               0.000151594               0.999999985              -0.000977479               0.000132538               0.999999985              -0.000977433               0.000107315               0.999999985              -0.000974668               0.000074259               0.999999985              -0.000822910               0.000392617               0.999999985              -0.000837938               0.000315530               0.999999985              -0.000838204               0.000284068               0.999999985              -0.000837457               0.000273876               0.999999985              -0.000838900               0.000273825               0.999999985              -0.000842711               0.000277827               0.999999985              -0.000847987               0.000282591               0.999999985              -0.000853719               0.000286093               0.999999985              -0.000859161               0.000287348               0.999999985              -0.000863714               0.000285882               0.999999985              -0.000867002               0.000281170               0.999999985              -0.000868490               0.000272640               0.999999985              -0.000867825               0.000259203               0.999999985              -0.000864824               0.000240340               0.999999985              -0.000859319               0.000215618               0.999999985              -0.000851180               0.000183951               0.999999985              -0.000840603               0.000144661               0.999999985              -0.000790519               0.000518007               0.999999985              -0.000781076               0.000419317               0.999999985              -0.000769238               0.000382272               0.999999985              -0.000762339               0.000372300               0.999999985              -0.000760207               0.000374428               0.999999985              -0.000761018               0.000380928               0.999999985              -0.000762977               0.000387721               0.999999985              -0.000764733               0.000392397               0.999999985              -0.000765272               0.000394111               0.999999985              -0.000764121               0.000392352               0.999999985              -0.000760807               0.000386800               0.999999985              -0.000754891               0.000376382               0.999999985              -0.000746072               0.000360388               0.999999985              -0.000734233               0.000338547               0.999999985              -0.000719475               0.000310595               0.999999985              -0.000701975               0.000276368               0.999999985              -0.000682348               0.000236194               0.999999985              -0.000749922               0.000638805               0.999999985              -0.000712892               0.000522562               0.999999985              -0.000689927               0.000482902               0.999999985              -0.000678465               0.000474759               0.999999985              -0.000673867               0.000479709               0.999999985              -0.000672402               0.000488871               0.999999985              -0.000671354               0.000497487               0.999999985              -0.000668996               0.000503215               0.999999985              -0.000664352               0.000505236               0.999999985              -0.000656901               0.000503357               0.999999985              -0.000646146               0.000496897               0.999999985              -0.000631839               0.000484911               0.999999985              -0.000613724               0.000467070               0.999999985              -0.000591944               0.000443460               0.999999985              -0.000567080               0.000414151               0.999999985              -0.000539714               0.000380000               0.999999985              -0.000510698               0.000342109               0.999999985              -0.000701889               0.000753806               0.999999985              -0.000636826               0.000625304               0.999999985              -0.000605419               0.000585643               0.999999985              -0.000591773               0.000580141               0.999999985              -0.000586433               0.000588016               0.999999985              -0.000583536               0.000599535               0.999999985              -0.000579619               0.000609577               0.999999985              -0.000572980               0.000616124               0.999999985              -0.000562663               0.000618407               0.999999985              -0.000548149               0.000615969               0.999999985              -0.000529117               0.000608475               0.999999985              -0.000505360               0.000594853               0.999999985              -0.000477214               0.000575266               0.999999985              -0.000445187               0.000550562               0.999999985              -0.000410068               0.000521301               0.999999985              -0.000372784               0.000488782               0.999999985              -0.000334382               0.000454422               0.999999985              -0.000647460               0.000861765               0.999999985              -0.000556681               0.000727208               0.999999985              -0.000520617               0.000689328               0.999999985              -0.000507635               0.000686516               0.999999985              -0.000502907               0.000696885               0.999999985              -0.000498966               0.000710191               0.999999985              -0.000492078               0.000721350               0.999999985              -0.000480561               0.000728503               0.999999985              -0.000463688               0.000730623               0.999999985              -0.000441126               0.000727267               0.999999985              -0.000412769               0.000718146               0.999999985              -0.000378840               0.000702787               0.999999985              -0.000340029               0.000681923               0.999999985              -0.000297161               0.000656962               0.999999985              -0.000251395               0.000628947               0.999999985              -0.000203935               0.000599051               0.999999985              -0.000155896               0.000568370               0.999999985              -0.000588449               0.000960750               0.999999985              -0.000475185               0.000828206               0.999999985              -0.000439886               0.000792353               0.999999985              -0.000429660               0.000791701               0.999999985              -0.000426262               0.000803931               0.999999985              -0.000421134               0.000818563               0.999999985              -0.000410635               0.000830560               0.999999985              -0.000393458               0.000837846               0.999999985              -0.000369030               0.000839313               0.999999985              -0.000337311               0.000834492               0.999999985              -0.000298558               0.000823402               0.999999985              -0.000253153               0.000806740               0.999999985              -0.000202330               0.000785677               0.999999985              -0.000147730               0.000761848               0.999999985              -0.000090938               0.000736377               0.999999985              -0.000033343               0.000710096               0.999999985               0.000024441               0.000683738               0.999999985              -0.000527487               0.001054588               0.999999985              -0.000407003               0.000941373               0.999999985              -0.000368862               0.000901571               0.999999985              -0.000358021               0.000895642               0.999999985              -0.000355326               0.000904371               0.999999985              -0.000352139               0.000918237               0.999999985              -0.000344391               0.000932100               0.999999985              -0.000330660               0.000943256               0.999999985              -0.000310455               0.000950294               0.999999985              -0.000283270               0.000952489               0.999999985              -0.000249144               0.000949719               0.999999985              -0.000208359               0.000942186               0.999999985              -0.000161332               0.000930567               0.999999985              -0.000109244               0.000915986               0.999999985              -0.000053723               0.000899683               0.999999985               0.000004067               0.000882420               0.999999985               0.000062687               0.000864918               0.999999985              -0.000461035               0.001140338               0.999999985              -0.000341625               0.001051053               0.999999985              -0.000300872               0.001013766               0.999999985              -0.000288486               0.001005075               0.999999985              -0.000285593               0.001011413               0.999999985              -0.000283428               0.001024654               0.999999985              -0.000277941               0.001039954               0.999999985              -0.000267473               0.001054460               0.999999985              -0.000251074               0.001066482               0.999999985              -0.000228242               0.001075078               0.999999985              -0.000198855               0.001079673               0.999999985              -0.000162892               0.001080343               0.999999985              -0.000120233               0.001077440               0.999999985              -0.000071560               0.001071604               0.999999985              -0.000018034               0.001063688               0.999999985               0.000039231               0.001054665               0.999999985               0.000098707               0.001045375               0.999999985              -0.000390469               0.001215795               0.999999985              -0.000279115               0.001153945               0.999999985              -0.000237691               0.001123751               0.999999985              -0.000223525               0.001115754               0.999999985              -0.000219642               0.001121495               0.999999985              -0.000217699               0.001134827               0.999999985              -0.000213718               0.001151675               0.999999985              -0.000205912               0.001169392               0.999999985              -0.000193005               0.001186084               0.999999985              -0.000174388               0.001200590               0.999999985              -0.000149755               0.001212245               0.999999985              -0.000118757               0.001220776               0.999999985              -0.000081121               0.001226149               0.999999985              -0.000036738               0.001228792               0.999999985               0.000013923               0.001229183               0.999999985               0.000070120               0.001228044               0.999999985               0.000130721               0.001226255               0.999999985              -0.000316539               0.001279434               0.999999985              -0.000219593               0.001245645               0.999999985              -0.000180235               0.001225996               0.999999985              -0.000165102               0.001221569               0.999999985              -0.000160114               0.001228688               0.999999985              -0.000157854               0.001243304               0.999999985              -0.000154740               0.001262378               0.999999985              -0.000148875               0.001283333               0.999999985              -0.000139119               0.001304516               0.999999985              -0.000124596               0.001324747               0.999999985              -0.000104692               0.001343220               0.999999985              -0.000079025               0.001359546               0.999999985              -0.000047005               0.001373398               0.999999985              -0.000008024               0.001384743               0.999999985               0.000038241               0.001393780               0.999999985               0.000091798               0.001401019               0.999999985               0.000152790               0.001406951               0.999999985              -0.000239868               0.001330203               0.999999985              -0.000162585               0.001322011               0.999999985              -0.000128689               0.001314362               0.999999985              -0.000114301               0.001315417               0.999999985              -0.000108833               0.001325330               0.999999985              -0.000106377               0.001342134               0.999999985              -0.000103720               0.001363759               0.999999985              -0.000099497               0.001388114               0.999999985              -0.000092514               0.001413662               0.999999985              -0.000081776               0.001439489               0.999999985              -0.000066621               0.001464674               0.999999985              -0.000046626               0.001488626               0.999999985              -0.000021131               0.001510924               0.999999985               0.000010730               0.001531170               0.999999985               0.000049901               0.001549195               0.999999985               0.000097635               0.001565128               0.999999985               0.000154954               0.001579291               0.999999985              -0.000161104               0.001367180               0.999999985              -0.000107409               0.001379448               0.999999985              -0.000082444               0.001382793               0.999999985              -0.000071078               0.001389710               0.999999985              -0.000066306               0.001402938               0.999999985              -0.000064005               0.001422302               0.999999985              -0.000061928               0.001446342               0.999999985              -0.000059162               0.001473682               0.999999985              -0.000054587               0.001503260               0.999999985              -0.000047440               0.001533986               0.999999985              -0.000037270               0.001565060               0.999999985              -0.000023650               0.001595765               0.999999985              -0.000005972               0.001625560               0.999999985               0.000016780               0.001653975               0.999999985               0.000045769               0.001680638               0.999999985               0.000082509               0.001705141               0.999999985               0.000129080               0.001727318               0.999999985              -0.000080912               0.001389664               0.999999985              -0.000053403               0.001415116               0.999999985              -0.000040166               0.001426179               0.999999985              -0.000033895               0.001437621               0.999999985              -0.000031095               0.001453682               0.999999985              -0.000029620               0.001475034               0.999999985              -0.000028477               0.001500887               0.999999985              -0.000026955               0.001530342               0.999999985              -0.000024714               0.001562561               0.999999985              -0.000021257               0.001596648               0.999999985              -0.000016195               0.001631804               0.999999985              -0.000009281               0.001667365               0.999999985              -0.000000223               0.001702687               0.999999985               0.000011621               0.001737355               0.999999985               0.000027121               0.001770856               0.999999985               0.000047443               0.001802345               0.999999985               0.000074175               0.001830984               0.999999985               0.000000000               0.001397222               0.999999985              -0.000000000               0.001427179               0.999999985               0.000000000               0.001441001               0.999999985               0.000000000               0.001454208               0.999999985               0.000000000               0.001471411               0.999999985              -0.000000000               0.001493518               0.999999985              -0.000000000               0.001520004               0.999999985               0.000000000               0.001550068               0.999999985               0.000000000               0.001583089               0.999999985               0.000000000               0.001618446               0.999999985               0.000000000               0.001655168               0.999999985               0.000000000               0.001692455               0.999999985               0.000000000               0.001729969               0.999999985               0.000000000               0.001767234               0.999999985              -0.000000000               0.001803487               0.999999985              -0.000000000               0.001837777               0.999999985              -0.000000000               0.001868959               0.999999985              -0.000865706              -0.000000000               0.999999985              -0.000916388               0.000000000               0.999999985              -0.000937714              -0.000000000               0.999999985              -0.000949589               0.000000000               0.999999985              -0.000959335               0.000000000               0.999999985              -0.000969759              -0.000000000               0.999999985              -0.000981433               0.000000000               0.999999985              -0.000994380               0.000000000               0.999999985              -0.001008339              -0.000000000               0.999999985              -0.001022898               0.000000000               0.999999985              -0.001037636               0.000000000               0.999999985              -0.001051987               0.000000000               0.999999985              -0.001065555               0.000000000               0.999999985              -0.001077908              -0.000000000               0.999999985              -0.001088605              -0.000000000               0.999999985              -0.001096987               0.000000000               0.999999985              -0.001102267              -0.000000000               0.999999985              -0.000860854              -0.000132501               0.999999985              -0.000907359              -0.000105702               0.999999985              -0.000926008              -0.000093569               0.999999985              -0.000936201              -0.000088831               0.999999985              -0.000944772              -0.000087841               0.999999985              -0.000954102              -0.000088629               0.999999985              -0.000964869              -0.000089871               0.999999985              -0.000976906              -0.000091042               0.999999985              -0.000989754              -0.000091490               0.999999985              -0.001002991              -0.000090888               0.999999985              -0.001016161              -0.000089040               0.999999985              -0.001028843              -0.000085701               0.999999985              -0.001040519              -0.000080313               0.999999985              -0.001050731              -0.000072534               0.999999985              -0.001059152              -0.000062085               0.999999985              -0.001065226              -0.000047773               0.999999985              -0.001068311              -0.000028219               0.999999985              -0.000846485              -0.000263761               0.999999985              -0.000880754              -0.000210982               0.999999985              -0.000891882              -0.000188005               0.999999985              -0.000897397              -0.000179665               0.999999985              -0.000902876              -0.000178486               0.999999985              -0.000909807              -0.000180490               0.999999985              -0.000918210              -0.000183418               0.999999985              -0.000927584              -0.000185687               0.999999985              -0.000937308              -0.000186544               0.999999985              -0.000946867              -0.000185460               0.999999985              -0.000955782              -0.000182050               0.999999985              -0.000963724              -0.000175790               0.999999985              -0.000970266              -0.000165801               0.999999985              -0.000974955              -0.000151594               0.999999985              -0.000977479              -0.000132538               0.999999985              -0.000977433              -0.000107315               0.999999985              -0.000974668              -0.000074259               0.999999985              -0.000822910              -0.000392617               0.999999985              -0.000837938              -0.000315530               0.999999985              -0.000838204              -0.000284068               0.999999985              -0.000837457              -0.000273876               0.999999985              -0.000838900              -0.000273825               0.999999985              -0.000842711              -0.000277827               0.999999985              -0.000847987              -0.000282591               0.999999985              -0.000853719              -0.000286093               0.999999985              -0.000859161              -0.000287348               0.999999985              -0.000863714              -0.000285882               0.999999985              -0.000867002              -0.000281170               0.999999985              -0.000868490              -0.000272640               0.999999985              -0.000867825              -0.000259203               0.999999985              -0.000864824              -0.000240340               0.999999985              -0.000859319              -0.000215618               0.999999985              -0.000851180              -0.000183951               0.999999985              -0.000840603              -0.000144661               0.999999985              -0.000790519              -0.000518007               0.999999985              -0.000781076              -0.000419317               0.999999985              -0.000769238              -0.000382272               0.999999985              -0.000762339              -0.000372300               0.999999985              -0.000760207              -0.000374428               0.999999985              -0.000761018              -0.000380928               0.999999985              -0.000762977              -0.000387721               0.999999985              -0.000764733              -0.000392397               0.999999985              -0.000765272              -0.000394111               0.999999985              -0.000764121              -0.000392352               0.999999985              -0.000760807              -0.000386800               0.999999985              -0.000754891              -0.000376382               0.999999985              -0.000746072              -0.000360388               0.999999985              -0.000734233              -0.000338547               0.999999985              -0.000719475              -0.000310595               0.999999985              -0.000701975              -0.000276368               0.999999985              -0.000682348              -0.000236194               0.999999985              -0.000749922              -0.000638805               0.999999985              -0.000712892              -0.000522562               0.999999985              -0.000689927              -0.000482902               0.999999985              -0.000678465              -0.000474759               0.999999985              -0.000673867              -0.000479709               0.999999985              -0.000672402              -0.000488871               0.999999985              -0.000671354              -0.000497487               0.999999985              -0.000668996              -0.000503215               0.999999985              -0.000664352              -0.000505236               0.999999985              -0.000656901              -0.000503357               0.999999985              -0.000646146              -0.000496897               0.999999985              -0.000631839              -0.000484911               0.999999985              -0.000613724              -0.000467070               0.999999985              -0.000591944              -0.000443460               0.999999985              -0.000567080              -0.000414151               0.999999985              -0.000539714              -0.000380000               0.999999985              -0.000510698              -0.000342109               0.999999985              -0.000701889              -0.000753806               0.999999985              -0.000636826              -0.000625304               0.999999985              -0.000605419              -0.000585643               0.999999985              -0.000591773              -0.000580141               0.999999985              -0.000586433              -0.000588016               0.999999985              -0.000583536              -0.000599535               0.999999985              -0.000579619              -0.000609577               0.999999985              -0.000572980              -0.000616124               0.999999985              -0.000562663              -0.000618407               0.999999985              -0.000548149              -0.000615969               0.999999985              -0.000529117              -0.000608475               0.999999985              -0.000505360              -0.000594853               0.999999985              -0.000477214              -0.000575266               0.999999985              -0.000445187              -0.000550562               0.999999985              -0.000410068              -0.000521301               0.999999985              -0.000372784              -0.000488782               0.999999985              -0.000334382              -0.000454422               0.999999985              -0.000647460              -0.000861765               0.999999985              -0.000556681              -0.000727208               0.999999985              -0.000520617              -0.000689328               0.999999985              -0.000507635              -0.000686516               0.999999985              -0.000502907              -0.000696885               0.999999985              -0.000498966              -0.000710191               0.999999985              -0.000492078              -0.000721350               0.999999985              -0.000480561              -0.000728503               0.999999985              -0.000463688              -0.000730623               0.999999985              -0.000441126              -0.000727267               0.999999985              -0.000412769              -0.000718146               0.999999985              -0.000378840              -0.000702787               0.999999985              -0.000340029              -0.000681923               0.999999985              -0.000297161              -0.000656962               0.999999985              -0.000251395              -0.000628947               0.999999985              -0.000203935              -0.000599051               0.999999985              -0.000155896              -0.000568370               0.999999985              -0.000588449              -0.000960750               0.999999985              -0.000475185              -0.000828206               0.999999985              -0.000439886              -0.000792353               0.999999985              -0.000429660              -0.000791701               0.999999985              -0.000426262              -0.000803931               0.999999985              -0.000421134              -0.000818563               0.999999985              -0.000410635              -0.000830560               0.999999985              -0.000393458              -0.000837846               0.999999985              -0.000369030              -0.000839313               0.999999985              -0.000337311              -0.000834492               0.999999985              -0.000298558              -0.000823402               0.999999985              -0.000253153              -0.000806740               0.999999985              -0.000202330              -0.000785677               0.999999985              -0.000147730              -0.000761848               0.999999985              -0.000090938              -0.000736377               0.999999985              -0.000033343              -0.000710096               0.999999985               0.000024441              -0.000683738               0.999999985              -0.000527487              -0.001054588               0.999999985              -0.000407003              -0.000941373               0.999999985              -0.000368862              -0.000901571               0.999999985              -0.000358021              -0.000895642               0.999999985              -0.000355326              -0.000904371               0.999999985              -0.000352139              -0.000918237               0.999999985              -0.000344391              -0.000932100               0.999999985              -0.000330660              -0.000943256               0.999999985              -0.000310455              -0.000950294               0.999999985              -0.000283270              -0.000952489               0.999999985              -0.000249144              -0.000949719               0.999999985              -0.000208359              -0.000942186               0.999999985              -0.000161332              -0.000930567               0.999999985              -0.000109244              -0.000915986               0.999999985              -0.000053723              -0.000899683               0.999999985               0.000004067              -0.000882420               0.999999985               0.000062687              -0.000864918               0.999999985              -0.000461035              -0.001140338               0.999999985              -0.000341625              -0.001051053               0.999999985              -0.000300872              -0.001013766               0.999999985              -0.000288486              -0.001005075               0.999999985              -0.000285593              -0.001011413               0.999999985              -0.000283428              -0.001024654               0.999999985              -0.000277941              -0.001039954               0.999999985              -0.000267473              -0.001054460               0.999999985              -0.000251074              -0.001066482               0.999999985              -0.000228242              -0.001075078               0.999999985              -0.000198855              -0.001079673               0.999999985              -0.000162892              -0.001080343               0.999999985              -0.000120233              -0.001077440               0.999999985              -0.000071560              -0.001071604               0.999999985              -0.000018034              -0.001063688               0.999999985               0.000039231              -0.001054665               0.999999985               0.000098707              -0.001045375               0.999999985              -0.000390469              -0.001215795               0.999999985              -0.000279115              -0.001153945               0.999999985              -0.000237691              -0.001123751               0.999999985              -0.000223525              -0.001115754               0.999999985              -0.000219642              -0.001121495               0.999999985              -0.000217699              -0.001134827               0.999999985              -0.000213718              -0.001151675               0.999999985              -0.000205912              -0.001169392               0.999999985              -0.000193005              -0.001186084               0.999999985              -0.000174388              -0.001200590               0.999999985              -0.000149755              -0.001212245               0.999999985              -0.000118757              -0.001220776               0.999999985              -0.000081121              -0.001226149               0.999999985              -0.000036738              -0.001228792               0.999999985               0.000013923              -0.001229183               0.999999985               0.000070120              -0.001228044               0.999999985               0.000130721              -0.001226255               0.999999985              -0.000316539              -0.001279434               0.999999985              -0.000219593              -0.001245645               0.999999985              -0.000180235              -0.001225996               0.999999985              -0.000165102              -0.001221569               0.999999985              -0.000160114              -0.001228688               0.999999985              -0.000157854              -0.001243304               0.999999985              -0.000154740              -0.001262378               0.999999985              -0.000148875              -0.001283333               0.999999985              -0.000139119              -0.001304516               0.999999985              -0.000124596              -0.001324747               0.999999985              -0.000104692              -0.001343220               0.999999985              -0.000079025              -0.001359546               0.999999985              -0.000047005              -0.001373398               0.999999985              -0.000008024              -0.001384743               0.999999985               0.000038241              -0.001393780               0.999999985               0.000091798              -0.001401019               0.999999985               0.000152790              -0.001406951               0.999999985              -0.000239868              -0.001330203               0.999999985              -0.000162585              -0.001322011               0.999999985              -0.000128689              -0.001314362               0.999999985              -0.000114301              -0.001315417               0.999999985              -0.000108833              -0.001325330               0.999999985              -0.000106377              -0.001342134               0.999999985              -0.000103720              -0.001363759               0.999999985              -0.000099497              -0.001388114               0.999999985              -0.000092514              -0.001413662               0.999999985              -0.000081776              -0.001439489               0.999999985              -0.000066621              -0.001464674               0.999999985              -0.000046626              -0.001488626               0.999999985              -0.000021131              -0.001510924               0.999999985               0.000010730              -0.001531170               0.999999985               0.000049901              -0.001549195               0.999999985               0.000097635              -0.001565128               0.999999985               0.000154954              -0.001579291               0.999999985              -0.000161104              -0.001367180               0.999999985              -0.000107409              -0.001379448               0.999999985              -0.000082444              -0.001382793               0.999999985              -0.000071078              -0.001389710               0.999999985              -0.000066306              -0.001402938               0.999999985              -0.000064005              -0.001422302               0.999999985              -0.000061928              -0.001446342               0.999999985              -0.000059162              -0.001473682               0.999999985              -0.000054587              -0.001503260               0.999999985              -0.000047440              -0.001533986               0.999999985              -0.000037270              -0.001565060               0.999999985              -0.000023650              -0.001595765               0.999999985              -0.000005972              -0.001625560               0.999999985               0.000016780              -0.001653975               0.999999985               0.000045769              -0.001680638               0.999999985               0.000082509              -0.001705141               0.999999985               0.000129080              -0.001727318               0.999999985              -0.000080912              -0.001389664               0.999999985              -0.000053403              -0.001415116               0.999999985              -0.000040166              -0.001426179               0.999999985              -0.000033895              -0.001437621               0.999999985              -0.000031095              -0.001453682               0.999999985              -0.000029620              -0.001475034               0.999999985              -0.000028477              -0.001500887               0.999999985              -0.000026955              -0.001530342               0.999999985              -0.000024714              -0.001562561               0.999999985              -0.000021257              -0.001596648               0.999999985              -0.000016195              -0.001631804               0.999999985              -0.000009281              -0.001667365               0.999999985              -0.000000223              -0.001702687               0.999999985               0.000011621              -0.001737355               0.999999985               0.000027121              -0.001770856               0.999999985               0.000047443              -0.001802345               0.999999985               0.000074175              -0.001830984               0.999999985              -0.000000000              -0.001397222               0.999999985               0.000000000              -0.001427179               0.999999985              -0.000000000              -0.001441001               0.999999985              -0.000000000              -0.001454208               0.999999985               0.000000000              -0.001471411               0.999999985              -0.000000000              -0.001493518               0.999999985              -0.000000000              -0.001520004               0.999999985              -0.000000000              -0.001550068               0.999999985              -0.000000000              -0.001583089               0.999999985              -0.000000000              -0.001618446               0.999999985              -0.000000000              -0.001655168               0.999999985               0.000000000              -0.001692455               0.999999985               0.000000000              -0.001729969               0.999999985               0.000000000              -0.001767234               0.999999985               0.000000000              -0.001803487               0.999999985              -0.000000000              -0.001837777               0.999999985               0.000000000              -0.001868959               0.999999985               0.000865706              -0.000000000               0.999999985               0.000916388              -0.000000000               0.999999985               0.000937714              -0.000000000               0.999999985               0.000949589               0.000000000               0.999999985               0.000959335               0.000000000               0.999999985               0.000969759               0.000000000               0.999999985               0.000981433              -0.000000000               0.999999985               0.000994380               0.000000000               0.999999985               0.001008339               0.000000000               0.999999985               0.001022898               0.000000000               0.999999985               0.001037636               0.000000000               0.999999985               0.001051987               0.000000000               0.999999985               0.001065555               0.000000000               0.999999985               0.001077908              -0.000000000               0.999999985               0.001088605               0.000000000               0.999999985               0.001096987               0.000000000               0.999999985               0.001102267               0.000000000               0.999999985               0.000860854              -0.000132501               0.999999985               0.000907359              -0.000105702               0.999999985               0.000926008              -0.000093569               0.999999985               0.000936201              -0.000088831               0.999999985               0.000944772              -0.000087841               0.999999985               0.000954102              -0.000088629               0.999999985               0.000964869              -0.000089871               0.999999985               0.000976906              -0.000091042               0.999999985               0.000989754              -0.000091490               0.999999985               0.001002991              -0.000090888               0.999999985               0.001016161              -0.000089040               0.999999985               0.001028843              -0.000085701               0.999999985               0.001040519              -0.000080313               0.999999985               0.001050731              -0.000072534               0.999999985               0.001059152              -0.000062085               0.999999985               0.001065226              -0.000047773               0.999999985               0.001068311              -0.000028219               0.999999985               0.000846485              -0.000263761               0.999999985               0.000880754              -0.000210982               0.999999985               0.000891882              -0.000188005               0.999999985               0.000897397              -0.000179665               0.999999985               0.000902876              -0.000178486               0.999999985               0.000909807              -0.000180490               0.999999985               0.000918210              -0.000183418               0.999999985               0.000927584              -0.000185687               0.999999985               0.000937308              -0.000186544               0.999999985               0.000946867              -0.000185460               0.999999985               0.000955782              -0.000182050               0.999999985               0.000963724              -0.000175790               0.999999985               0.000970266              -0.000165801               0.999999985               0.000974955              -0.000151594               0.999999985               0.000977479              -0.000132538               0.999999985               0.000977433              -0.000107315               0.999999985               0.000974668              -0.000074259               0.999999985               0.000822910              -0.000392617               0.999999985               0.000837938              -0.000315530               0.999999985               0.000838204              -0.000284068               0.999999985               0.000837457              -0.000273876               0.999999985               0.000838900              -0.000273825               0.999999985               0.000842711              -0.000277827               0.999999985               0.000847987              -0.000282591               0.999999985               0.000853719              -0.000286093               0.999999985               0.000859161              -0.000287348               0.999999985               0.000863714              -0.000285882               0.999999985               0.000867002              -0.000281170               0.999999985               0.000868490              -0.000272640               0.999999985               0.000867825              -0.000259203               0.999999985               0.000864824              -0.000240340               0.999999985               0.000859319              -0.000215618               0.999999985               0.000851180              -0.000183951               0.999999985               0.000840603              -0.000144661               0.999999985               0.000790519              -0.000518007               0.999999985               0.000781076              -0.000419317               0.999999985               0.000769238              -0.000382272               0.999999985               0.000762339              -0.000372300               0.999999985               0.000760207              -0.000374428               0.999999985               0.000761018              -0.000380928               0.999999985               0.000762977              -0.000387721               0.999999985               0.000764733              -0.000392397               0.999999985               0.000765272              -0.000394111               0.999999985               0.000764121              -0.000392352               0.999999985               0.000760807              -0.000386800               0.999999985               0.000754891              -0.000376382               0.999999985               0.000746072              -0.000360388               0.999999985               0.000734233              -0.000338547               0.999999985               0.000719475              -0.000310595               0.999999985               0.000701975              -0.000276368               0.999999985               0.000682348              -0.000236194               0.999999985               0.000749922              -0.000638805               0.999999985               0.000712892              -0.000522562               0.999999985               0.000689927              -0.000482902               0.999999985               0.000678465              -0.000474759               0.999999985               0.000673867              -0.000479709               0.999999985               0.000672402              -0.000488871               0.999999985               0.000671354              -0.000497487               0.999999985               0.000668996              -0.000503215               0.999999985               0.000664352              -0.000505236               0.999999985               0.000656901              -0.000503357               0.999999985               0.000646146              -0.000496897               0.999999985               0.000631839              -0.000484911               0.999999985               0.000613724              -0.000467070               0.999999985               0.000591944              -0.000443460               0.999999985               0.000567080              -0.000414151               0.999999985               0.000539714              -0.000380000               0.999999985               0.000510698              -0.000342109               0.999999985               0.000701889              -0.000753806               0.999999985               0.000636826              -0.000625304               0.999999985               0.000605419              -0.000585643               0.999999985               0.000591773              -0.000580141               0.999999985               0.000586433              -0.000588016               0.999999985               0.000583536              -0.000599535               0.999999985               0.000579619              -0.000609577               0.999999985               0.000572980              -0.000616124               0.999999985               0.000562663              -0.000618407               0.999999985               0.000548149              -0.000615969               0.999999985               0.000529117              -0.000608475               0.999999985               0.000505360              -0.000594853               0.999999985               0.000477214              -0.000575266               0.999999985               0.000445187              -0.000550562               0.999999985               0.000410068              -0.000521301               0.999999985               0.000372784              -0.000488782               0.999999985               0.000334382              -0.000454422               0.999999985               0.000647460              -0.000861765               0.999999985               0.000556681              -0.000727208               0.999999985               0.000520617              -0.000689328               0.999999985               0.000507635              -0.000686516               0.999999985               0.000502907              -0.000696885               0.999999985               0.000498966              -0.000710191               0.999999985               0.000492078              -0.000721350               0.999999985               0.000480561              -0.000728503               0.999999985               0.000463688              -0.000730623               0.999999985               0.000441126              -0.000727267               0.999999985               0.000412769              -0.000718146               0.999999985               0.000378840              -0.000702787               0.999999985               0.000340029              -0.000681923               0.999999985               0.000297161              -0.000656962               0.999999985               0.000251395              -0.000628947               0.999999985               0.000203935              -0.000599051               0.999999985               0.000155896              -0.000568370               0.999999985               0.000588449              -0.000960750               0.999999985               0.000475185              -0.000828206               0.999999985               0.000439886              -0.000792353               0.999999985               0.000429660              -0.000791701               0.999999985               0.000426262              -0.000803931               0.999999985               0.000421134              -0.000818563               0.999999985               0.000410635              -0.000830560               0.999999985               0.000393458              -0.000837846               0.999999985               0.000369030              -0.000839313               0.999999985               0.000337311              -0.000834492               0.999999985               0.000298558              -0.000823402               0.999999985               0.000253153              -0.000806740               0.999999985               0.000202330              -0.000785677               0.999999985               0.000147730              -0.000761848               0.999999985               0.000090938              -0.000736377               0.999999985               0.000033343              -0.000710096               0.999999985              -0.000024441              -0.000683738               0.999999985               0.000527487              -0.001054588               0.999999985               0.000407003              -0.000941373               0.999999985               0.000368862              -0.000901571               0.999999985               0.000358021              -0.000895642               0.999999985               0.000355326              -0.000904371               0.999999985               0.000352139              -0.000918237               0.999999985               0.000344391              -0.000932100               0.999999985               0.000330660              -0.000943256               0.999999985               0.000310455              -0.000950294               0.999999985               0.000283270              -0.000952489               0.999999985               0.000249144              -0.000949719               0.999999985               0.000208359              -0.000942186               0.999999985               0.000161332              -0.000930567               0.999999985               0.000109244              -0.000915986               0.999999985               0.000053723              -0.000899683               0.999999985              -0.000004067              -0.000882420               0.999999985              -0.000062687              -0.000864918               0.999999985               0.000461035              -0.001140338               0.999999985               0.000341625              -0.001051053               0.999999985               0.000300872              -0.001013766               0.999999985               0.000288486              -0.001005075               0.999999985               0.000285593              -0.001011413               0.999999985               0.000283428              -0.001024654               0.999999985               0.000277941              -0.001039954               0.999999985               0.000267473              -0.001054460               0.999999985               0.000251074              -0.001066482               0.999999985               0.000228242              -0.001075078               0.999999985               0.000198855              -0.001079673               0.999999985               0.000162892              -0.001080343               0.999999985               0.000120233              -0.001077440               0.999999985               0.000071560              -0.001071604               0.999999985               0.000018034              -0.001063688               0.999999985              -0.000039231              -0.001054665               0.999999985              -0.000098707              -0.001045375               0.999999985               0.000390469              -0.001215795               0.999999985               0.000279115              -0.001153945               0.999999985               0.000237691              -0.001123751               0.999999985               0.000223525              -0.001115754               0.999999985               0.000219642              -0.001121495               0.999999985               0.000217699              -0.001134827               0.999999985               0.000213718              -0.001151675               0.999999985               0.000205912              -0.001169392               0.999999985               0.000193005              -0.001186084               0.999999985               0.000174388              -0.001200590               0.999999985               0.000149755              -0.001212245               0.999999985               0.000118757              -0.001220776               0.999999985               0.000081121              -0.001226149               0.999999985               0.000036738              -0.001228792               0.999999985              -0.000013923              -0.001229183               0.999999985              -0.000070120              -0.001228044               0.999999985              -0.000130721              -0.001226255               0.999999985               0.000316539              -0.001279434               0.999999985               0.000219593              -0.001245645               0.999999985               0.000180235              -0.001225996               0.999999985               0.000165102              -0.001221569               0.999999985               0.000160114              -0.001228688               0.999999985               0.000157854              -0.001243304               0.999999985               0.000154740              -0.001262378               0.999999985               0.000148875              -0.001283333               0.999999985               0.000139119              -0.001304516               0.999999985               0.000124596              -0.001324747               0.999999985               0.000104692              -0.001343220               0.999999985               0.000079025              -0.001359546               0.999999985               0.000047005              -0.001373398               0.999999985               0.000008024              -0.001384743               0.999999985              -0.000038241              -0.001393780               0.999999985              -0.000091798              -0.001401019               0.999999985              -0.000152790              -0.001406951               0.999999985               0.000239868              -0.001330203               0.999999985               0.000162585              -0.001322011               0.999999985               0.000128689              -0.001314362               0.999999985               0.000114301              -0.001315417               0.999999985               0.000108833              -0.001325330               0.999999985               0.000106377              -0.001342134               0.999999985               0.000103720              -0.001363759               0.999999985               0.000099497              -0.001388114               0.999999985               0.000092514              -0.001413662               0.999999985               0.000081776              -0.001439489               0.999999985               0.000066621              -0.001464674               0.999999985               0.000046626              -0.001488626               0.999999985               0.000021131              -0.001510924               0.999999985              -0.000010730              -0.001531170               0.999999985              -0.000049901              -0.001549195               0.999999985              -0.000097635              -0.001565128               0.999999985              -0.000154954              -0.001579291               0.999999985               0.000161104              -0.001367180               0.999999985               0.000107409              -0.001379448               0.999999985               0.000082444              -0.001382793               0.999999985               0.000071078              -0.001389710               0.999999985               0.000066306              -0.001402938               0.999999985               0.000064005              -0.001422302               0.999999985               0.000061928              -0.001446342               0.999999985               0.000059162              -0.001473682               0.999999985               0.000054587              -0.001503260               0.999999985               0.000047440              -0.001533986               0.999999985               0.000037270              -0.001565060               0.999999985               0.000023650              -0.001595765               0.999999985               0.000005972              -0.001625560               0.999999985              -0.000016780              -0.001653975               0.999999985              -0.000045769              -0.001680638               0.999999985              -0.000082509              -0.001705141               0.999999985              -0.000129080              -0.001727318               0.999999985               0.000080912              -0.001389664               0.999999985               0.000053403              -0.001415116               0.999999985               0.000040166              -0.001426179               0.999999985               0.000033895              -0.001437621               0.999999985               0.000031095              -0.001453682               0.999999985               0.000029620              -0.001475034               0.999999985               0.000028477              -0.001500887               0.999999985               0.000026955              -0.001530342               0.999999985               0.000024714              -0.001562561               0.999999985               0.000021257              -0.001596648               0.999999985               0.000016195              -0.001631804               0.999999985               0.000009281              -0.001667365               0.999999985               0.000000223              -0.001702687               0.999999985              -0.000011621              -0.001737355               0.999999985              -0.000027121              -0.001770856               0.999999985              -0.000047443              -0.001802345               0.999999985              -0.000074175              -0.001830984               0.999999985              -0.000000000              -0.001397222               0.999999985               0.000000000              -0.001427179               0.999999985              -0.000000000              -0.001441001               0.999999985              -0.000000000              -0.001454208               0.999999985               0.000000000              -0.001471411               0.999999985              -0.000000000              -0.001493518               0.999999985              -0.000000000              -0.001520004               0.999999985              -0.000000000              -0.001550068               0.999999985              -0.000000000              -0.001583089               0.999999985              -0.000000000              -0.001618446               0.999999985              -0.000000000              -0.001655168               0.999999985               0.000000000              -0.001692455               0.999999985               0.000000000              -0.001729969               0.999999985               0.000000000              -0.001767234               0.999999985               0.000000000              -0.001803487               0.999999985              -0.000000000              -0.001837777               0.999999985               0.000000000              -0.001868959               0.999999985               0.000865706              -0.000000000               0.999999985               0.000916388              -0.000000000               0.999999985               0.000937714              -0.000000000               0.999999985               0.000949589               0.000000000               0.999999985               0.000959335               0.000000000               0.999999985               0.000969759               0.000000000               0.999999985               0.000981433              -0.000000000               0.999999985               0.000994380               0.000000000               0.999999985               0.001008339               0.000000000               0.999999985               0.001022898               0.000000000               0.999999985               0.001037636               0.000000000               0.999999985               0.001051987               0.000000000               0.999999985               0.001065555               0.000000000               0.999999985               0.001077908              -0.000000000               0.999999985               0.001088605               0.000000000               0.999999985               0.001096987               0.000000000               0.999999985               0.001102267               0.000000000               0.999999985               0.000860854               0.000132501               0.999999985               0.000907359               0.000105702               0.999999985               0.000926008               0.000093569               0.999999985               0.000936201               0.000088831               0.999999985               0.000944772               0.000087841               0.999999985               0.000954102               0.000088629               0.999999985               0.000964869               0.000089871               0.999999985               0.000976906               0.000091042               0.999999985               0.000989754               0.000091490               0.999999985               0.001002991               0.000090888               0.999999985               0.001016161               0.000089040               0.999999985               0.001028843               0.000085701               0.999999985               0.001040519               0.000080313               0.999999985               0.001050731               0.000072534               0.999999985               0.001059152               0.000062085               0.999999985               0.001065226               0.000047773               0.999999985               0.001068311               0.000028219               0.999999985               0.000846485               0.000263761               0.999999985               0.000880754               0.000210982               0.999999985               0.000891882               0.000188005               0.999999985               0.000897397               0.000179665               0.999999985               0.000902876               0.000178486               0.999999985               0.000909807               0.000180490               0.999999985               0.000918210               0.000183418               0.999999985               0.000927584               0.000185687               0.999999985               0.000937308               0.000186544               0.999999985               0.000946867               0.000185460               0.999999985               0.000955782               0.000182050               0.999999985               0.000963724               0.000175790               0.999999985               0.000970266               0.000165801               0.999999985               0.000974955               0.000151594               0.999999985               0.000977479               0.000132538               0.999999985               0.000977433               0.000107315               0.999999985               0.000974668               0.000074259               0.999999985               0.000822910               0.000392617               0.999999985               0.000837938               0.000315530               0.999999985               0.000838204               0.000284068               0.999999985               0.000837457               0.000273876               0.999999985               0.000838900               0.000273825               0.999999985               0.000842711               0.000277827               0.999999985               0.000847987               0.000282591               0.999999985               0.000853719               0.000286093               0.999999985               0.000859161               0.000287348               0.999999985               0.000863714               0.000285882               0.999999985               0.000867002               0.000281170               0.999999985               0.000868490               0.000272640               0.999999985               0.000867825               0.000259203               0.999999985               0.000864824               0.000240340               0.999999985               0.000859319               0.000215618               0.999999985               0.000851180               0.000183951               0.999999985               0.000840603               0.000144661               0.999999985               0.000790519               0.000518007               0.999999985               0.000781076               0.000419317               0.999999985               0.000769238               0.000382272               0.999999985               0.000762339               0.000372300               0.999999985               0.000760207               0.000374428               0.999999985               0.000761018               0.000380928               0.999999985               0.000762977               0.000387721               0.999999985               0.000764733               0.000392397               0.999999985               0.000765272               0.000394111               0.999999985               0.000764121               0.000392352               0.999999985               0.000760807               0.000386800               0.999999985               0.000754891               0.000376382               0.999999985               0.000746072               0.000360388               0.999999985               0.000734233               0.000338547               0.999999985               0.000719475               0.000310595               0.999999985               0.000701975               0.000276368               0.999999985               0.000682348               0.000236194               0.999999985               0.000749922               0.000638805               0.999999985               0.000712892               0.000522562               0.999999985               0.000689927               0.000482902               0.999999985               0.000678465               0.000474759               0.999999985               0.000673867               0.000479709               0.999999985               0.000672402               0.000488871               0.999999985               0.000671354               0.000497487               0.999999985               0.000668996               0.000503215               0.999999985               0.000664352               0.000505236               0.999999985               0.000656901               0.000503357               0.999999985               0.000646146               0.000496897               0.999999985               0.000631839               0.000484911               0.999999985               0.000613724               0.000467070               0.999999985               0.000591944               0.000443460               0.999999985               0.000567080               0.000414151               0.999999985               0.000539714               0.000380000               0.999999985               0.000510698               0.000342109               0.999999985               0.000701889               0.000753806               0.999999985               0.000636826               0.000625304               0.999999985               0.000605419               0.000585643               0.999999985               0.000591773               0.000580141               0.999999985               0.000586433               0.000588016               0.999999985               0.000583536               0.000599535               0.999999985               0.000579619               0.000609577               0.999999985               0.000572980               0.000616124               0.999999985               0.000562663               0.000618407               0.999999985               0.000548149               0.000615969               0.999999985               0.000529117               0.000608475               0.999999985               0.000505360               0.000594853               0.999999985               0.000477214               0.000575266               0.999999985               0.000445187               0.000550562               0.999999985               0.000410068               0.000521301               0.999999985               0.000372784               0.000488782               0.999999985               0.000334382               0.000454422               0.999999985               0.000647460               0.000861765               0.999999985               0.000556681               0.000727208               0.999999985               0.000520617               0.000689328               0.999999985               0.000507635               0.000686516               0.999999985               0.000502907               0.000696885               0.999999985               0.000498966               0.000710191               0.999999985               0.000492078               0.000721350               0.999999985               0.000480561               0.000728503               0.999999985               0.000463688               0.000730623               0.999999985               0.000441126               0.000727267               0.999999985               0.000412769               0.000718146               0.999999985               0.000378840               0.000702787               0.999999985               0.000340029               0.000681923               0.999999985               0.000297161               0.000656962               0.999999985               0.000251395               0.000628947               0.999999985               0.000203935               0.000599051               0.999999985               0.000155896               0.000568370               0.999999985               0.000588449               0.000960750               0.999999985               0.000475185               0.000828206               0.999999985               0.000439886               0.000792353               0.999999985               0.000429660               0.000791701               0.999999985               0.000426262               0.000803931               0.999999985               0.000421134               0.000818563               0.999999985               0.000410635               0.000830560               0.999999985               0.000393458               0.000837846               0.999999985               0.000369030               0.000839313               0.999999985               0.000337311               0.000834492               0.999999985               0.000298558               0.000823402               0.999999985               0.000253153               0.000806740               0.999999985               0.000202330               0.000785677               0.999999985               0.000147730               0.000761848               0.999999985               0.000090938               0.000736377               0.999999985               0.000033343               0.000710096               0.999999985              -0.000024441               0.000683738               0.999999985               0.000527487               0.001054588               0.999999985               0.000407003               0.000941373               0.999999985               0.000368862               0.000901571               0.999999985               0.000358021               0.000895642               0.999999985               0.000355326               0.000904371               0.999999985               0.000352139               0.000918237               0.999999985               0.000344391               0.000932100               0.999999985               0.000330660               0.000943256               0.999999985               0.000310455               0.000950294               0.999999985               0.000283270               0.000952489               0.999999985               0.000249144               0.000949719               0.999999985               0.000208359               0.000942186               0.999999985               0.000161332               0.000930567               0.999999985               0.000109244               0.000915986               0.999999985               0.000053723               0.000899683               0.999999985              -0.000004067               0.000882420               0.999999985              -0.000062687               0.000864918               0.999999985               0.000461035               0.001140338               0.999999985               0.000341625               0.001051053               0.999999985               0.000300872               0.001013766               0.999999985               0.000288486               0.001005075               0.999999985               0.000285593               0.001011413               0.999999985               0.000283428               0.001024654               0.999999985               0.000277941               0.001039954               0.999999985               0.000267473               0.001054460               0.999999985               0.000251074               0.001066482               0.999999985               0.000228242               0.001075078               0.999999985               0.000198855               0.001079673               0.999999985               0.000162892               0.001080343               0.999999985               0.000120233               0.001077440               0.999999985               0.000071560               0.001071604               0.999999985               0.000018034               0.001063688               0.999999985              -0.000039231               0.001054665               0.999999985              -0.000098707               0.001045375               0.999999985               0.000390469               0.001215795               0.999999985               0.000279115               0.001153945               0.999999985               0.000237691               0.001123751               0.999999985               0.000223525               0.001115754               0.999999985               0.000219642               0.001121495               0.999999985               0.000217699               0.001134827               0.999999985               0.000213718               0.001151675               0.999999985               0.000205912               0.001169392               0.999999985               0.000193005               0.001186084               0.999999985               0.000174388               0.001200590               0.999999985               0.000149755               0.001212245               0.999999985               0.000118757               0.001220776               0.999999985               0.000081121               0.001226149               0.999999985               0.000036738               0.001228792               0.999999985              -0.000013923               0.001229183               0.999999985              -0.000070120               0.001228044               0.999999985              -0.000130721               0.001226255               0.999999985               0.000316539               0.001279434               0.999999985               0.000219593               0.001245645               0.999999985               0.000180235               0.001225996               0.999999985               0.000165102               0.001221569               0.999999985               0.000160114               0.001228688               0.999999985               0.000157854               0.001243304               0.999999985               0.000154740               0.001262378               0.999999985               0.000148875               0.001283333               0.999999985               0.000139119               0.001304516               0.999999985               0.000124596               0.001324747               0.999999985               0.000104692               0.001343220               0.999999985               0.000079025               0.001359546               0.999999985               0.000047005               0.001373398               0.999999985               0.000008024               0.001384743               0.999999985              -0.000038241               0.001393780               0.999999985              -0.000091798               0.001401019               0.999999985              -0.000152790               0.001406951               0.999999985               0.000239868               0.001330203               0.999999985               0.000162585               0.001322011               0.999999985               0.000128689               0.001314362               0.999999985               0.000114301               0.001315417               0.999999985               0.000108833               0.001325330               0.999999985               0.000106377               0.001342134               0.999999985               0.000103720               0.001363759               0.999999985               0.000099497               0.001388114               0.999999985               0.000092514               0.001413662               0.999999985               0.000081776               0.001439489               0.999999985               0.000066621               0.001464674               0.999999985               0.000046626               0.001488626               0.999999985               0.000021131               0.001510924               0.999999985              -0.000010730               0.001531170               0.999999985              -0.000049901               0.001549195               0.999999985              -0.000097635               0.001565128               0.999999985              -0.000154954               0.001579291               0.999999985               0.000161104               0.001367180               0.999999985               0.000107409               0.001379448               0.999999985               0.000082444               0.001382793               0.999999985               0.000071078               0.001389710               0.999999985               0.000066306               0.001402938               0.999999985               0.000064005               0.001422302               0.999999985               0.000061928               0.001446342               0.999999985               0.000059162               0.001473682               0.999999985               0.000054587               0.001503260               0.999999985               0.000047440               0.001533986               0.999999985               0.000037270               0.001565060               0.999999985               0.000023650               0.001595765               0.999999985               0.000005972               0.001625560               0.999999985              -0.000016780               0.001653975               0.999999985              -0.000045769               0.001680638               0.999999985              -0.000082509               0.001705141               0.999999985              -0.000129080               0.001727318               0.999999985               0.000080912               0.001389664               0.999999985               0.000053403               0.001415116               0.999999985               0.000040166               0.001426179               0.999999985               0.000033895               0.001437621               0.999999985               0.000031095               0.001453682               0.999999985               0.000029620               0.001475034               0.999999985               0.000028477               0.001500887               0.999999985               0.000026955               0.001530342               0.999999985               0.000024714               0.001562561               0.999999985               0.000021257               0.001596648               0.999999985               0.000016195               0.001631804               0.999999985               0.000009281               0.001667365               0.999999985               0.000000223               0.001702687               0.999999985              -0.000011621               0.001737355               0.999999985              -0.000027121               0.001770856               0.999999985              -0.000047443               0.001802345               0.999999985              -0.000074175               0.001830984               0.999999985               0.000000000               0.001397222               0.999999985              -0.000000000               0.001427179               0.999999985               0.000000000               0.001441001               0.999999985               0.000000000               0.001454208               0.999999985               0.000000000               0.001471411               0.999999985              -0.000000000               0.001493518               0.999999985              -0.000000000               0.001520004               0.999999985               0.000000000               0.001550068               0.999999985               0.000000000               0.001583089               0.999999985               0.000000000               0.001618446               0.999999985               0.000000000               0.001655168               0.999999985               0.000000000               0.001692455               0.999999985               0.000000000               0.001729969               0.999999985               0.000000000               0.001767234               0.999999985              -0.000000000               0.001803487               0.999999985              -0.000000000               0.001837777               0.999999985              -0.000000000               0.001868959               0.999999985 </DataArray>
<DataArray type="Float64"                                    Name="defo"                                                      NumberOfComponents=" 3" format="ascii">
             -0.000865706              -0.000000000               0.999999985              -0.000916388               0.000000000               0.999999985              -0.000937714              -0.000000000               0.999999985              -0.000949589               0.000000000               0.999999985              -0.000959335               0.000000000               0.999999985              -0.000969759              -0.000000000               0.999999985              -0.000981433               0.000000000               0.999999985              -0.000994380               0.000000000               0.999999985              -0.001008339              -0.000000000               0.999999985              -0.001022898               0.000000000               0.999999985              -0.001037636               0.000000000               0.999999985              -0.001051987               0.000000000               0.999999985              -0.001065555               0.000000000               0.999999985              -0.001077908              -0.000000000               0.999999985              -0.001088605              -0.000000000               0.999999985              -0.001096987               0.000000000               0.999999985              -0.001102267              -0.000000000               0.999999985              -0.000860854               0.000132501               0.999999985              -0.000907359               0.000105702               0.999999985              -0.000926008               0.000093569               0.999999985              -0.000936201               0.000088831               0.999999985              -0.000944772               0.000087841               0.999999985              -0.000954102               0.000088629               0.999999985              -0.000964869               0.000089871               0.999999985              -0.000976906               0.000091042               0.999999985              -0.000989754               0.000091490               0.999999985              -0.001002991               0.000090888               0.999999985              -0.001016161               0.000089040               0.999999985              -0.001028843               0.000085701               0.999999985              -0.001040519               0.000080313               0.999999985              -0.001050731               0.000072534               0.999999985              -0.001059152               0.000062085               0.999999985              -0.001065226               0.000047773               0.999999985              -0.001068311               0.000028219               0.999999985              -0.000846485               0.000263761               0.999999985              -0.000880754               0.000210982               0.999999985              -0.000891882               0.000188005               0.999999985              -0.000897397               0.000179665               0.999999985              -0.000902876               0.000178486               0.999999985              -0.000909807               0.000180490               0.999999985              -0.000918210               0.000183418               0.999999985              -0.000927584               0.000185687               0.999999985              -0.000937308               0.000186544               0.999999985              -0.000946867               0.000185460               0.999999985              -0.000955782               0.000182050               0.999999985              -0.000963724               0.000175790               0.999999985              -0.000970266               0.000165801               0.999999985              -0.000974955               0.000151594               0.999999985              -0.000977479               0.000132538               0.999999985              -0.000977433               0.000107315               0.999999985              -0.000974668               0.000074259               0.999999985              -0.000822910               0.000392617               0.999999985              -0.000837938               0.000315530               0.999999985              -0.000838204               0.000284068               0.999999985              -0.000837457               0.000273876               0.999999985              -0.000838900               0.000273825               0.999999985              -0.000842711               0.000277827               0.999999985              -0.000847987               0.000282591               0.999999985              -0.000853719               0.000286093               0.999999985              -0.000859161               0.000287348               0.999999985              -0.000863714               0.000285882               0.999999985              -0.000867002               0.000281170               0.999999985              -0.000868490               0.000272640               0.999999985              -0.000867825               0.000259203               0.999999985              -0.000864824               0.000240340               0.999999985              -0.000859319               0.000215618               0.999999985              -0.000851180               0.000183951               0.999999985              -0.000840603               0.000144661               0.999999985              -0.000790519               0.000518007               0.999999985              -0.000781076               0.000419317               0.999999985              -0.000769238               0.000382272               0.999999985              -0.000762339               0.000372300               0.999999985              -0.000760207               0.000374428               0.999999985              -0.000761018               0.000380928               0.999999985              -0.000762977               0.000387721               0.999999985              -0.000764733               0.000392397               0.999999985              -0.000765272               0.000394111               0.999999985              -0.000764121               0.000392352               0.999999985              -0.000760807               0.000386800               0.999999985              -0.000754891               0.000376382               0.999999985              -0.000746072               0.000360388               0.999999985              -0.000734233               0.000338547               0.999999985              -0.000719475               0.000310595               0.999999985              -0.000701975               0.000276368               0.999999985              -0.000682348               0.000236194               0.999999985              -0.000749922               0.000638805               0.999999985              -0.000712892               0.000522562               0.999999985              -0.000689927               0.000482902               0.999999985              -0.000678465               0.000474759               0.999999985              -0.000673867               0.000479709               0.999999985              -0.000672402               0.000488871               0.999999985              -0.000671354               0.000497487               0.999999985              -0.000668996               0.000503215               0.999999985              -0.000664352               0.000505236               0.999999985              -0.000656901               0.000503357               0.999999985              -0.000646146               0.000496897               0.999999985              -0.000631839               0.000484911               0.999999985              -0.000613724               0.000467070               0.999999985              -0.000591944               0.000443460               0.999999985              -0.000567080               0.000414151               0.999999985              -0.000539714               0.000380000               0.999999985              -0.000510698               0.000342109               0.999999985              -0.000701889               0.000753806               0.999999985              -0.000636826               0.000625304               0.999999985              -0.000605419               0.000585643               0.999999985              -0.000591773               0.000580141               0.999999985              -0.000586433               0.000588016               0.999999985              -0.000583536               0.000599535               0.999999985              -0.000579619               0.000609577               0.999999985              -0.000572980               0.000616124               0.999999985              -0.000562663               0.000618407               0.999999985              -0.000548149               0.000615969               0.999999985              -0.000529117               0.000608475               0.999999985              -0.000505360               0.000594853               0.999999985              -0.000477214               0.000575266               0.999999985              -0.000445187               0.000550562               0.999999985              -0.000410068               0.000521301               0.999999985              -0.000372784               0.000488782               0.999999985              -0.000334382               0.000454422               0.999999985              -0.000647460               0.000861765               0.999999985              -0.000556681               0.000727208               0.999999985              -0.000520617               0.000689328               0.999999985              -0.000507635               0.000686516               0.999999985              -0.000502907               0.000696885               0.999999985              -0.000498966               0.000710191               0.999999985              -0.000492078               0.000721350               0.999999985              -0.000480561               0.000728503               0.999999985              -0.000463688               0.000730623               0.999999985              -0.000441126               0.000727267               0.999999985              -0.000412769               0.000718146               0.999999985              -0.000378840               0.000702787               0.999999985              -0.000340029               0.000681923               0.999999985              -0.000297161               0.000656962               0.999999985              -0.000251395               0.000628947               0.999999985              -0.000203935               0.000599051               0.999999985              -0.000155896               0.000568370               0.999999985              -0.000588449               0.000960750               0.999999985              -0.000475185               0.000828206               0.999999985              -0.000439886               0.000792353               0.999999985              -0.000429660               0.000791701               0.999999985              -0.000426262               0.000803931               0.999999985              -0.000421134               0.000818563               0.999999985              -0.000410635               0.000830560               0.999999985              -0.000393458               0.000837846               0.999999985              -0.000369030               0.000839313               0.999999985              -0.000337311               0.000834492               0.999999985              -0.000298558               0.000823402               0.999999985              -0.000253153               0.000806740               0.999999985              -0.000202330               0.000785677               0.999999985              -0.000147730               0.000761848               0.999999985              -0.000090938               0.000736377               0.999999985              -0.000033343               0.000710096               0.999999985               0.000024441               0.000683738               0.999999985              -0.000527487               0.001054588               0.999999985              -0.000407003               0.000941373               0.999999985              -0.000368862               0.000901571               0.999999985              -0.000358021               0.000895642               0.999999985              -0.000355326               0.000904371               0.999999985              -0.000352139               0.000918237               0.999999985              -0.000344391               0.000932100               0.999999985              -0.000330660               0.000943256               0.999999985              -0.000310455               0.000950294               0.999999985              -0.000283270               0.000952489               0.999999985              -0.000249144               0.000949719               0.999999985              -0.000208359               0.000942186               0.999999985              -0.000161332               0.000930567               0.999999985              -0.000109244               0.000915986               0.999999985              -0.000053723               0.000899683               0.999999985               0.000004067               0.000882420               0.999999985               0.000062687               0.000864918               0.999999985              -0.000461035               0.001140338               0.999999985              -0.000341625               0.001051053               0.999999985              -0.000300872               0.001013766               0.999999985              -0.000288486               0.001005075               0.999999985              -0.000285593               0.001011413               0.999999985              -0.000283428               0.001024654               0.999999985              -0.000277941               0.001039954               0.999999985              -0.000267473               0.001054460               0.999999985              -0.000251074               0.001066482               0.999999985              -0.000228242               0.001075078               0.999999985              -0.000198855               0.001079673               0.999999985              -0.000162892               0.001080343               0.999999985              -0.000120233               0.001077440               0.999999985              -0.000071560               0.001071604               0.999999985              -0.000018034               0.001063688               0.999999985               0.000039231               0.001054665               0.999999985               0.000098707               0.001045375               0.999999985              -0.000390469               0.001215795               0.999999985              -0.000279115               0.001153945               0.999999985              -0.000237691               0.001123751               0.999999985              -0.000223525               0.001115754               0.999999985              -0.000219642               0.001121495               0.999999985              -0.000217699               0.001134827               0.999999985              -0.000213718               0.001151675               0.999999985              -0.000205912               0.001169392               0.999999985              -0.000193005               0.001186084               0.999999985              -0.000174388               0.001200590               0.999999985              -0.000149755               0.001212245               0.999999985              -0.000118757               0.001220776               0.999999985              -0.000081121               0.001226149               0.999999985              -0.000036738               0.001228792               0.999999985               0.000013923               0.001229183               0.999999985               0.000070120               0.001228044               0.999999985               0.000130721               0.001226255               0.999999985              -0.000316539               0.001279434               0.999999985              -0.000219593               0.001245645               0.999999985              -0.000180235               0.001225996               0.999999985              -0.000165102               0.001221569               0.999999985              -0.000160114               0.001228688               0.999999985              -0.000157854               0.001243304               0.999999985              -0.000154740               0.001262378               0.999999985              -0.000148875               0.001283333               0.999999985              -0.000139119               0.001304516               0.999999985              -0.000124596               0.001324747               0.999999985              -0.000104692               0.001343220               0.999999985              -0.000079025               0.001359546               0.999999985              -0.000047005               0.001373398               0.999999985              -0.000008024               0.001384743               0.999999985               0.000038241               0.001393780               0.999999985               0.000091798               0.001401019               0.999999985               0.000152790               0.001406951               0.999999985              -0.000239868               0.001330203               0.999999985              -0.000162585               0.001322011               0.999999985              -0.000128689               0.001314362               0.999999985              -0.000114301               0.001315417               0.999999985              -0.000108833               0.001325330               0.999999985              -0.000106377               0.001342134               0.999999985              -0.000103720               0.001363759               0.999999985              -0.000099497               0.001388114               0.999999985              -0.000092514               0.001413662               0.999999985              -0.000081776               0.001439489               0.999999985              -0.000066621               0.001464674               0.999999985              -0.000046626               0.001488626               0.999999985              -0.000021131               0.001510924               0.999999985               0.000010730               0.001531170               0.999999985               0.000049901               0.001549195               0.999999985               0.000097635               0.001565128               0.999999985               0.000154954               0.001579291               0.999999985              -0.000161104               0.001367180               0.999999985              -0.000107409               0.001379448               0.999999985              -0.000082444               0.001382793               0.999999985              -0.000071078               0.001389710               0.999999985              -0.000066306               0.001402938               0.999999985              -0.000064005               0.001422302               0.999999985              -0.000061928               0.001446342               0.999999985              -0.000059162               0.001473682               0.999999985              -0.000054587               0.001503260               0.999999985              -0.000047440               0.001533986               0.999999985              -0.000037270               0.001565060               0.999999985              -0.000023650               0.001595765               0.999999985              -0.000005972               0.001625560               0.999999985               0.000016780               0.001653975               0.999999985               0.000045769               0.001680638               0.999999985               0.000082509               0.001705141               0.999999985               0.000129080               0.001727318               0.999999985              -0.000080912               0.001389664               0.999999985              -0.000053403               0.001415116               0.999999985              -0.000040166               0.001426179               0.999999985              -0.000033895               0.001437621               0.999999985              -0.000031095               0.001453682               0.999999985              -0.000029620               0.001475034               0.999999985              -0.000028477               0.001500887               0.999999985              -0.000026955               0.001530342               0.999999985              -0.000024714               0.001562561               0.999999985              -0.000021257               0.001596648               0.999999985              -0.000016195               0.001631804               0.999999985              -0.000009281               0.001667365               0.999999985              -0.000000223               0.001702687               0.999999985               0.000011621               0.001737355               0.999999985               0.000027121               0.001770856               0.999999985               0.000047443               0.001802345               0.999999985               0.000074175               0.001830984               0.999999985               0.000000000               0.001397222               0.999999985              -0.000000000               0.001427179               0.999999985               0.000000000               0.001441001               0.999999985               0.000000000               0.001454208               0.999999985               0.000000000               0.001471411               0.999999985              -0.000000000               0.001493518               0.999999985              -0.000000000               0.001520004               0.999999985               0.000000000               0.001550068               0.999999985               0.000000000               0.001583089               0.999999985               0.000000000               0.001618446               0.999999985               0.000000000               0.001655168               0.999999985               0.000000000               0.001692455               0.999999985               0.000000000               0.001729969               0.999999985               0.000000000               0.001767234               0.999999985              -0.000000000               0.001803487               0.999999985              -0.000000000               0.001837777               0.999999985              -0.000000000               0.001868959               0.999999985              -0.000865706              -0.000000000               0.999999985              -0.000916388               0.000000000               0.999999985              -0.000937714              -0.000000000               0.999999985              -0.000949589               0.000000000               0.999999985              -0.000959335               0.000000000               0.999999985              -0.000969759              -0.000000000               0.999999985              -0.000981433               0.000000000               0.999999985              -0.000994380               0.000000000               0.999999985              -0.001008339              -0.000000000               0.999999985              -0.001022898               0.000000000               0.999999985              -0.001037636               0.000000000               0.999999985              -0.001051987               0.000000000               0.999999985              -0.001065555               0.000000000               0.999999985              -0.001077908              -0.000000000               0.999999985              -0.001088605              -0.000000000               0.999999985              -0.001096987               0.000000000               0.999999985              -0.001102267              -0.000000000               0.999999985              -0.000860854              -0.000132501               0.999999985              -0.000907359              -0.000105702               0.999999985              -0.000926008              -0.000093569               0.999999985              -0.000936201              -0.000088831               0.999999985              -0.000944772              -0.000087841               0.999999985              -0.000954102              -0.000088629               0.999999985              -0.000964869              -0.000089871               0.999999985              -0.000976906              -0.000091042               0.999999985              -0.000989754              -0.000091490               0.999999985              -0.001002991              -0.000090888               0.999999985              -0.001016161              -0.000089040               0.999999985              -0.001028843              -0.000085701               0.999999985              -0.001040519              -0.000080313               0.999999985              -0.001050731              -0.000072534               0.999999985              -0.001059152              -0.000062085               0.999999985              -0.001065226              -0.000047773               0.999999985              -0.001068311              -0.000028219               0.999999985              -0.000846485              -0.000263761               0.999999985              -0.000880754              -0.000210982               0.999999985              -0.000891882              -0.000188005               0.999999985              -0.000897397              -0.000179665               0.999999985              -0.000902876              -0.000178486               0.999999985              -0.000909807              -0.000180490               0.999999985              -0.000918210              -0.000183418               0.999999985              -0.000927584              -0.000185687               0.999999985              -0.000937308              -0.000186544               0.999999985              -0.000946867              -0.000185460               0.999999985              -0.000955782              -0.000182050               0.999999985              -0.000963724              -0.000175790               0.999999985              -0.000970266              -0.000165801               0.999999985              -0.000974955              -0.000151594               0.999999985              -0.000977479              -0.000132538               0.999999985              -0.000977433              -0.000107315               0.999999985              -0.000974668              -0.000074259               0.999999985              -0.000822910              -0.000392617               0.999999985              -0.000837938              -0.000315530               0.999999985              -0.000838204              -0.000284068               0.999999985              -0.000837457              -0.000273876               0.999999985              -0.000838900              -0.000273825               0.999999985              -0.000842711              -0.000277827               0.999999985              -0.000847987              -0.000282591               0.999999985              -0.000853719              -0.000286093               0.999999985              -0.000859161              -0.000287348               0.999999985              -0.000863714              -0.000285882               0.999999985              -0.000867002              -0.000281170               0.999999985              -0.000868490              -0.000272640               0.999999985              -0.000867825              -0.000259203               0.999999985              -0.000864824              -0.000240340               0.999999985              -0.000859319              -0.000215618               0.999999985              -0.000851180              -0.000183951               0.999999985              -0.000840603              -0.000144661               0.999999985              -0.000790519              -0.000518007               0.999999985              -0.000781076              -0.000419317               0.999999985              -0.000769238              -0.000382272               0.999999985              -0.000762339              -0.000372300               0.999999985              -0.000760207              -0.000374428               0.999999985              -0.000761018              -0.000380928               0.999999985              -0.000762977              -0.000387721               0.999999985              -0.000764733              -0.000392397               0.999999985              -0.000765272              -0.000394111               0.999999985              -0.000764121              -0.000392352               0.999999985              -0.000760807              -0.000386800               0.999999985              -0.000754891              -0.000376382               0.999999985              -0.000746072              -0.000360388               0.999999985              -0.000734233              -0.000338547               0.999999985              -0.000719475              -0.000310595               0.999999985              -0.000701975              -0.000276368               0.999999985              -0.000682348              -0.000236194               0.999999985              -0.000749922              -0.000638805               0.999999985              -0.000712892              -0.000522562               0.999999985              -0.000689927              -0.000482902               0.999999985              -0.000678465              -0.000474759               0.999999985              -0.000673867              -0.000479709               0.999999985              -0.000672402              -0.000488871               0.999999985              -0.000671354              -0.000497487               0.999999985              -0.000668996              -0.000503215               0.999999985              -0.000664352              -0.000505236               0.999999985              -0.000656901              -0.000503357               0.999999985              -0.000646146              -0.000496897               0.999999985              -0.000631839              -0.000484911               0.999999985              -0.000613724              -0.000467070               0.999999985              -0.000591944              -0.000443460               0.999999985              -0.000567080              -0.000414151               0.999999985              -0.000539714              -0.000380000               0.999999985              -0.000510698              -0.000342109               0.999999985              -0.000701889              -0.000753806               0.999999985              -0.000636826              -0.000625304               0.999999985              -0.000605419              -0.000585643               0.999999985              -0.000591773              -0.000580141               0.999999985              -0.000586433              -0.000588016               0.999999985              -0.000583536              -0.000599535               0.999999985              -0.000579619              -0.000609577               0.999999985              -0.000572980              -0.000616124               0.999999985              -0.000562663              -0.000618407               0.999999985              -0.000548149              -0.000615969               0.999999985              -0.000529117              -0.000608475               0.999999985              -0.000505360              -0.000594853               0.999999985              -0.000477214              -0.000575266               0.999999985              -0.000445187              -0.000550562               0.999999985              -0.000410068              -0.000521301               0.999999985              -0.000372784              -0.000488782               0.999999985              -0.000334382              -0.000454422               0.999999985              -0.000647460              -0.000861765               0.999999985              -0.000556681              -0.000727208               0.999999985              -0.000520617              -0.000689328               0.999999985              -0.000507635              -0.000686516               0.999999985              -0.000502907              -0.000696885               0.999999985              -0.000498966              -0.000710191               0.999999985              -0.000492078              -0.000721350               0.999999985              -0.000480561              -0.000728503               0.999999985              -0.000463688              -0.000730623               0.999999985              -0.000441126              -0.000727267               0.999999985              -0.000412769              -0.000718146               0.999999985              -0.000378840              -0.000702787               0.999999985              -0.000340029              -0.000681923               0.999999985              -0.000297161              -0.000656962               0.999999985              -0.000251395              -0.000628947               0.999999985              -0.000203935              -0.000599051               0.999999985              -0.000155896              -0.000568370               0.999999985              -0.000588449              -0.000960750               0.999999985              -0.000475185              -0.000828206               0.999999985              -0.000439886              -0.000792353               0.999999985              -0.000429660              -0.000791701               0.999999985              -0.000426262              -0.000803931               0.999999985              -0.000421134              -0.000818563               0.999999985              -0.000410635              -0.000830560               0.999999985              -0.000393458              -0.000837846               0.999999985              -0.000369030              -0.000839313               0.999999985              -0.000337311              -0.000834492               0.999999985              -0.000298558              -0.000823402               0.999999985              -0.000253153              -0.000806740               0.999999985              -0.000202330              -0.000785677               0.999999985              -0.000147730              -0.000761848               0.999999985              -0.000090938              -0.000736377               0.999999985              -0.000033343              -0.000710096               0.999999985               0.000024441              -0.000683738               0.999999985              -0.000527487              -0.001054588               0.999999985              -0.000407003              -0.000941373               0.999999985              -0.000368862              -0.000901571               0.999999985              -0.000358021              -0.000895642               0.999999985              -0.000355326              -0.000904371               0.999999985              -0.000352139              -0.000918237               0.999999985              -0.000344391              -0.000932100               0.999999985              -0.000330660              -0.000943256               0.999999985              -0.000310455              -0.000950294               0.999999985              -0.000283270              -0.000952489               0.999999985              -0.000249144              -0.000949719               0.999999985              -0.000208359              -0.000942186               0.999999985              -0.000161332              -0.000930567               0.999999985              -0.000109244              -0.000915986               0.999999985              -0.000053723              -0.000899683               0.999999985               0.000004067              -0.000882420               0.999999985               0.000062687              -0.000864918               0.999999985              -0.000461035              -0.001140338               0.999999985              -0.000341625              -0.001051053               0.999999985              -0.000300872              -0.001013766               0.999999985              -0.000288486              -0.001005075               0.999999985              -0.000285593              -0.001011413               0.999999985              -0.000283428              -0.001024654               0.999999985              -0.000277941              -0.001039954               0.999999985              -0.000267473              -0.001054460               0.999999985              -0.000251074              -0.001066482               0.999999985              -0.000228242              -0.001075078               0.999999985              -0.000198855              -0.001079673               0.999999985              -0.000162892              -0.001080343               0.999999985              -0.000120233              -0.001077440               0.999999985              -0.000071560              -0.001071604               0.999999985              -0.000018034              -0.001063688               0.999999985               0.000039231              -0.001054665               0.999999985               0.000098707              -0.001045375               0.999999985              -0.000390469              -0.001215795               0.999999985              -0.000279115              -0.001153945               0.999999985              -0.000237691              -0.001123751               0.999999985              -0.000223525              -0.001115754               0.999999985              -0.000219642              -0.001121495               0.999999985              -0.000217699              -0.001134827               0.999999985              -0.000213718              -0.001151675               0.999999985              -0.000205912              -0.001169392               0.999999985              -0.000193005              -0.001186084               0.999999985              -0.000174388              -0.001200590               0.999999985              -0.000149755              -0.001212245               0.999999985              -0.000118757              -0.001220776               0.999999985              -0.000081121              -0.001226149               0.999999985              -0.000036738              -0.001228792               0.999999985               0.000013923              -0.001229183               0.999999985               0.000070120              -0.001228044               0.999999985               0.000130721              -0.001226255               0.999999985              -0.000316539              -0.001279434               0.999999985              -0.000219593              -0.001245645               0.999999985              -0.000180235              -0.001225996               0.999999985              -0.000165102              -0.001221569               0.999999985              -0.000160114              -0.001228688               0.999999985              -0.000157854              -0.001243304               0.999999985              -0.000154740              -0.001262378               0.999999985              -0.000148875              -0.001283333               0.999999985              -0.000139119              -0.001304516               0.999999985              -0.000124596              -0.001324747               0.999999985              -0.000104692              -0.001343220               0.999999985              -0.000079025              -0.001359546               0.999999985              -0.000047005              -0.001373398               0.999999985              -0.000008024              -0.001384743               0.999999985               0.000038241              -0.001393780               0.999999985               0.000091798              -0.001401019               0.999999985               0.000152790              -0.001406951               0.999999985              -0.000239868              -0.001330203               0.999999985              -0.000162585              -0.001322011               0.999999985              -0.000128689              -0.001314362               0.999999985              -0.000114301              -0.001315417               0.999999985              -0.000108833              -0.001325330               0.999999985              -0.000106377              -0.001342134               0.999999985              -0.000103720              -0.001363759               0.999999985              -0.000099497              -0.001388114               0.999999985              -0.000092514              -0.001413662               0.999999985              -0.000081776              -0.001439489               0.999999985              -0.000066621              -0.001464674               0.999999985              -0.000046626              -0.001488626               0.999999985              -0.000021131              -0.001510924               0.999999985               0.000010730              -0.001531170               0.999999985               0.000049901              -0.001549195               0.999999985               0.000097635              -0.001565128               0.999999985               0.000154954              -0.001579291               0.999999985              -0.000161104              -0.001367180               0.999999985              -0.000107409              -0.001379448               0.999999985              -0.000082444              -0.001382793               0.999999985              -0.000071078              -0.001389710               0.999999985              -0.000066306              -0.001402938               0.999999985              -0.000064005              -0.001422302               0.999999985              -0.000061928              -0.001446342               0.999999985              -0.000059162              -0.001473682               0.999999985              -0.000054587              -0.001503260               0.999999985              -0.000047440              -0.001533986               0.999999985              -0.000037270              -0.001565060               0.999999985              -0.000023650              -0.001595765               0.999999985              -0.000005972              -0.001625560               0.999999985               0.000016780              -0.001653975               0.999999985               0.000045769              -0.001680638               0.999999985               0.000082509              -0.001705141               0.999999985               0.000129080              -0.001727318               0.999999985              -0.000080912              -0.001389664               0.999999985              -0.000053403              -0.001415116               0.999999985              -0.000040166              -0.001426179               0.999999985              -0.000033895              -0.001437621               0.999999985              -0.000031095              -0.001453682               0.999999985              -0.000029620              -0.001475034               0.999999985              -0.000028477              -0.001500887               0.999999985              -0.000026955              -0.001530342               0.999999985              -0.000024714              -0.001562561               0.999999985              -0.000021257              -0.001596648               0.999999985              -0.000016195              -0.001631804               0.999999985              -0.000009281              -0.001667365               0.999999985              -0.000000223              -0.001702687               0.999999985               0.000011621              -0.001737355               0.999999985               0.000027121              -0.001770856               0.999999985               0.000047443              -0.001802345               0.999999985               0.000074175              -0.001830984               0.999999985              -0.000000000              -0.001397222               0.999999985               0.000000000              -0.001427179               0.999999985              -0.000000000              -0.001441001               0.999999985              -0.000000000              -0.001454208               0.999999985               0.000000000              -0.001471411               0.999999985              -0.000000000              -0.001493518               0.999999985              -0.000000000              -0.001520004               0.999999985              -0.000000000              -0.001550068               0.999999985              -0.000000000              -0.001583089               0.999999985              -0.000000000              -0.001618446               0.999999985              -0.000000000              -0.001655168               0.999999985               0.000000000              -0.001692455               0.999999985               0.000000000              -0.001729969               0.999999985               0.000000000              -0.001767234               0.999999985               0.000000000              -0.001803487               0.999999985              -0.000000000              -0.001837777               0.999999985               0.000000000              -0.001868959               0.999999985               0.000865706              -0.000000000               0.999999985               0.000916388              -0.000000000               0.999999985               0.000937714              -0.000000000               0.999999985               0.000949589               0.000000000               0.999999985               0.000959335               0.000000000               0.999999985               0.000969759               0.000000000               0.999999985               0.000981433              -0.000000000               0.999999985               0.000994380               0.000000000               0.999999985               0.001008339               0.000000000               0.999999985               0.001022898               0.000000000               0.999999985               0.001037636               0.000000000               0.999999985               0.001051987               0.000000000               0.999999985               0.001065555               0.000000000               0.999999985               0.001077908              -0.000000000               0.999999985               0.001088605               0.000000000               0.999999985               0.001096987               0.000000000               0.999999985               0.001102267               0.000000000               0.999999985               0.000860854              -0.000132501               0.999999985               0.000907359              -0.000105702               0.999999985               0.000926008              -0.000093569               0.999999985               0.000936201              -0.000088831               0.999999985               0.000944772              -0.000087841               0.999999985               0.000954102              -0.000088629               0.999999985               0.000964869              -0.000089871               0.999999985               0.000976906              -0.000091042               0.999999985               0.000989754              -0.000091490               0.999999985               0.001002991              -0.000090888               0.999999985               0.001016161              -0.000089040               0.999999985               0.001028843              -0.000085701               0.999999985               0.001040519              -0.000080313               0.999999985               0.001050731              -0.000072534               0.999999985               0.001059152              -0.000062085               0.999999985               0.001065226              -0.000047773               0.999999985               0.001068311              -0.000028219               0.999999985               0.000846485              -0.000263761               0.999999985               0.000880754              -0.000210982               0.999999985               0.000891882              -0.000188005               0.999999985               0.000897397              -0.000179665               0.999999985               0.000902876              -0.000178486               0.999999985               0.000909807              -0.000180490               0.999999985               0.000918210              -0.000183418               0.999999985               0.000927584              -0.000185687               0.999999985               0.000937308              -0.000186544               0.999999985               0.000946867              -0.000185460               0.999999985               0.000955782              -0.000182050               0.999999985               0.000963724              -0.000175790               0.999999985               0.000970266              -0.000165801               0.999999985               0.000974955              -0.000151594               0.999999985               0.000977479              -0.000132538               0.999999985               0.000977433              -0.000107315               0.999999985               0.000974668              -0.000074259               0.999999985               0.000822910              -0.000392617               0.999999985               0.000837938              -0.000315530               0.999999985               0.000838204              -0.000284068               0.999999985               0.000837457              -0.000273876               0.999999985               0.000838900              -0.000273825               0.999999985               0.000842711              -0.000277827               0.999999985               0.000847987              -0.000282591               0.999999985               0.000853719              -0.000286093               0.999999985               0.000859161              -0.000287348               0.999999985               0.000863714              -0.000285882               0.999999985               0.000867002              -0.000281170               0.999999985               0.000868490              -0.000272640               0.999999985               0.000867825              -0.000259203               0.999999985               0.000864824              -0.000240340               0.999999985               0.000859319              -0.000215618               0.999999985               0.000851180              -0.000183951               0.999999985               0.000840603              -0.000144661               0.999999985               0.000790519              -0.000518007               0.999999985               0.000781076              -0.000419317               0.999999985               0.000769238              -0.000382272               0.999999985               0.000762339              -0.000372300               0.999999985               0.000760207              -0.000374428               0.999999985               0.000761018              -0.000380928               0.999999985               0.000762977              -0.000387721               0.999999985               0.000764733              -0.000392397               0.999999985               0.000765272              -0.000394111               0.999999985               0.000764121              -0.000392352               0.999999985               0.000760807              -0.000386800               0.999999985               0.000754891              -0.000376382               0.999999985               0.000746072              -0.000360388               0.999999985               0.000734233              -0.000338547               0.999999985               0.000719475              -0.000310595               0.999999985               0.000701975              -0.000276368               0.999999985               0.000682348              -0.000236194               0.999999985               0.000749922              -0.000638805               0.999999985               0.000712892              -0.000522562               0.999999985               0.000689927              -0.000482902               0.999999985               0.000678465              -0.000474759               0.999999985               0.000673867              -0.000479709               0.999999985               0.000672402              -0.000488871               0.999999985               0.000671354              -0.000497487               0.999999985               0.000668996              -0.000503215               0.999999985               0.000664352              -0.000505236               0.999999985               0.000656901              -0.000503357               0.999999985               0.000646146              -0.000496897               0.999999985               0.000631839              -0.000484911               0.999999985               0.000613724              -0.000467070               0.999999985               0.000591944              -0.000443460               0.999999985               0.000567080              -0.000414151               0.999999985               0.000539714              -0.000380000               0.999999985               0.000510698              -0.000342109               0.999999985               0.000701889              -0.000753806               0.999999985               0.000636826              -0.000625304               0.999999985               0.000605419              -0.000585643               0.999999985               0.000591773              -0.000580141               0.999999985               0.000586433              -0.000588016               0.999999985               0.000583536              -0.000599535               0.999999985               0.000579619              -0.000609577               0.999999985               0.000572980              -0.000616124               0.999999985               0.000562663              -0.000618407               0.999999985               0.000548149              -0.000615969               0.999999985               0.000529117              -0.000608475               0.999999985               0.000505360              -0.000594853               0.999999985               0.000477214              -0.000575266               0.999999985               0.000445187              -0.000550562               0.999999985               0.000410068              -0.000521301               0.999999985               0.000372784              -0.000488782               0.999999985               0.000334382              -0.000454422               0.999999985               0.000647460              -0.000861765               0.999999985               0.000556681              -0.000727208               0.999999985               0.000520617              -0.000689328               0.999999985               0.000507635              -0.000686516               0.999999985               0.000502907              -0.000696885               0.999999985               0.000498966              -0.000710191               0.999999985               0.000492078              -0.000721350               0.999999985               0.000480561              -0.000728503               0.999999985               0.000463688              -0.000730623               0.999999985               0.000441126              -0.000727267               0.999999985               0.000412769              -0.000718146               0.999999985               0.000378840              -0.000702787               0.999999985               0.000340029              -0.000681923               0.999999985               0.000297161              -0.000656962               0.999999985               0.000251395              -0.000628947               0.999999985               0.000203935              -0.000599051               0.999999985               0.000155896              -0.000568370               0.999999985               0.000588449              -0.000960750               0.999999985               0.000475185              -0.000828206               0.999999985               0.000439886              -0.000792353               0.999999985               0.000429660              -0.000791701               0.999999985               0.000426262              -0.000803931               0.999999985               0.000421134              -0.000818563               0.999999985               0.000410635              -0.000830560               0.999999985               0.000393458              -0.000837846               0.999999985               0.000369030              -0.000839313               0.999999985               0.000337311              -0.000834492               0.999999985               0.000298558              -0.000823402               0.999999985               0.000253153              -0.000806740               0.999999985               0.000202330              -0.000785677               0.999999985               0.000147730              -0.000761848               0.999999985               0.000090938              -0.000736377               0.999999985               0.000033343              -0.000710096               0.999999985              -0.000024441              -0.000683738               0.999999985               0.000527487              -0.001054588               0.999999985               0.000407003              -0.000941373               0.999999985               0.000368862              -0.000901571               0.999999985               0.000358021              -0.000895642               0.999999985               0.000355326              -0.000904371               0.999999985               0.000352139              -0.000918237               0.999999985               0.000344391              -0.000932100               0.999999985               0.000330660              -0.000943256               0.999999985               0.000310455              -0.000950294               0.999999985               0.000283270              -0.000952489               0.999999985               0.000249144              -0.000949719               0.999999985               0.000208359              -0.000942186               0.999999985               0.000161332              -0.000930567               0.999999985               0.000109244              -0.000915986               0.999999985               0.000053723              -0.000899683               0.999999985              -0.000004067              -0.000882420               0.999999985              -0.000062687              -0.000864918               0.999999985               0.000461035              -0.001140338               0.999999985               0.000341625              -0.001051053               0.999999985               0.000300872              -0.001013766               0.999999985               0.000288486              -0.001005075               0.999999985               0.000285593              -0.001011413               0.999999985               0.000283428              -0.001024654               0.999999985               0.000277941              -0.001039954               0.999999985               0.000267473              -0.001054460               0.999999985               0.000251074              -0.001066482               0.999999985               0.000228242              -0.001075078               0.999999985               0.000198855              -0.001079673               0.999999985               0.000162892              -0.001080343               0.999999985               0.000120233              -0.001077440               0.999999985               0.000071560              -0.001071604               0.999999985               0.000018034              -0.001063688               0.999999985              -0.000039231              -0.001054665               0.999999985              -0.000098707              -0.001045375               0.999999985               0.000390469              -0.001215795               0.999999985               0.000279115              -0.001153945               0.999999985               0.000237691              -0.001123751               0.999999985               0.000223525              -0.001115754               0.999999985               0.000219642              -0.001121495               0.999999985               0.000217699              -0.001134827               0.999999985               0.000213718              -0.001151675               0.999999985               0.000205912              -0.001169392               0.999999985               0.000193005              -0.001186084               0.999999985               0.000174388              -0.001200590               0.999999985               0.000149755              -0.001212245               0.999999985               0.000118757              -0.001220776               0.999999985               0.000081121              -0.001226149               0.999999985               0.000036738              -0.001228792               0.999999985              -0.000013923              -0.001229183               0.999999985              -0.000070120              -0.001228044               0.999999985              -0.000130721              -0.001226255               0.999999985               0.000316539              -0.001279434               0.999999985               0.000219593              -0.001245645               0.999999985               0.000180235              -0.001225996               0.999999985               0.000165102              -0.001221569               0.999999985               0.000160114              -0.001228688               0.999999985               0.000157854              -0.001243304               0.999999985               0.000154740              -0.001262378               0.999999985               0.000148875              -0.001283333               0.999999985               0.000139119              -0.001304516               0.999999985               0.000124596              -0.001324747               0.999999985               0.000104692              -0.001343220               0.999999985               0.000079025              -0.001359546               0.999999985               0.000047005              -0.001373398               0.999999985               0.000008024              -0.001384743               0.999999985              -0.000038241              -0.001393780               0.999999985              -0.000091798              -0.001401019               0.999999985              -0.000152790              -0.001406951               0.999999985               0.000239868              -0.001330203               0.999999985               0.000162585              -0.001322011               0.999999985               0.000128689              -0.001314362               0.999999985               0.000114301              -0.001315417               0.999999985               0.000108833              -0.001325330               0.999999985               0.000106377              -0.001342134               0.999999985               0.000103720              -0.001363759               0.999999985               0.000099497              -0.001388114               0.999999985               0.000092514              -0.001413662               0.999999985               0.000081776              -0.001439489               0.999999985               0.000066621              -0.001464674               0.999999985               0.000046626              -0.001488626               0.999999985               0.000021131              -0.001510924               0.999999985              -0.000010730              -0.001531170               0.999999985              -0.000049901              -0.001549195               0.999999985              -0.000097635              -0.001565128               0.999999985              -0.000154954              -0.001579291               0.999999985               0.000161104              -0.001367180               0.999999985               0.000107409              -0.001379448               0.999999985               0.000082444              -0.001382793               0.999999985               0.000071078              -0.001389710               0.999999985               0.000066306              -0.001402938               0.999999985               0.000064005              -0.001422302               0.999999985               0.000061928              -0.001446342               0.999999985               0.000059162              -0.001473682               0.999999985               0.000054587              -0.001503260               0.999999985               0.000047440              -0.001533986               0.999999985               0.000037270              -0.001565060               0.999999985               0.000023650              -0.001595765               0.999999985               0.000005972              -0.001625560               0.999999985              -0.000016780              -0.001653975               0.999999985              -0.000045769              -0.001680638               0.999999985              -0.000082509              -0.001705141               0.999999985              -0.000129080              -0.001727318               0.999999985               0.000080912              -0.001389664               0.999999985               0.000053403              -0.001415116               0.999999985               0.000040166              -0.001426179               0.999999985               0.000033895              -0.001437621               0.999999985               0.000031095              -0.001453682               0.999999985               0.000029620              -0.001475034               0.999999985               0.000028477              -0.001500887               0.999999985               0.000026955              -0.001530342               0.999999985               0.000024714              -0.001562561               0.999999985               0.000021257              -0.001596648               0.999999985               0.000016195              -0.001631804               0.999999985               0.000009281              -0.001667365               0.999999985               0.000000223              -0.001702687               0.999999985              -0.000011621              -0.001737355               0.999999985              -0.000027121              -0.001770856               0.999999985              -0.000047443              -0.001802345               0.999999985              -0.000074175              -0.001830984               0.999999985              -0.000000000              -0.001397222               0.999999985               0.000000000              -0.001427179               0.999999985              -0.000000000              -0.001441001               0.999999985              -0.000000000              -0.001454208               0.999999985               0.000000000              -0.001471411               0.999999985              -0.000000000              -0.001493518               0.999999985              -0.000000000              -0.001520004               0.999999985              -0.000000000              -0.001550068               0.999999985              -0.000000000              -0.001583089               0.999999985              -0.000000000              -0.001618446               0.999999985              -0.000000000              -0.001655168               0.999999985               0.000000000              -0.001692455               0.999999985               0.000000000              -0.001729969               0.999999985               0.000000000              -0.001767234               0.999999985               0.000000000              -0.001803487               0.999999985              -0.000000000              -0.001837777               0.999999985               0.000000000              -0.001868959               0.999999985               0.000865706              -0.000000000               0.999999985               0.000916388              -0.000000000               0.999999985               0.000937714              -0.000000000               0.999999985               0.000949589               0.000000000               0.999999985               0.000959335               0.000000000               0.999999985               0.000969759               0.000000000               0.999999985               0.000981433              -0.000000000               0.999999985               0.000994380               0.000000000               0.999999985               0.001008339               0.000000000               0.999999985               0.001022898               0.000000000               0.999999985               0.001037636               0.000000000               0.999999985               0.001051987               0.000000000               0.999999985               0.001065555               0.000000000               0.999999985               0.001077908              -0.000000000               0.999999985               0.001088605               0.000000000               0.999999985               0.001096987               0.000000000               0.999999985               0.001102267               0.000000000               0.999999985               0.000860854               0.000132501               0.999999985               0.000907359               0.000105702               0.999999985               0.000926008               0.000093569               0.999999985               0.000936201               0.000088831               0.999999985               0.000944772               0.000087841               0.999999985               0.000954102               0.000088629               0.999999985               0.000964869               0.000089871               0.999999985               0.000976906               0.000091042               0.999999985               0.000989754               0.000091490               0.999999985               0.001002991               0.000090888               0.999999985               0.001016161               0.000089040               0.999999985               0.001028843               0.000085701               0.999999985               0.001040519               0.000080313               0.999999985               0.001050731               0.000072534               0.999999985               0.001059152               0.000062085               0.999999985               0.001065226               0.000047773               0.999999985               0.001068311               0.000028219               0.999999985               0.000846485               0.000263761               0.999999985               0.000880754               0.000210982               0.999999985               0.000891882               0.000188005               0.999999985               0.000897397               0.000179665               0.999999985               0.000902876               0.000178486               0.999999985               0.000909807               0.000180490               0.999999985               0.000918210               0.000183418               0.999999985               0.000927584               0.000185687               0.999999985               0.000937308               0.000186544               0.999999985               0.000946867               0.000185460               0.999999985               0.000955782               0.000182050               0.999999985               0.000963724               0.000175790               0.999999985               0.000970266               0.000165801               0.999999985               0.000974955               0.000151594               0.999999985               0.000977479               0.000132538               0.999999985               0.000977433               0.000107315               0.999999985               0.000974668               0.000074259               0.999999985               0.000822910               0.000392617               0.999999985               0.000837938               0.000315530               0.999999985               0.000838204               0.000284068               0.999999985               0.000837457               0.000273876               0.999999985               0.000838900               0.000273825               0.999999985               0.000842711               0.000277827               0.999999985               0.000847987               0.000282591               0.999999985               0.000853719               0.000286093               0.999999985               0.000859161               0.000287348               0.999999985               0.000863714               0.000285882               0.999999985               0.000867002               0.000281170               0.999999985               0.000868490               0.000272640               0.999999985               0.000867825               0.000259203               0.999999985               0.000864824               0.000240340               0.999999985               0.000859319               0.000215618               0.999999985               0.000851180               0.000183951               0.999999985               0.000840603               0.000144661               0.999999985               0.000790519               0.000518007               0.999999985               0.000781076               0.000419317               0.999999985               0.000769238               0.000382272               0.999999985               0.000762339               0.000372300               0.999999985               0.000760207               0.000374428               0.999999985               0.000761018               0.000380928               0.999999985               0.000762977               0.000387721               0.999999985               0.000764733               0.000392397               0.999999985               0.000765272               0.000394111               0.999999985               0.000764121               0.000392352               0.999999985               0.000760807               0.000386800               0.999999985               0.000754891               0.000376382               0.999999985               0.000746072               0.000360388               0.999999985               0.000734233               0.000338547               0.999999985               0.000719475               0.000310595               0.999999985               0.000701975               0.000276368               0.999999985               0.000682348               0.000236194               0.999999985               0.000749922               0.000638805               0.999999985               0.000712892               0.000522562               0.999999985               0.000689927               0.000482902               0.999999985               0.000678465               0.000474759               0.999999985               0.000673867               0.000479709               0.999999985               0.000672402               0.000488871               0.999999985               0.000671354               0.000497487               0.999999985               0.000668996               0.000503215               0.999999985               0.000664352               0.000505236               0.999999985               0.000656901               0.000503357               0.999999985               0.000646146               0.000496897               0.999999985               0.000631839               0.000484911               0.999999985               0.000613724               0.000467070               0.999999985               0.000591944               0.000443460               0.999999985               0.000567080               0.000414151               0.999999985               0.000539714               0.000380000               0.999999985               0.000510698               0.000342109               0.999999985               0.000701889               0.000753806               0.999999985               0.000636826               0.000625304               0.999999985               0.000605419               0.000585643               0.999999985               0.000591773               0.000580141               0.999999985               0.000586433               0.000588016               0.999999985               0.000583536               0.000599535               0.999999985               0.000579619               0.000609577               0.999999985               0.000572980               0.000616124               0.999999985               0.000562663               0.000618407               0.999999985               0.000548149               0.000615969               0.999999985               0.000529117               0.000608475               0.999999985               0.000505360               0.000594853               0.999999985               0.000477214               0.000575266               0.999999985               0.000445187               0.000550562               0.999999985               0.000410068               0.000521301               0.999999985               0.000372784               0.000488782               0.999999985               0.000334382               0.000454422               0.999999985               0.000647460               0.000861765               0.999999985               0.000556681               0.000727208               0.999999985               0.000520617               0.000689328               0.999999985               0.000507635               0.000686516               0.999999985               0.000502907               0.000696885               0.999999985               0.000498966               0.000710191               0.999999985               0.000492078               0.000721350               0.999999985               0.000480561               0.000728503               0.999999985               0.000463688               0.000730623               0.999999985               0.000441126               0.000727267               0.999999985               0.000412769               0.000718146               0.999999985               0.000378840               0.000702787               0.999999985               0.000340029               0.000681923               0.999999985               0.000297161               0.000656962               0.999999985               0.000251395               0.000628947               0.999999985               0.000203935               0.000599051               0.999999985               0.000155896               0.000568370               0.999999985               0.000588449               0.000960750               0.999999985               0.000475185               0.000828206               0.999999985               0.000439886               0.000792353               0.999999985               0.000429660               0.000791701               0.999999985               0.000426262               0.000803931               0.999999985               0.000421134               0.000818563               0.999999985               0.000410635               0.000830560               0.999999985               0.000393458               0.000837846               0.999999985               0.000369030               0.000839313               0.999999985               0.000337311               0.000834492               0.999999985               0.000298558               0.000823402               0.999999985               0.000253153               0.000806740               0.999999985               0.000202330               0.000785677               0.999999985               0.000147730               0.000761848               0.999999985               0.000090938               0.000736377               0.999999985               0.000033343               0.000710096               0.999999985              -0.000024441               0.000683738               0.999999985               0.000527487               0.001054588               0.999999985               0.000407003               0.000941373               0.999999985               0.000368862               0.000901571               0.999999985               0.000358021               0.000895642               0.999999985               0.000355326               0.000904371               0.999999985               0.000352139               0.000918237               0.999999985               0.000344391               0.000932100               0.999999985               0.000330660               0.000943256               0.999999985               0.000310455               0.000950294               0.999999985               0.000283270               0.000952489               0.999999985               0.000249144               0.000949719               0.999999985               0.000208359               0.000942186               0.999999985               0.000161332               0.000930567               0.999999985               0.000109244               0.000915986               0.999999985               0.000053723               0.000899683               0.999999985              -0.000004067               0.000882420               0.999999985              -0.000062687               0.000864918               0.999999985               0.000461035               0.001140338               0.999999985               0.000341625               0.001051053               0.999999985               0.000300872               0.001013766               0.999999985               0.000288486               0.001005075               0.999999985               0.000285593               0.001011413               0.999999985               0.000283428               0.001024654               0.999999985               0.000277941               0.001039954               0.999999985               0.000267473               0.001054460               0.999999985               0.000251074               0.001066482               0.999999985               0.000228242               0.001075078               0.999999985               0.000198855               0.001079673               0.999999985               0.000162892               0.001080343               0.999999985               0.000120233               0.001077440               0.999999985               0.000071560               0.001071604               0.999999985               0.000018034               0.001063688               0.999999985              -0.000039231               0.001054665               0.999999985              -0.000098707               0.001045375               0.999999985               0.000390469               0.001215795               0.999999985               0.000279115               0.001153945               0.999999985               0.000237691               0.001123751               0.999999985               0.000223525               0.001115754               0.999999985               0.000219642               0.001121495               0.999999985               0.000217699               0.001134827               0.999999985               0.000213718               0.001151675               0.999999985               0.000205912               0.001169392               0.999999985               0.000193005               0.001186084               0.999999985               0.000174388               0.001200590               0.999999985               0.000149755               0.001212245               0.999999985               0.000118757               0.001220776               0.999999985               0.000081121               0.001226149               0.999999985               0.000036738               0.001228792               0.999999985              -0.000013923               0.001229183               0.999999985              -0.000070120               0.001228044               0.999999985              -0.000130721               0.001226255               0.999999985               0.000316539               0.001279434               0.999999985               0.000219593               0.001245645               0.999999985               0.000180235               0.001225996               0.999999985               0.000165102               0.001221569               0.999999985               0.000160114               0.001228688               0.999999985               0.000157854               0.001243304               0.999999985               0.000154740               0.001262378               0.999999985               0.000148875               0.001283333               0.999999985               0.000139119               0.001304516               0.999999985               0.000124596               0.001324747               0.999999985               0.000104692               0.001343220               0.999999985               0.000079025               0.001359546               0.999999985               0.000047005               0.001373398               0.999999985               0.000008024               0.001384743               0.999999985              -0.000038241               0.001393780               0.999999985              -0.000091798               0.001401019               0.999999985              -0.000152790               0.001406951               0.999999985               0.000239868               0.001330203               0.999999985               0.000162585               0.001322011               0.999999985               0.000128689               0.001314362               0.999999985               0.000114301               0.001315417               0.999999985               0.000108833               0.001325330               0.999999985               0.000106377               0.001342134               0.999999985               0.000103720               0.001363759               0.999999985               0.000099497               0.001388114               0.999999985               0.000092514               0.001413662               0.999999985               0.000081776               0.001439489               0.999999985               0.000066621               0.001464674               0.999999985               0.000046626               0.001488626               0.999999985               0.000021131               0.001510924               0.999999985              -0.000010730               0.001531170               0.999999985              -0.000049901               0.001549195               0.999999985              -0.000097635               0.001565128               0.999999985              -0.000154954               0.001579291               0.999999985               0.000161104               0.001367180               0.999999985               0.000107409               0.001379448               0.999999985               0.000082444               0.001382793               0.999999985               0.000071078               0.001389710               0.999999985               0.000066306               0.001402938               0.999999985               0.000064005               0.001422302               0.999999985               0.000061928               0.001446342               0.999999985               0.000059162               0.001473682               0.999999985               0.000054587               0.001503260               0.999999985               0.000047440               0.001533986               0.999999985               0.000037270               0.001565060               0.999999985               0.000023650               0.001595765               0.999999985               0.000005972               0.001625560               0.999999985              -0.000016780               0.001653975               0.999999985              -0.000045769               0.001680638               0.999999985              -0.000082509               0.001705141               0.999999985              -0.000129080               0.001727318               0.999999985               0.000080912               0.001389664               0.999999985               0.000053403               0.001415116               0.999999985               0.000040166               0.001426179               0.999999985               0.000033895               0.001437621               0.999999985               0.000031095               0.001453682               0.999999985               0.000029620               0.001475034               0.999999985               0.000028477               0.001500887               0.999999985               0.000026955               0.001530342               0.999999985               0.000024714               0.001562561               0.999999985               0.000021257               0.001596648               0.999999985               0.000016195               0.001631804               0.999999985               0.000009281               0.001667365               0.999999985               0.000000223               0.001702687               0.999999985              -0.000011621               0.001737355               0.999999985              -0.000027121               0.001770856               0.999999985              -0.000047443               0.001802345               0.999999985              -0.000074175               0.001830984               0.999999985               0.000000000               0.001397222               0.999999985              -0.000000000               0.001427179               0.999999985               0.000000000               0.001441001               0.999999985               0.000000000               0.001454208               0.999999985               0.000000000               0.001471411               0.999999985              -0.000000000               0.001493518               0.999999985              -0.000000000               0.001520004               0.999999985               0.000000000               0.001550068               0.999999985               0.000000000               0.001583089               0.999999985               0.000000000               0.001618446               0.999999985               0.000000000               0.001655168               0.999999985               0.000000000               0.001692455               0.999999985               0.000000000               0.001729969               0.999999985               0.000000000               0.001767234               0.999999985              -0.000000000               0.001803487               0.999999985              -0.000000000               0.001837777               0.999999985              -0.000000000               0.001868959               0.999999985 </DataArray>
<DataArray type="Float64"                                    Name="stress"                                                      NumberOfComponents="10" format="ascii">
              0.002259912               0.024085597               0.000000000              -0.002163227               0.008749528               0.006586301               0.000000000               0.000000000               0.000000000               0.000000000               0.002181651               0.018550879               0.000000000              -0.001500737               0.006683810               0.005183073               0.000000000               0.000000000               0.000000000               0.000000000               0.002801554               0.014060872              -0.000000000              -0.000707024               0.004922585               0.004215561               0.000000000               0.000000000               0.000000000               0.000000000               0.002580655               0.011538645              -0.000000000              -0.000474584               0.004004371               0.003529787               0.000000000               0.000000000               0.000000000               0.000000000               0.002120044               0.009951299              -0.000000000              -0.000448895               0.003466698               0.003017803               0.000000000               0.000000000               0.000000000               0.000000000               0.001634613               0.008841505              -0.000000000              -0.000492207               0.003111208               0.002619001               0.000000000               0.000000000               0.000000000               0.000000000               0.001201614               0.007983523              -0.000000000              -0.000547334               0.002843592               0.002296259               0.000000000               0.000000000               0.000000000               0.000000000               0.000837404               0.007268217              -0.000000000              -0.000594499               0.002620881               0.002026382               0.000000000               0.000000000               0.000000000               0.000000000               0.000539385               0.006624815              -0.000000000              -0.000625831               0.002416860               0.001791029               0.000000000               0.000000000               0.000000000               0.000000000               0.000301419               0.006016581               0.000000000              -0.000639039               0.002218520               0.001579481               0.000000000               0.000000000               0.000000000               0.000000000               0.000124152               0.005426874              -0.000000000              -0.000631801               0.002019540               0.001387739               0.000000000               0.000000000               0.000000000               0.000000000               0.000001982               0.004837804               0.000000000              -0.000603981               0.001813912               0.001209931               0.000000000               0.000000000               0.000000000               0.000000000              -0.000078179               0.004223290               0.000000000              -0.000557227               0.001593492               0.001036264               0.000000000               0.000000000               0.000000000               0.000000000              -0.000122798               0.003569697              -0.000000000              -0.000492260               0.001353974               0.000861714               0.000000000               0.000000000               0.000000000               0.000000000              -0.000123973               0.002867144               0.000000000              -0.000404882               0.001090666               0.000685784               0.000000000               0.000000000               0.000000000               0.000000000              -0.000074014               0.002080035              -0.000000000              -0.000287759               0.000789258               0.000501499               0.000000000               0.000000000               0.000000000               0.000000000              -0.000102343               0.001472686               0.000000000              -0.000222464               0.000565045               0.000342581               0.000000000               0.000000000               0.000000000               0.000000000               0.002326136               0.023570026              -0.001604409              -0.002073947               0.008547912               0.006473965               0.000000000               0.000000000               0.000000000               0.000000000               0.002118310               0.018224284              -0.000734654              -0.001483666               0.006569256               0.005085590               0.000000000               0.000000000               0.000000000               0.000000000               0.002598669               0.013931589               0.000126626              -0.000766946               0.004899465               0.004132519               0.000000000               0.000000000               0.000000000               0.000000000               0.002326149               0.011513259               0.000482094              -0.000566850               0.004026665               0.003459815               0.000000000               0.000000000               0.000000000               0.000000000               0.001863342               0.009979763               0.000618308              -0.000548716               0.003509459               0.002960744               0.000000000               0.000000000               0.000000000               0.000000000               0.001392387               0.008894037               0.000655628              -0.000589608               0.003161185               0.002571577               0.000000000               0.000000000               0.000000000               0.000000000               0.000978548               0.008047830               0.000649212              -0.000639022               0.002895591               0.002256569               0.000000000               0.000000000               0.000000000               0.000000000               0.000639680               0.007330543               0.000625467              -0.000676436               0.002668969               0.001992532               0.000000000               0.000000000               0.000000000               0.000000000               0.000370364               0.006685760               0.000595024              -0.000696832               0.002460842               0.001764010               0.000000000               0.000000000               0.000000000               0.000000000               0.000161056               0.006082163               0.000565282              -0.000699873               0.002260658               0.001560786               0.000000000               0.000000000               0.000000000               0.000000000               0.000005998               0.005500487               0.000535681              -0.000685310               0.002061914               0.001376604               0.000000000               0.000000000               0.000000000               0.000000000              -0.000097479               0.004923209               0.000496314              -0.000651954               0.001858371               0.001206417               0.000000000               0.000000000               0.000000000               0.000000000              -0.000153671               0.004331409               0.000445507              -0.000599051               0.001643472               0.001044421               0.000000000               0.000000000               0.000000000               0.000000000              -0.000174449               0.003712277               0.000387513              -0.000529452               0.001413897               0.000884446               0.000000000               0.000000000               0.000000000               0.000000000              -0.000156610               0.003056263               0.000305339              -0.000440761               0.001165664               0.000724904               0.000000000               0.000000000               0.000000000               0.000000000              -0.000091004               0.002346127               0.000177336              -0.000327392               0.000891165               0.000563773               0.000000000               0.000000000               0.000000000               0.000000000              -0.000103765               0.001814429               0.000110911              -0.000265715               0.000693375               0.000427660               0.000000000               0.000000000               0.000000000               0.000000000               0.002485086               0.022100330              -0.002970330              -0.001830631               0.007976913               0.006146282               0.000000000               0.000000000               0.000000000               0.000000000               0.001918110               0.017297924              -0.001355628              -0.001442946               0.006246899               0.004803953               0.000000000               0.000000000               0.000000000               0.000000000               0.002017523               0.013565891               0.000227724              -0.000939163               0.004834973               0.003895810               0.000000000               0.000000000               0.000000000               0.000000000               0.001613127               0.011428413               0.000858744              -0.000823627               0.004083975               0.003260348               0.000000000               0.000000000               0.000000000               0.000000000               0.001139480               0.010037032               0.001086889              -0.000827322               0.003621418               0.002794096               0.000000000               0.000000000               0.000000000               0.000000000               0.000717915               0.009017390               0.001139286              -0.000857954               0.003291751               0.002433797               0.000000000               0.000000000               0.000000000               0.000000000               0.000379216               0.008196813               0.001116306              -0.000882394               0.003026375               0.002143981               0.000000000               0.000000000               0.000000000               0.000000000               0.000120820               0.007483404               0.001065948              -0.000890116               0.002791148               0.001901032               0.000000000               0.000000000               0.000000000               0.000000000              -0.000068894               0.006840171               0.001010053              -0.000880855               0.002573652               0.001692798               0.000000000               0.000000000               0.000000000               0.000000000              -0.000202052               0.006247246               0.000954156              -0.000856674               0.002367952               0.001511279               0.000000000               0.000000000               0.000000000               0.000000000              -0.000288865               0.005686236               0.000894713              -0.000819102               0.002168427               0.001349325               0.000000000               0.000000000               0.000000000               0.000000000              -0.000333663               0.005142334               0.000819302              -0.000767914               0.001970065               0.001202152               0.000000000               0.000000000               0.000000000               0.000000000              -0.000335584               0.004604393               0.000725750              -0.000701392               0.001768579               0.001067188               0.000000000               0.000000000               0.000000000               0.000000000              -0.000301330               0.004066708               0.000616953              -0.000621336               0.001562668               0.000941332               0.000000000               0.000000000               0.000000000               0.000000000              -0.000229895               0.003529125               0.000472441              -0.000527350               0.001352146               0.000824796               0.000000000               0.000000000               0.000000000               0.000000000              -0.000123302               0.002997222               0.000267645              -0.000420890               0.001139361               0.000718471               0.000000000               0.000000000               0.000000000               0.000000000              -0.000101641               0.002632010               0.000162046              -0.000367116               0.000999700               0.000632584               0.000000000               0.000000000               0.000000000               0.000000000               0.002617172               0.019880624              -0.003915383              -0.001503637               0.007128020               0.005624383               0.000000000               0.000000000               0.000000000               0.000000000               0.001550789               0.015917256              -0.001786144              -0.001408108               0.005775068               0.004366960               0.000000000               0.000000000               0.000000000               0.000000000               0.001124357               0.013022337               0.000269398              -0.001206155               0.004742787               0.003536632               0.000000000               0.000000000               0.000000000               0.000000000               0.000577115               0.011281855               0.001042237              -0.001193811               0.004158518               0.002964707               0.000000000               0.000000000               0.000000000               0.000000000               0.000124189               0.010075679               0.001300590              -0.001212886               0.003762822               0.002549935               0.000000000               0.000000000               0.000000000               0.000000000              -0.000205787               0.009137238               0.001343829              -0.001219322               0.003452156               0.002232834               0.000000000               0.000000000               0.000000000               0.000000000              -0.000423662               0.008346201               0.001299640              -0.001202146               0.003182754               0.001980608               0.000000000               0.000000000               0.000000000               0.000000000              -0.000557354               0.007646391               0.001226150              -0.001164804               0.002937039               0.001772235               0.000000000               0.000000000               0.000000000               0.000000000              -0.000631476               0.007015384               0.001151433              -0.001113724               0.002709679               0.001595955               0.000000000               0.000000000               0.000000000               0.000000000              -0.000661711               0.006439896               0.001077825              -0.001053126               0.002497652               0.001444526               0.000000000               0.000000000               0.000000000               0.000000000              -0.000649021               0.005910448               0.000997129              -0.000982187               0.002297525               0.001315338               0.000000000               0.000000000               0.000000000               0.000000000              -0.000597626               0.005410563               0.000896446              -0.000900428               0.002103645               0.001203217               0.000000000               0.000000000               0.000000000               0.000000000              -0.000518996               0.004936443               0.000774987              -0.000811677               0.001916024               0.001104346               0.000000000               0.000000000               0.000000000               0.000000000              -0.000418390               0.004490903               0.000638197              -0.000718258               0.001736372               0.001018114               0.000000000               0.000000000               0.000000000               0.000000000              -0.000292369               0.004083359               0.000468790              -0.000620057               0.001567792               0.000947735               0.000000000               0.000000000               0.000000000               0.000000000              -0.000149282               0.003733446               0.000253157              -0.000522660               0.001418690               0.000896029               0.000000000               0.000000000               0.000000000               0.000000000              -0.000097777               0.003526014               0.000145314              -0.000477417               0.001334465               0.000857048               0.000000000               0.000000000               0.000000000               0.000000000               0.002565648               0.017179306              -0.004354328              -0.001185296               0.006121476               0.004936180               0.000000000               0.000000000               0.000000000               0.000000000               0.000986125               0.014275805              -0.002007178              -0.001414676               0.005230113               0.003815436               0.000000000               0.000000000               0.000000000               0.000000000               0.000021130               0.012378028               0.000218186              -0.001539326               0.004639077               0.003099751               0.000000000               0.000000000               0.000000000               0.000000000              -0.000610236               0.011069671               0.000993879              -0.001612544               0.004227368               0.002614824               0.000000000               0.000000000               0.000000000               0.000000000              -0.000977311               0.010046708               0.001230413              -0.001622327               0.003889645               0.002267318               0.000000000               0.000000000               0.000000000               0.000000000              -0.001159161               0.009186740               0.001253173              -0.001583024               0.003589891               0.002006866               0.000000000               0.000000000               0.000000000               0.000000000              -0.001220854               0.008427595               0.001193485              -0.001511266               0.003312925               0.001801659               0.000000000               0.000000000               0.000000000               0.000000000              -0.001205223               0.007747683               0.001112090              -0.001420416               0.003056007               0.001635591               0.000000000               0.000000000               0.000000000               0.000000000              -0.001146018               0.007138422               0.001035551              -0.001322056               0.002820136               0.001498079               0.000000000               0.000000000               0.000000000               0.000000000              -0.001058583               0.006591733               0.000963042              -0.001220932               0.002604200               0.001383267               0.000000000               0.000000000               0.000000000               0.000000000              -0.000942198               0.006093390               0.000879392              -0.001114996               0.002402775               0.001287779               0.000000000               0.000000000               0.000000000               0.000000000              -0.000799128               0.005632173               0.000773356              -0.001003692               0.002211936               0.001208244               0.000000000               0.000000000               0.000000000               0.000000000              -0.000637788               0.005217417               0.000652261              -0.000891346               0.002036237               0.001144891               0.000000000               0.000000000               0.000000000               0.000000000              -0.000472725               0.004854253               0.000518056              -0.000784052               0.001879419               0.001095367               0.000000000               0.000000000               0.000000000               0.000000000              -0.000305867               0.004552524               0.000363735              -0.000683764               0.001745414               0.001061650               0.000000000               0.000000000               0.000000000               0.000000000              -0.000145974               0.004338117               0.000188941              -0.000597003               0.001645026               0.001048022               0.000000000               0.000000000               0.000000000               0.000000000              -0.000082048               0.004236696               0.000104098              -0.000560354               0.001599002               0.001038649               0.000000000               0.000000000               0.000000000               0.000000000               0.002207783               0.014271212              -0.004297585              -0.000955984               0.005075684               0.004119699               0.000000000               0.000000000               0.000000000               0.000000000               0.000229492               0.012550856              -0.002051772              -0.001482795               0.004677841               0.003195046               0.000000000               0.000000000               0.000000000               0.000000000              -0.001166144               0.011684035               0.000045094              -0.001897804               0.004527241               0.002629437               0.000000000               0.000000000               0.000000000               0.000000000              -0.001770217               0.010772134               0.000723875              -0.002010343               0.004260790               0.002250447               0.000000000               0.000000000               0.000000000               0.000000000              -0.001974089               0.009911733               0.000915952              -0.001979245               0.003963626               0.001984381               0.000000000               0.000000000               0.000000000               0.000000000              -0.001966295               0.009119646               0.000925082              -0.001877312               0.003665622               0.001788310               0.000000000               0.000000000               0.000000000               0.000000000              -0.001850830               0.008392246               0.000870213              -0.001743088               0.003378416               0.001635329               0.000000000               0.000000000               0.000000000               0.000000000              -0.001680394               0.007742176               0.000803271              -0.001597916               0.003113338               0.001515422               0.000000000               0.000000000               0.000000000               0.000000000              -0.001488353               0.007163354               0.000746078              -0.001453548               0.002872277               0.001418729               0.000000000               0.000000000               0.000000000               0.000000000              -0.001286541               0.006642523               0.000694087              -0.001312765               0.002651740               0.001338975               0.000000000               0.000000000               0.000000000               0.000000000              -0.001075651               0.006168010               0.000625887              -0.001174368               0.002447438               0.001273071               0.000000000               0.000000000               0.000000000               0.000000000              -0.000857942               0.005737581               0.000539064              -0.001038923               0.002258815               0.001219892               0.000000000               0.000000000               0.000000000               0.000000000              -0.000636041               0.005366922               0.000443943              -0.000909378               0.002092082               0.001182704               0.000000000               0.000000000               0.000000000               0.000000000              -0.000432239               0.005065351               0.000336835              -0.000795257               0.001953519               0.001158262               0.000000000               0.000000000               0.000000000               0.000000000              -0.000256016               0.004841118               0.000221789              -0.000701144               0.001847405               0.001146261               0.000000000               0.000000000               0.000000000               0.000000000              -0.000112234               0.004708154               0.000109770              -0.000630605               0.001779571               0.001148966               0.000000000               0.000000000               0.000000000               0.000000000              -0.000055584               0.004661055               0.000057921              -0.000603475               0.001754828               0.001151353               0.000000000               0.000000000               0.000000000               0.000000000               0.001481183               0.011396794              -0.003836100              -0.000869157               0.004088611               0.003219454               0.000000000               0.000000000               0.000000000               0.000000000              -0.000666799               0.010868932              -0.001982787              -0.001608663               0.004159162               0.002550498               0.000000000               0.000000000               0.000000000               0.000000000              -0.002293950               0.010948616              -0.000258779              -0.002228803               0.004392437               0.002163634               0.000000000               0.000000000               0.000000000               0.000000000              -0.002748935               0.010363741               0.000274807              -0.002326313               0.004229983               0.001903671               0.000000000               0.000000000               0.000000000               0.000000000              -0.002730776               0.009637179               0.000433398              -0.002228683               0.003955255               0.001726572               0.000000000               0.000000000               0.000000000               0.000000000              -0.002512006               0.008907698               0.000455584              -0.002055459               0.003654356               0.001598897               0.000000000               0.000000000               0.000000000               0.000000000              -0.002220550               0.008225377               0.000432752              -0.001860874               0.003362056               0.001501182               0.000000000               0.000000000               0.000000000               0.000000000              -0.001911971               0.007615420               0.000404593              -0.001668912               0.003094752               0.001425840               0.000000000               0.000000000               0.000000000               0.000000000              -0.001609104               0.007065922               0.000382870              -0.001486651               0.002850834               0.001364183               0.000000000               0.000000000               0.000000000               0.000000000              -0.001319194               0.006561528               0.000365296              -0.001314886               0.002625449               0.001310564               0.000000000               0.000000000               0.000000000               0.000000000              -0.001036669               0.006103161               0.000329124              -0.001151643               0.002418247               0.001266605               0.000000000               0.000000000               0.000000000               0.000000000              -0.000770893               0.005697729               0.000272923              -0.001001299               0.002232990               0.001231692               0.000000000               0.000000000               0.000000000               0.000000000              -0.000528827               0.005363989               0.000215994              -0.000868806               0.002077581               0.001208774               0.000000000               0.000000000               0.000000000               0.000000000              -0.000320674               0.005115248               0.000154294              -0.000759657               0.001958285               0.001198628               0.000000000               0.000000000               0.000000000               0.000000000              -0.000160390               0.004952175               0.000090594              -0.000679166               0.001877097               0.001197931               0.000000000               0.000000000               0.000000000               0.000000000              -0.000058081               0.004863108               0.000040182              -0.000629667               0.001830909               0.001201242               0.000000000               0.000000000               0.000000000               0.000000000              -0.000026394               0.004832331               0.000020896              -0.000613938               0.001815407               0.001201469               0.000000000               0.000000000               0.000000000               0.000000000               0.000422143               0.008744917              -0.003089516              -0.000934811               0.003226546               0.002291735               0.000000000               0.000000000               0.000000000               0.000000000              -0.001648311               0.009328877              -0.001857265              -0.001784223               0.003704335               0.001920112               0.000000000               0.000000000               0.000000000               0.000000000              -0.003248516               0.010170339              -0.000677696              -0.002489480               0.004219906               0.001730426               0.000000000               0.000000000               0.000000000               0.000000000              -0.003444811               0.009839222              -0.000279446              -0.002521701               0.004120275               0.001598574               0.000000000               0.000000000               0.000000000               0.000000000              -0.003181190               0.009228802              -0.000116350              -0.002346541               0.003858417               0.001511876               0.000000000               0.000000000               0.000000000               0.000000000              -0.002765833               0.008569175              -0.000048092              -0.002108329               0.003559140               0.001450811               0.000000000               0.000000000               0.000000000               0.000000000              -0.002323354               0.007944817              -0.000015850              -0.001864355               0.003269698               0.001405342               0.000000000               0.000000000               0.000000000               0.000000000              -0.001904196               0.007373681               0.000008097              -0.001635779               0.003003129               0.001367350               0.000000000               0.000000000               0.000000000               0.000000000              -0.001523438               0.006844283               0.000030704              -0.001426821               0.002757012               0.001330191               0.000000000               0.000000000               0.000000000               0.000000000              -0.001177919               0.006353072               0.000051931              -0.001235851               0.002529620               0.001293769               0.000000000               0.000000000               0.000000000               0.000000000              -0.000860937               0.005910225               0.000057784              -0.001061627               0.002323931               0.001262304               0.000000000               0.000000000               0.000000000               0.000000000              -0.000582055               0.005544822               0.000046802              -0.000911371               0.002152046               0.001240675               0.000000000               0.000000000               0.000000000               0.000000000              -0.000352343               0.005270091               0.000038290              -0.000790888               0.002020309               0.001229421               0.000000000               0.000000000               0.000000000               0.000000000              -0.000175984               0.005084621               0.000028924              -0.000701570               0.001928714               0.001227143               0.000000000               0.000000000               0.000000000               0.000000000              -0.000062047               0.004975789               0.000013654              -0.000645240               0.001873660               0.001228420               0.000000000               0.000000000               0.000000000               0.000000000              -0.000011910               0.004919016               0.000003303              -0.000619342               0.001846103               0.001226761               0.000000000               0.000000000               0.000000000               0.000000000              -0.000006644               0.004897740               0.000002423              -0.000614708               0.001837466               0.001222759               0.000000000               0.000000000               0.000000000               0.000000000              -0.000826176               0.006514893              -0.002183961              -0.001124176               0.002546334               0.001422158               0.000000000               0.000000000               0.000000000               0.000000000              -0.002603880               0.007950651              -0.001719756              -0.001970282               0.003306951               0.001336669               0.000000000               0.000000000               0.000000000               0.000000000              -0.003992500               0.009382749              -0.001177424              -0.002670025               0.004017560               0.001347535               0.000000000               0.000000000               0.000000000               0.000000000              -0.003912450               0.009318322              -0.000866295              -0.002631953               0.003983394               0.001351441               0.000000000               0.000000000               0.000000000               0.000000000              -0.003441691               0.008855805              -0.000668250              -0.002397604               0.003751107               0.001353503               0.000000000               0.000000000               0.000000000               0.000000000              -0.002871868               0.008290578              -0.000533745              -0.002113268               0.003467921               0.001354653               0.000000000               0.000000000               0.000000000               0.000000000              -0.002320261               0.007728534              -0.000437173              -0.001836160               0.003188205               0.001352046               0.000000000               0.000000000               0.000000000               0.000000000              -0.001820742               0.007193174              -0.000360620              -0.001581921               0.002925008               0.001343087               0.000000000               0.000000000               0.000000000               0.000000000              -0.001377356               0.006685555              -0.000294992              -0.001352200               0.002679229               0.001327030               0.000000000               0.000000000               0.000000000               0.000000000              -0.000993886               0.006210508              -0.000233808              -0.001149018               0.002453155               0.001304137               0.000000000               0.000000000               0.000000000               0.000000000              -0.000659792               0.005792803              -0.000177365              -0.000971520               0.002254755               0.001283235               0.000000000               0.000000000               0.000000000               0.000000000              -0.000379839               0.005461446              -0.000127076              -0.000825118               0.002095503               0.001270385               0.000000000               0.000000000               0.000000000               0.000000000              -0.000174344               0.005225817              -0.000080157              -0.000718604               0.001981456               0.001262852               0.000000000               0.000000000               0.000000000               0.000000000              -0.000044096               0.005077028              -0.000042502              -0.000651163               0.001909380               0.001258217               0.000000000               0.000000000               0.000000000               0.000000000               0.000017981               0.004994112              -0.000021113              -0.000617520               0.001870527               0.001253007               0.000000000               0.000000000               0.000000000               0.000000000               0.000028477               0.004959367              -0.000008694              -0.000609241               0.001856186               0.001246945               0.000000000               0.000000000               0.000000000               0.000000000               0.000021599               0.004953109              -0.000002732              -0.000611037               0.001854699               0.001243662               0.000000000               0.000000000               0.000000000               0.000000000              -0.002272949               0.004452686              -0.001237986              -0.001408939               0.001953860               0.000544921               0.000000000               0.000000000               0.000000000               0.000000000              -0.003401350               0.006347520              -0.001568356              -0.002068942               0.002805466               0.000736524               0.000000000               0.000000000               0.000000000               0.000000000              -0.004429330               0.008204761              -0.001699733              -0.002686587               0.003630422               0.000943834               0.000000000               0.000000000               0.000000000               0.000000000              -0.004203904               0.008542035              -0.001484638              -0.002644212               0.003728720               0.001084508               0.000000000               0.000000000               0.000000000               0.000000000              -0.003653932               0.008364010              -0.001253390              -0.002415720               0.003593215               0.001177495               0.000000000               0.000000000               0.000000000               0.000000000              -0.003034701               0.008001506              -0.001051065              -0.002138196               0.003379874               0.001241678               0.000000000               0.000000000               0.000000000               0.000000000              -0.002441126               0.007577305              -0.000888510              -0.001862581               0.003146603               0.001284022               0.000000000               0.000000000               0.000000000               0.000000000              -0.001905459               0.007137103              -0.000759770              -0.001606681               0.002914571               0.001307890               0.000000000               0.000000000               0.000000000               0.000000000              -0.001433256               0.006699375              -0.000647075              -0.001374889               0.002691399               0.001316510               0.000000000               0.000000000               0.000000000               0.000000000              -0.001024794               0.006280134              -0.000540218              -0.001169312               0.002483127               0.001313816               0.000000000               0.000000000               0.000000000               0.000000000              -0.000675874               0.005897609              -0.000436960              -0.000990652               0.002296067               0.001305416               0.000000000               0.000000000               0.000000000               0.000000000              -0.000382990               0.005572851              -0.000333128              -0.000840226               0.002137673               0.001297448               0.000000000               0.000000000               0.000000000               0.000000000              -0.000157425               0.005325218              -0.000231846              -0.000724685               0.002016617               0.001291932               0.000000000               0.000000000               0.000000000               0.000000000              -0.000005204               0.005159722              -0.000145079              -0.000646915               0.001935528               0.001288613               0.000000000               0.000000000               0.000000000               0.000000000               0.000075163               0.005058508              -0.000075031              -0.000604126               0.001887528               0.001283402               0.000000000               0.000000000               0.000000000               0.000000000               0.000094647               0.005009649              -0.000025035              -0.000590712               0.001866770               0.001276058               0.000000000               0.000000000               0.000000000               0.000000000               0.000086744               0.004997260              -0.000005397              -0.000592127               0.001863112               0.001270985               0.000000000               0.000000000               0.000000000               0.000000000              -0.004114473               0.002587111              -0.000322180              -0.001866313               0.001484464              -0.000381848               0.000000000               0.000000000               0.000000000               0.000000000              -0.004299594               0.004728643              -0.001352648              -0.002203423               0.002310672               0.000107249               0.000000000               0.000000000               0.000000000               0.000000000              -0.004770118               0.006809637              -0.002118452              -0.002639993               0.003149853               0.000509861               0.000000000               0.000000000               0.000000000               0.000000000              -0.004418445               0.007529699              -0.002069424              -0.002598123               0.003375915               0.000777792               0.000000000               0.000000000               0.000000000               0.000000000              -0.003833760               0.007677673              -0.001844146              -0.002397364               0.003358319               0.000960956               0.000000000               0.000000000               0.000000000               0.000000000              -0.003203763               0.007560648              -0.001598961              -0.002146487               0.003235686               0.001089199               0.000000000               0.000000000               0.000000000               0.000000000              -0.002593978               0.007319904              -0.001385993              -0.001887725               0.003069185               0.001181460               0.000000000               0.000000000               0.000000000               0.000000000              -0.002031701               0.007020665              -0.001209202              -0.001639467               0.002886687               0.001247220               0.000000000               0.000000000               0.000000000               0.000000000              -0.001532558               0.006690254              -0.001051411              -0.001410988               0.002700392               0.001289404               0.000000000               0.000000000               0.000000000               0.000000000              -0.001093373               0.006347346              -0.000906175              -0.001203430               0.002516904               0.001313474               0.000000000               0.000000000               0.000000000               0.000000000              -0.000709182               0.006014420              -0.000767008              -0.001017744               0.002344034               0.001326291               0.000000000               0.000000000               0.000000000               0.000000000              -0.000378403               0.005715441              -0.000622180              -0.000856329               0.002190571               0.001334242               0.000000000               0.000000000               0.000000000               0.000000000              -0.000107024               0.005464654              -0.000472982              -0.000723214               0.002062604               0.001339390               0.000000000               0.000000000               0.000000000               0.000000000               0.000089893               0.005269786              -0.000331269              -0.000625012               0.001964915               0.001339903               0.000000000               0.000000000               0.000000000               0.000000000               0.000203222               0.005129793              -0.000198525              -0.000565015               0.001898252               0.001333237               0.000000000               0.000000000               0.000000000               0.000000000               0.000239477               0.005046953              -0.000084040              -0.000541064               0.001862656               0.001321592               0.000000000               0.000000000               0.000000000               0.000000000               0.000226300               0.005011763              -0.000029644              -0.000541606               0.001851106               0.001309500               0.000000000               0.000000000               0.000000000               0.000000000              -0.006217396               0.001060329               0.000481876              -0.002464062               0.001174789              -0.001289273               0.000000000               0.000000000               0.000000000               0.000000000              -0.005338454               0.003193187              -0.001057065              -0.002401064               0.001864738              -0.000536327               0.000000000               0.000000000               0.000000000               0.000000000              -0.005043369               0.005215200              -0.002319229              -0.002543158               0.002586101               0.000042943               0.000000000               0.000000000               0.000000000               0.000000000              -0.004480795               0.006202679              -0.002470397              -0.002455627               0.002886080               0.000430453               0.000000000               0.000000000               0.000000000               0.000000000              -0.003847978               0.006647169              -0.002305627              -0.002273883               0.002973661               0.000699778               0.000000000               0.000000000               0.000000000               0.000000000              -0.003214150               0.006792285              -0.002063170              -0.002054338               0.002948851               0.000894513               0.000000000               0.000000000               0.000000000               0.000000000              -0.002607639               0.006771740              -0.001831442              -0.001824328               0.002865333               0.001041005               0.000000000               0.000000000               0.000000000               0.000000000              -0.002044446               0.006645681              -0.001625275              -0.001597374               0.002747663               0.001150288               0.000000000               0.000000000               0.000000000               0.000000000              -0.001527380               0.006453772              -0.001439356              -0.001379486               0.002611064               0.001231578               0.000000000               0.000000000               0.000000000               0.000000000              -0.001059195               0.006224957              -0.001269681              -0.001175315               0.002466736               0.001291421               0.000000000               0.000000000               0.000000000               0.000000000              -0.000639984               0.005984635              -0.001107206              -0.000988071               0.002324215               0.001336144               0.000000000               0.000000000               0.000000000               0.000000000              -0.000268091               0.005749001              -0.000939895              -0.000819157               0.002189367               0.001370209               0.000000000               0.000000000               0.000000000               0.000000000               0.000053602               0.005533891              -0.000760597              -0.000671634               0.002068490               0.001396856               0.000000000               0.000000000               0.000000000               0.000000000               0.000306580               0.005347844              -0.000571986              -0.000553512               0.001967101               0.001413589               0.000000000               0.000000000               0.000000000               0.000000000               0.000471197               0.005193909              -0.000378892              -0.000472539               0.001888798               0.001416260               0.000000000               0.000000000               0.000000000               0.000000000               0.000537696               0.005081004              -0.000186533              -0.000433489               0.001838147               0.001404659               0.000000000               0.000000000               0.000000000               0.000000000               0.000526248               0.005023561              -0.000086080              -0.000430601               0.001818037               0.001387436               0.000000000               0.000000000               0.000000000               0.000000000              -0.008435024              -0.000038735               0.001053516              -0.003158290               0.001039844              -0.002118445               0.000000000               0.000000000               0.000000000               0.000000000              -0.006459010               0.001832372              -0.000726565              -0.002651172               0.001494504              -0.001156668               0.000000000               0.000000000               0.000000000               0.000000000              -0.005278416               0.003559201              -0.002268771              -0.002424302               0.001994487              -0.000429815               0.000000000               0.000000000               0.000000000               0.000000000              -0.004419346               0.004668187              -0.002594156              -0.002240773               0.002302970               0.000062196               0.000000000               0.000000000               0.000000000               0.000000000              -0.003697778               0.005345375              -0.002517889              -0.002054834               0.002466717               0.000411883               0.000000000               0.000000000               0.000000000               0.000000000              -0.003047184               0.005739369              -0.002315707              -0.001860111               0.002533140               0.000673029               0.000000000               0.000000000               0.000000000               0.000000000              -0.002452889               0.005937598              -0.002097755              -0.001662030               0.002533189               0.000871159               0.000000000               0.000000000               0.000000000               0.000000000              -0.001902075               0.005995001              -0.001894142              -0.001462650               0.002485863               0.001023213               0.000000000               0.000000000               0.000000000               0.000000000              -0.001382047               0.005968471              -0.001706375              -0.001264324               0.002410911               0.001146587               0.000000000               0.000000000               0.000000000               0.000000000              -0.000896716               0.005887004              -0.001531467              -0.001072142               0.002319695               0.001247553               0.000000000               0.000000000               0.000000000               0.000000000              -0.000447438               0.005773099              -0.001364616              -0.000889425               0.002220822               0.001331397               0.000000000               0.000000000               0.000000000               0.000000000              -0.000030613               0.005641328              -0.001195301              -0.000716645               0.002119305               0.001402660               0.000000000               0.000000000               0.000000000               0.000000000               0.000349945               0.005499697              -0.001009406              -0.000556232               0.002018625               0.001462393               0.000000000               0.000000000               0.000000000               0.000000000               0.000681472               0.005357606              -0.000799904              -0.000414148               0.001923900               0.001509752               0.000000000               0.000000000               0.000000000               0.000000000               0.000941410               0.005226427              -0.000564977              -0.000300274               0.001842216               0.001541942               0.000000000               0.000000000               0.000000000               0.000000000               0.001098435               0.005108652              -0.000298425              -0.000226668               0.001778423               0.001551755               0.000000000               0.000000000               0.000000000               0.000000000               0.001143562               0.005048556              -0.000155992              -0.000202233               0.001750246               0.001548013               0.000000000               0.000000000               0.000000000               0.000000000              -0.010561725              -0.000725161               0.001285745              -0.003869999               0.001048272              -0.002821727               0.000000000               0.000000000               0.000000000               0.000000000              -0.007570599               0.000729018              -0.000424971              -0.002930099               0.001219697              -0.001710402               0.000000000               0.000000000               0.000000000               0.000000000              -0.005488905               0.002008855              -0.001965241              -0.002309443               0.001439422              -0.000870021               0.000000000               0.000000000               0.000000000               0.000000000              -0.004276976               0.003105886              -0.002383882              -0.001992098               0.001699316              -0.000292783               0.000000000               0.000000000               0.000000000               0.000000000              -0.003430934               0.003931201              -0.002389803              -0.001777997               0.001903052               0.000125055               0.000000000               0.000000000               0.000000000               0.000000000              -0.002750697               0.004521452              -0.002244986              -0.001596690               0.002039364               0.000442675               0.000000000               0.000000000               0.000000000               0.000000000              -0.002164059               0.004912444              -0.002065519              -0.001425575               0.002112656               0.000687081               0.000000000               0.000000000               0.000000000               0.000000000              -0.001626548               0.005153209              -0.001893098              -0.001254104               0.002135753               0.000881649               0.000000000               0.000000000               0.000000000               0.000000000              -0.001116574               0.005300828              -0.001728203              -0.001081317               0.002127363               0.001046047               0.000000000               0.000000000               0.000000000               0.000000000              -0.000626787               0.005379601              -0.001571458              -0.000907494               0.002095680               0.001188186               0.000000000               0.000000000               0.000000000               0.000000000              -0.000151648               0.005404280              -0.001424200              -0.000732402               0.002045542               0.001313140               0.000000000               0.000000000               0.000000000               0.000000000               0.000312719               0.005391670              -0.001276071              -0.000556689               0.001982768               0.001426080               0.000000000               0.000000000               0.000000000               0.000000000               0.000765002               0.005346839              -0.001110352              -0.000381479               0.001909421               0.001527942               0.000000000               0.000000000               0.000000000               0.000000000               0.001195987               0.005275517              -0.000913575              -0.000210945               0.001828803               0.001617858               0.000000000               0.000000000               0.000000000               0.000000000               0.001590171               0.005190952              -0.000670520              -0.000052556               0.001747819               0.001695263               0.000000000               0.000000000               0.000000000               0.000000000               0.001920696               0.005100202              -0.000365873               0.000082734               0.001672472               0.001755207               0.000000000               0.000000000               0.000000000               0.000000000               0.002105845               0.005068627              -0.000205671               0.000156112               0.001637488               0.001793600               0.000000000               0.000000000               0.000000000               0.000000000              -0.012343061              -0.001084904               0.001140709              -0.004493032               0.001136035              -0.003356997               0.000000000               0.000000000               0.000000000               0.000000000              -0.008530842              -0.000070921              -0.000202304              -0.003190198               0.001039752              -0.002150446               0.000000000               0.000000000               0.000000000               0.000000000              -0.005669032               0.000740519              -0.001444046              -0.002218450               0.000986316              -0.001232134               0.000000000               0.000000000               0.000000000               0.000000000              -0.004113556               0.001745253              -0.001833868              -0.001760738               0.001168655              -0.000592083               0.000000000               0.000000000               0.000000000               0.000000000              -0.003130561               0.002642734              -0.001884460              -0.001504299               0.001382334              -0.000121965               0.000000000               0.000000000               0.000000000               0.000000000              -0.002413860               0.003360643              -0.001798557              -0.001325275               0.001561961               0.000236686               0.000000000               0.000000000               0.000000000               0.000000000              -0.001826508               0.003898324              -0.001675231              -0.001172229               0.001690171               0.000517942               0.000000000               0.000000000               0.000000000               0.000000000              -0.001304726               0.004300955              -0.001549449              -0.001026890               0.001775933               0.000749043               0.000000000               0.000000000               0.000000000               0.000000000              -0.000807493               0.004602095              -0.001425956              -0.000878070               0.001826706               0.000948636               0.000000000               0.000000000               0.000000000               0.000000000              -0.000316540               0.004818395              -0.001309642              -0.000721001               0.001846449               0.001125448               0.000000000               0.000000000               0.000000000               0.000000000               0.000177022               0.004967457              -0.001202215              -0.000554548               0.001840652               0.001286104               0.000000000               0.000000000               0.000000000               0.000000000               0.000678716               0.005062746              -0.001095622              -0.000378325               0.001813673               0.001435348               0.000000000               0.000000000               0.000000000               0.000000000               0.001195921               0.005116417              -0.000973018              -0.000191082               0.001769149               0.001578067               0.000000000               0.000000000               0.000000000               0.000000000               0.001731395               0.005136762              -0.000819672               0.000007177               0.001709845               0.001717021               0.000000000               0.000000000               0.000000000               0.000000000               0.002281203               0.005121851              -0.000619290               0.000215217               0.001635528               0.001850745               0.000000000               0.000000000               0.000000000               0.000000000               0.002840355               0.005073640              -0.000346546               0.000430924               0.001547555               0.001978479               0.000000000               0.000000000               0.000000000               0.000000000               0.003228138               0.005082057              -0.000203029               0.000575289               0.001502239               0.002077528               0.000000000               0.000000000               0.000000000               0.000000000              -0.013531980              -0.001234299               0.000666945              -0.004920202               0.001228626              -0.003691576               0.000000000               0.000000000               0.000000000               0.000000000              -0.009183851              -0.000550097              -0.000070271              -0.003375180               0.000941688              -0.002433492               0.000000000               0.000000000               0.000000000               0.000000000              -0.005795350              -0.000089010              -0.000763431              -0.002162129               0.000691035              -0.001471094               0.000000000               0.000000000               0.000000000               0.000000000              -0.003991796               0.000819125              -0.000999660              -0.001599312               0.000806140              -0.000793172               0.000000000               0.000000000               0.000000000               0.000000000              -0.002900503               0.001732141              -0.001044004              -0.001304204               0.001012108              -0.000292096               0.000000000               0.000000000               0.000000000               0.000000000              -0.002143982               0.002514239              -0.001006785              -0.001118271               0.001210828               0.000092557               0.000000000               0.000000000               0.000000000               0.000000000              -0.001550354               0.003143456              -0.000943497              -0.000974313               0.001372579               0.000398266               0.000000000               0.000000000               0.000000000               0.000000000              -0.001036301               0.003650782              -0.000875431              -0.000844959               0.001498568               0.000653609               0.000000000               0.000000000               0.000000000               0.000000000              -0.000549546               0.004057881              -0.000809508              -0.000713314               0.001590385               0.000877071               0.000000000               0.000000000               0.000000000               0.000000000              -0.000063768               0.004373797              -0.000748020              -0.000570637               0.001648130               0.001077493               0.000000000               0.000000000               0.000000000               0.000000000               0.000433960               0.004611914              -0.000691048              -0.000413754               0.001675207               0.001261453               0.000000000               0.000000000               0.000000000               0.000000000               0.000954639               0.004789076              -0.000635903              -0.000240645               0.001676558               0.001435913               0.000000000               0.000000000               0.000000000               0.000000000               0.001513969               0.004924844              -0.000574009              -0.000047867               0.001657554               0.001609687               0.000000000               0.000000000               0.000000000               0.000000000               0.002129470               0.005026435              -0.000493474               0.000170245               0.001618713               0.001788958               0.000000000               0.000000000               0.000000000               0.000000000               0.002811793               0.005075050              -0.000381054               0.000420037               0.001551654               0.001971691               0.000000000               0.000000000               0.000000000               0.000000000               0.003578640               0.005060317              -0.000218157               0.000709443               0.001450274               0.002159718               0.000000000               0.000000000               0.000000000               0.000000000               0.004164526               0.005101264              -0.000133136               0.000924030               0.001392394               0.002316425               0.000000000               0.000000000               0.000000000               0.000000000              -0.013950281              -0.001273488              -0.000000000              -0.005072166               0.001266218              -0.003805949               0.000000000               0.000000000               0.000000000               0.000000000              -0.009415100              -0.000710074              -0.000000000              -0.003441901               0.000910603              -0.002531298               0.000000000               0.000000000               0.000000000               0.000000000              -0.005840897              -0.000375965               0.000000000              -0.002143339               0.000589121              -0.001554219               0.000000000               0.000000000               0.000000000               0.000000000              -0.003947867               0.000492286              -0.000000000              -0.001541984               0.000678085              -0.000863899               0.000000000               0.000000000               0.000000000               0.000000000              -0.002815926               0.001401516              -0.000000000              -0.001231160               0.000877553              -0.000353607               0.000000000               0.000000000               0.000000000               0.000000000              -0.002040980               0.002200681              -0.000000000              -0.001040450               0.001080370               0.000039919               0.000000000               0.000000000               0.000000000               0.000000000              -0.001444561               0.002857058               0.000000000              -0.000898840               0.001251957               0.000353116               0.000000000               0.000000000               0.000000000               0.000000000              -0.000928737               0.003399562               0.000000000              -0.000773220               0.001390916               0.000617696               0.000000000               0.000000000               0.000000000               0.000000000              -0.000445355               0.003851193              -0.000000000              -0.000648406               0.001499853               0.000851448               0.000000000               0.000000000               0.000000000               0.000000000               0.000034549               0.004208680              -0.000000000              -0.000513128               0.001573922               0.001060794               0.000000000               0.000000000               0.000000000               0.000000000               0.000529508               0.004475696              -0.000000000              -0.000360896               0.001612182               0.001251287               0.000000000               0.000000000               0.000000000               0.000000000               0.001057402               0.004685539              -0.000000000              -0.000189166               0.001624886               0.001435720               0.000000000               0.000000000               0.000000000               0.000000000               0.001634321               0.004860631               0.000000000               0.000005291               0.001618430               0.001623722               0.000000000               0.000000000               0.000000000               0.000000000               0.002278032               0.004992490              -0.000000000               0.000230199               0.001587414               0.001817612               0.000000000               0.000000000               0.000000000               0.000000000               0.003010193               0.005061117              -0.000000000               0.000496178               0.001521629               0.002017807               0.000000000               0.000000000               0.000000000               0.000000000               0.003863444               0.005056148              -0.000000000               0.000816765               0.001413111               0.002229876               0.000000000               0.000000000               0.000000000               0.000000000               0.004534308               0.005108398               0.000000000               0.001061805               0.001348847               0.002410652               0.000000000               0.000000000               0.000000000               0.000000000               0.000000000               0.000000000               0.000000000               0.000000000               0.000000000               0.000000000               0.000000000               0.000000000               0.000000000               0.000000000               0.000000000               0.000000000               0.000000000               0.000000000               0.000000000               0.000000000               0.000000000               0.000000000               0.000000000               0.000000000               0.000000000               0.000000000               0.000000000               0.000000000               0.000000000               0.000000000               0.000000000               0.000000000               0.000000000               0.000000000               0.000000000               0.000000000               0.000000000               0.000000000               0.000000000               0.000000000               0.000000000               0.000000000               0.000000000               0.000000000               0.000000000               0.000000000               0.000000000               0.000000000               0.000000000               0.000000000               0.000000000               0.000000000               0.000000000               0.000000000               0.000000000               0.000000000               0.000000000               0.000000000               0.000000000               0.000000000               0.000000000               0.000000000               0.000000000               0.000000000               0.000000000               0.000000000               0.000000000               0.000000000               0.000000000               0.000000000               0.000000000               0.000000000               0.000000000               0.000000000               0.000000000               0.000000000               0.000000000               0.000000000               0.000000000               0.000000000               0.000000000               0.000000000               0.000000000               0.000000000               0.000000000               0.000000000               0.000000000               0.000000000               0.000000000               0.000000000               0.000000000               0.000000000               0.000000000               0.000000000               0.000000000               0.000000000               0.000000000               0.000000000               0.000000000               0.000000000               0.000000000               0.000000000               0.000000000               0.000000000               0.000000000               0.000000000               0.000000000               0.000000000               0.000000000               0.000000000               0.000000000               0.000000000               0.000000000               0.000000000               0.000000000               0.000000000               0.000000000               0.000000000               0.000000000               0.000000000               0.000000000               0.000000000               0.000000000               0.000000000               0.000000000               0.000000000               0.000000000               0.000000000               0.000000000               0.000000000               0.000000000               0.000000000               0.000000000               0.000000000               0.000000000               0.000000000               0.000000000               0.000000000               0.000000000               0.000000000               0.000000000               0.000000000               0.000000000               0.000000000               0.000000000               0.000000000               0.000000000               0.000000000               0.000000000               0.000000000               0.000000000               0.000000000               0.000000000               0.000000000               0.000000000               0.000000000               0.000000000               0.000000000               0.000000000               0.000000000               0.000000000               0.000000000               0.000000000               0.000000000               0.000000000               0.000000000               0.000000000               0.000000000               0.000000000               0.000000000               0.000000000               0.000000000               0.000000000               0.000000000               0.002326136               0.023570026               0.001604409              -0.002073947               0.008547912               0.006473965               0.000000000               0.000000000               0.000000000               0.000000000               0.002118310               0.018224284               0.000734654              -0.001483666               0.006569256               0.005085590               0.000000000               0.000000000               0.000000000               0.000000000               0.002598669               0.013931589              -0.000126626              -0.000766946               0.004899465               0.004132519               0.000000000               0.000000000               0.000000000               0.000000000               0.002326149               0.011513259              -0.000482094              -0.000566850               0.004026665               0.003459815               0.000000000               0.000000000               0.000000000               0.000000000               0.001863342               0.009979763              -0.000618308              -0.000548716               0.003509459               0.002960744               0.000000000               0.000000000               0.000000000               0.000000000               0.001392387               0.008894037              -0.000655628              -0.000589608               0.003161185               0.002571577               0.000000000               0.000000000               0.000000000               0.000000000               0.000978548               0.008047830              -0.000649212              -0.000639022               0.002895591               0.002256569               0.000000000               0.000000000               0.000000000               0.000000000               0.000639680               0.007330543              -0.000625467              -0.000676436               0.002668969               0.001992532               0.000000000               0.000000000               0.000000000               0.000000000               0.000370364               0.006685760              -0.000595024              -0.000696832               0.002460842               0.001764010               0.000000000               0.000000000               0.000000000               0.000000000               0.000161056               0.006082163              -0.000565282              -0.000699873               0.002260658               0.001560786               0.000000000               0.000000000               0.000000000               0.000000000               0.000005998               0.005500487              -0.000535681              -0.000685310               0.002061914               0.001376604               0.000000000               0.000000000               0.000000000               0.000000000              -0.000097479               0.004923209              -0.000496314              -0.000651954               0.001858371               0.001206417               0.000000000               0.000000000               0.000000000               0.000000000              -0.000153671               0.004331409              -0.000445507              -0.000599051               0.001643472               0.001044421               0.000000000               0.000000000               0.000000000               0.000000000              -0.000174449               0.003712277              -0.000387513              -0.000529452               0.001413897               0.000884446               0.000000000               0.000000000               0.000000000               0.000000000              -0.000156610               0.003056263              -0.000305339              -0.000440761               0.001165664               0.000724904               0.000000000               0.000000000               0.000000000               0.000000000              -0.000091004               0.002346127              -0.000177336              -0.000327392               0.000891165               0.000563773               0.000000000               0.000000000               0.000000000               0.000000000              -0.000103765               0.001814429              -0.000110911              -0.000265715               0.000693375               0.000427660               0.000000000               0.000000000               0.000000000               0.000000000               0.002485086               0.022100330               0.002970330              -0.001830631               0.007976913               0.006146282               0.000000000               0.000000000               0.000000000               0.000000000               0.001918110               0.017297924               0.001355628              -0.001442946               0.006246899               0.004803953               0.000000000               0.000000000               0.000000000               0.000000000               0.002017523               0.013565891              -0.000227724              -0.000939163               0.004834973               0.003895810               0.000000000               0.000000000               0.000000000               0.000000000               0.001613127               0.011428413              -0.000858744              -0.000823627               0.004083975               0.003260348               0.000000000               0.000000000               0.000000000               0.000000000               0.001139480               0.010037032              -0.001086889              -0.000827322               0.003621418               0.002794096               0.000000000               0.000000000               0.000000000               0.000000000               0.000717915               0.009017390              -0.001139286              -0.000857954               0.003291751               0.002433797               0.000000000               0.000000000               0.000000000               0.000000000               0.000379216               0.008196813              -0.001116306              -0.000882394               0.003026375               0.002143981               0.000000000               0.000000000               0.000000000               0.000000000               0.000120820               0.007483404              -0.001065948              -0.000890116               0.002791148               0.001901032               0.000000000               0.000000000               0.000000000               0.000000000              -0.000068894               0.006840171              -0.001010053              -0.000880855               0.002573652               0.001692798               0.000000000               0.000000000               0.000000000               0.000000000              -0.000202052               0.006247246              -0.000954156              -0.000856674               0.002367952               0.001511279               0.000000000               0.000000000               0.000000000               0.000000000              -0.000288865               0.005686236              -0.000894713              -0.000819102               0.002168427               0.001349325               0.000000000               0.000000000               0.000000000               0.000000000              -0.000333663               0.005142334              -0.000819302              -0.000767914               0.001970065               0.001202152               0.000000000               0.000000000               0.000000000               0.000000000              -0.000335584               0.004604393              -0.000725750              -0.000701392               0.001768579               0.001067188               0.000000000               0.000000000               0.000000000               0.000000000              -0.000301330               0.004066708              -0.000616953              -0.000621336               0.001562668               0.000941332               0.000000000               0.000000000               0.000000000               0.000000000              -0.000229895               0.003529125              -0.000472441              -0.000527350               0.001352146               0.000824796               0.000000000               0.000000000               0.000000000               0.000000000              -0.000123302               0.002997222              -0.000267645              -0.000420890               0.001139361               0.000718471               0.000000000               0.000000000               0.000000000               0.000000000              -0.000101641               0.002632010              -0.000162046              -0.000367116               0.000999700               0.000632584               0.000000000               0.000000000               0.000000000               0.000000000               0.002617172               0.019880624               0.003915383              -0.001503637               0.007128020               0.005624383               0.000000000               0.000000000               0.000000000               0.000000000               0.001550789               0.015917256               0.001786144              -0.001408108               0.005775068               0.004366960               0.000000000               0.000000000               0.000000000               0.000000000               0.001124357               0.013022337              -0.000269398              -0.001206155               0.004742787               0.003536632               0.000000000               0.000000000               0.000000000               0.000000000               0.000577115               0.011281855              -0.001042237              -0.001193811               0.004158518               0.002964707               0.000000000               0.000000000               0.000000000               0.000000000               0.000124189               0.010075679              -0.001300590              -0.001212886               0.003762822               0.002549935               0.000000000               0.000000000               0.000000000               0.000000000              -0.000205787               0.009137238              -0.001343829              -0.001219322               0.003452156               0.002232834               0.000000000               0.000000000               0.000000000               0.000000000              -0.000423662               0.008346201              -0.001299640              -0.001202146               0.003182754               0.001980608               0.000000000               0.000000000               0.000000000               0.000000000              -0.000557354               0.007646391              -0.001226150              -0.001164804               0.002937039               0.001772235               0.000000000               0.000000000               0.000000000               0.000000000              -0.000631476               0.007015384              -0.001151433              -0.001113724               0.002709679               0.001595955               0.000000000               0.000000000               0.000000000               0.000000000              -0.000661711               0.006439896              -0.001077825              -0.001053126               0.002497652               0.001444526               0.000000000               0.000000000               0.000000000               0.000000000              -0.000649021               0.005910448              -0.000997129              -0.000982187               0.002297525               0.001315338               0.000000000               0.000000000               0.000000000               0.000000000              -0.000597626               0.005410563              -0.000896446              -0.000900428               0.002103645               0.001203217               0.000000000               0.000000000               0.000000000               0.000000000              -0.000518996               0.004936443              -0.000774987              -0.000811677               0.001916024               0.001104346               0.000000000               0.000000000               0.000000000               0.000000000              -0.000418390               0.004490903              -0.000638197              -0.000718258               0.001736372               0.001018114               0.000000000               0.000000000               0.000000000               0.000000000              -0.000292369               0.004083359              -0.000468790              -0.000620057               0.001567792               0.000947735               0.000000000               0.000000000               0.000000000               0.000000000              -0.000149282               0.003733446              -0.000253157              -0.000522660               0.001418690               0.000896029               0.000000000               0.000000000               0.000000000               0.000000000              -0.000097777               0.003526014              -0.000145314              -0.000477417               0.001334465               0.000857048               0.000000000               0.000000000               0.000000000               0.000000000               0.002565648               0.017179306               0.004354328              -0.001185296               0.006121476               0.004936180               0.000000000               0.000000000               0.000000000               0.000000000               0.000986125               0.014275805               0.002007178              -0.001414676               0.005230113               0.003815436               0.000000000               0.000000000               0.000000000               0.000000000               0.000021130               0.012378028              -0.000218186              -0.001539326               0.004639077               0.003099751               0.000000000               0.000000000               0.000000000               0.000000000              -0.000610236               0.011069671              -0.000993879              -0.001612544               0.004227368               0.002614824               0.000000000               0.000000000               0.000000000               0.000000000              -0.000977311               0.010046708              -0.001230413              -0.001622327               0.003889645               0.002267318               0.000000000               0.000000000               0.000000000               0.000000000              -0.001159161               0.009186740              -0.001253173              -0.001583024               0.003589891               0.002006866               0.000000000               0.000000000               0.000000000               0.000000000              -0.001220854               0.008427595              -0.001193485              -0.001511266               0.003312925               0.001801659               0.000000000               0.000000000               0.000000000               0.000000000              -0.001205223               0.007747683              -0.001112090              -0.001420416               0.003056007               0.001635591               0.000000000               0.000000000               0.000000000               0.000000000              -0.001146018               0.007138422              -0.001035551              -0.001322056               0.002820136               0.001498079               0.000000000               0.000000000               0.000000000               0.000000000              -0.001058583               0.006591733              -0.000963042              -0.001220932               0.002604200               0.001383267               0.000000000               0.000000000               0.000000000               0.000000000              -0.000942198               0.006093390              -0.000879392              -0.001114996               0.002402775               0.001287779               0.000000000               0.000000000               0.000000000               0.000000000              -0.000799128               0.005632173              -0.000773356              -0.001003692               0.002211936               0.001208244               0.000000000               0.000000000               0.000000000               0.000000000              -0.000637788               0.005217417              -0.000652261              -0.000891346               0.002036237               0.001144891               0.000000000               0.000000000               0.000000000               0.000000000              -0.000472725               0.004854253              -0.000518056              -0.000784052               0.001879419               0.001095367               0.000000000               0.000000000               0.000000000               0.000000000              -0.000305867               0.004552524              -0.000363735              -0.000683764               0.001745414               0.001061650               0.000000000               0.000000000               0.000000000               0.000000000              -0.000145974               0.004338117              -0.000188941              -0.000597003               0.001645026               0.001048022               0.000000000               0.000000000               0.000000000               0.000000000              -0.000082048               0.004236696              -0.000104098              -0.000560354               0.001599002               0.001038649               0.000000000               0.000000000               0.000000000               0.000000000               0.002207783               0.014271212               0.004297585              -0.000955984               0.005075684               0.004119699               0.000000000               0.000000000               0.000000000               0.000000000               0.000229492               0.012550856               0.002051772              -0.001482795               0.004677841               0.003195046               0.000000000               0.000000000               0.000000000               0.000000000              -0.001166144               0.011684035              -0.000045094              -0.001897804               0.004527241               0.002629437               0.000000000               0.000000000               0.000000000               0.000000000              -0.001770217               0.010772134              -0.000723875              -0.002010343               0.004260790               0.002250447               0.000000000               0.000000000               0.000000000               0.000000000              -0.001974089               0.009911733              -0.000915952              -0.001979245               0.003963626               0.001984381               0.000000000               0.000000000               0.000000000               0.000000000              -0.001966295               0.009119646              -0.000925082              -0.001877312               0.003665622               0.001788310               0.000000000               0.000000000               0.000000000               0.000000000              -0.001850830               0.008392246              -0.000870213              -0.001743088               0.003378416               0.001635329               0.000000000               0.000000000               0.000000000               0.000000000              -0.001680394               0.007742176              -0.000803271              -0.001597916               0.003113338               0.001515422               0.000000000               0.000000000               0.000000000               0.000000000              -0.001488353               0.007163354              -0.000746078              -0.001453548               0.002872277               0.001418729               0.000000000               0.000000000               0.000000000               0.000000000              -0.001286541               0.006642523              -0.000694087              -0.001312765               0.002651740               0.001338975               0.000000000               0.000000000               0.000000000               0.000000000              -0.001075651               0.006168010              -0.000625887              -0.001174368               0.002447438               0.001273071               0.000000000               0.000000000               0.000000000               0.000000000              -0.000857942               0.005737581              -0.000539064              -0.001038923               0.002258815               0.001219892               0.000000000               0.000000000               0.000000000               0.000000000              -0.000636041               0.005366922              -0.000443943              -0.000909378               0.002092082               0.001182704               0.000000000               0.000000000               0.000000000               0.000000000              -0.000432239               0.005065351              -0.000336835              -0.000795257               0.001953519               0.001158262               0.000000000               0.000000000               0.000000000               0.000000000              -0.000256016               0.004841118              -0.000221789              -0.000701144               0.001847405               0.001146261               0.000000000               0.000000000               0.000000000               0.000000000              -0.000112234               0.004708154              -0.000109770              -0.000630605               0.001779571               0.001148966               0.000000000               0.000000000               0.000000000               0.000000000              -0.000055584               0.004661055              -0.000057921              -0.000603475               0.001754828               0.001151353               0.000000000               0.000000000               0.000000000               0.000000000               0.001481183               0.011396794               0.003836100              -0.000869157               0.004088611               0.003219454               0.000000000               0.000000000               0.000000000               0.000000000              -0.000666799               0.010868932               0.001982787              -0.001608663               0.004159162               0.002550498               0.000000000               0.000000000               0.000000000               0.000000000              -0.002293950               0.010948616               0.000258779              -0.002228803               0.004392437               0.002163634               0.000000000               0.000000000               0.000000000               0.000000000              -0.002748935               0.010363741              -0.000274807              -0.002326313               0.004229983               0.001903671               0.000000000               0.000000000               0.000000000               0.000000000              -0.002730776               0.009637179              -0.000433398              -0.002228683               0.003955255               0.001726572               0.000000000               0.000000000               0.000000000               0.000000000              -0.002512006               0.008907698              -0.000455584              -0.002055459               0.003654356               0.001598897               0.000000000               0.000000000               0.000000000               0.000000000              -0.002220550               0.008225377              -0.000432752              -0.001860874               0.003362056               0.001501182               0.000000000               0.000000000               0.000000000               0.000000000              -0.001911971               0.007615420              -0.000404593              -0.001668912               0.003094752               0.001425840               0.000000000               0.000000000               0.000000000               0.000000000              -0.001609104               0.007065922              -0.000382870              -0.001486651               0.002850834               0.001364183               0.000000000               0.000000000               0.000000000               0.000000000              -0.001319194               0.006561528              -0.000365296              -0.001314886               0.002625449               0.001310564               0.000000000               0.000000000               0.000000000               0.000000000              -0.001036669               0.006103161              -0.000329124              -0.001151643               0.002418247               0.001266605               0.000000000               0.000000000               0.000000000               0.000000000              -0.000770893               0.005697729              -0.000272923              -0.001001299               0.002232990               0.001231692               0.000000000               0.000000000               0.000000000               0.000000000              -0.000528827               0.005363989              -0.000215994              -0.000868806               0.002077581               0.001208774               0.000000000               0.000000000               0.000000000               0.000000000              -0.000320674               0.005115248              -0.000154294              -0.000759657               0.001958285               0.001198628               0.000000000               0.000000000               0.000000000               0.000000000              -0.000160390               0.004952175              -0.000090594              -0.000679166               0.001877097               0.001197931               0.000000000               0.000000000               0.000000000               0.000000000              -0.000058081               0.004863108              -0.000040182              -0.000629667               0.001830909               0.001201242               0.000000000               0.000000000               0.000000000               0.000000000              -0.000026394               0.004832331              -0.000020896              -0.000613938               0.001815407               0.001201469               0.000000000               0.000000000               0.000000000               0.000000000               0.000422143               0.008744917               0.003089516              -0.000934811               0.003226546               0.002291735               0.000000000               0.000000000               0.000000000               0.000000000              -0.001648311               0.009328877               0.001857265              -0.001784223               0.003704335               0.001920112               0.000000000               0.000000000               0.000000000               0.000000000              -0.003248516               0.010170339               0.000677696              -0.002489480               0.004219906               0.001730426               0.000000000               0.000000000               0.000000000               0.000000000              -0.003444811               0.009839222               0.000279446              -0.002521701               0.004120275               0.001598574               0.000000000               0.000000000               0.000000000               0.000000000              -0.003181190               0.009228802               0.000116350              -0.002346541               0.003858417               0.001511876               0.000000000               0.000000000               0.000000000               0.000000000              -0.002765833               0.008569175               0.000048092              -0.002108329               0.003559140               0.001450811               0.000000000               0.000000000               0.000000000               0.000000000              -0.002323354               0.007944817               0.000015850              -0.001864355               0.003269698               0.001405342               0.000000000               0.000000000               0.000000000               0.000000000              -0.001904196               0.007373681              -0.000008097              -0.001635779               0.003003129               0.001367350               0.000000000               0.000000000               0.000000000               0.000000000              -0.001523438               0.006844283              -0.000030704              -0.001426821               0.002757012               0.001330191               0.000000000               0.000000000               0.000000000               0.000000000              -0.001177919               0.006353072              -0.000051931              -0.001235851               0.002529620               0.001293769               0.000000000               0.000000000               0.000000000               0.000000000              -0.000860937               0.005910225              -0.000057784              -0.001061627               0.002323931               0.001262304               0.000000000               0.000000000               0.000000000               0.000000000              -0.000582055               0.005544822              -0.000046802              -0.000911371               0.002152046               0.001240675               0.000000000               0.000000000               0.000000000               0.000000000              -0.000352343               0.005270091              -0.000038290              -0.000790888               0.002020309               0.001229421               0.000000000               0.000000000               0.000000000               0.000000000              -0.000175984               0.005084621              -0.000028924              -0.000701570               0.001928714               0.001227143               0.000000000               0.000000000               0.000000000               0.000000000              -0.000062047               0.004975789              -0.000013654              -0.000645240               0.001873660               0.001228420               0.000000000               0.000000000               0.000000000               0.000000000              -0.000011910               0.004919016              -0.000003303              -0.000619342               0.001846103               0.001226761               0.000000000               0.000000000               0.000000000               0.000000000              -0.000006644               0.004897740              -0.000002423              -0.000614708               0.001837466               0.001222759               0.000000000               0.000000000               0.000000000               0.000000000              -0.000826176               0.006514893               0.002183961              -0.001124176               0.002546334               0.001422158               0.000000000               0.000000000               0.000000000               0.000000000              -0.002603880               0.007950651               0.001719756              -0.001970282               0.003306951               0.001336669               0.000000000               0.000000000               0.000000000               0.000000000              -0.003992500               0.009382749               0.001177424              -0.002670025               0.004017560               0.001347535               0.000000000               0.000000000               0.000000000               0.000000000              -0.003912450               0.009318322               0.000866295              -0.002631953               0.003983394               0.001351441               0.000000000               0.000000000               0.000000000               0.000000000              -0.003441691               0.008855805               0.000668250              -0.002397604               0.003751107               0.001353503               0.000000000               0.000000000               0.000000000               0.000000000              -0.002871868               0.008290578               0.000533745              -0.002113268               0.003467921               0.001354653               0.000000000               0.000000000               0.000000000               0.000000000              -0.002320261               0.007728534               0.000437173              -0.001836160               0.003188205               0.001352046               0.000000000               0.000000000               0.000000000               0.000000000              -0.001820742               0.007193174               0.000360620              -0.001581921               0.002925008               0.001343087               0.000000000               0.000000000               0.000000000               0.000000000              -0.001377356               0.006685555               0.000294992              -0.001352200               0.002679229               0.001327030               0.000000000               0.000000000               0.000000000               0.000000000              -0.000993886               0.006210508               0.000233808              -0.001149018               0.002453155               0.001304137               0.000000000               0.000000000               0.000000000               0.000000000              -0.000659792               0.005792803               0.000177365              -0.000971520               0.002254755               0.001283235               0.000000000               0.000000000               0.000000000               0.000000000              -0.000379839               0.005461446               0.000127076              -0.000825118               0.002095503               0.001270385               0.000000000               0.000000000               0.000000000               0.000000000              -0.000174344               0.005225817               0.000080157              -0.000718604               0.001981456               0.001262852               0.000000000               0.000000000               0.000000000               0.000000000              -0.000044096               0.005077028               0.000042502              -0.000651163               0.001909380               0.001258217               0.000000000               0.000000000               0.000000000               0.000000000               0.000017981               0.004994112               0.000021113              -0.000617520               0.001870527               0.001253007               0.000000000               0.000000000               0.000000000               0.000000000               0.000028477               0.004959367               0.000008694              -0.000609241               0.001856186               0.001246945               0.000000000               0.000000000               0.000000000               0.000000000               0.000021599               0.004953109               0.000002732              -0.000611037               0.001854699               0.001243662               0.000000000               0.000000000               0.000000000               0.000000000              -0.002272949               0.004452686               0.001237986              -0.001408939               0.001953860               0.000544921               0.000000000               0.000000000               0.000000000               0.000000000              -0.003401350               0.006347520               0.001568356              -0.002068942               0.002805466               0.000736524               0.000000000               0.000000000               0.000000000               0.000000000              -0.004429330               0.008204761               0.001699733              -0.002686587               0.003630422               0.000943834               0.000000000               0.000000000               0.000000000               0.000000000              -0.004203904               0.008542035               0.001484638              -0.002644212               0.003728720               0.001084508               0.000000000               0.000000000               0.000000000               0.000000000              -0.003653932               0.008364010               0.001253390              -0.002415720               0.003593215               0.001177495               0.000000000               0.000000000               0.000000000               0.000000000              -0.003034701               0.008001506               0.001051065              -0.002138196               0.003379874               0.001241678               0.000000000               0.000000000               0.000000000               0.000000000              -0.002441126               0.007577305               0.000888510              -0.001862581               0.003146603               0.001284022               0.000000000               0.000000000               0.000000000               0.000000000              -0.001905459               0.007137103               0.000759770              -0.001606681               0.002914571               0.001307890               0.000000000               0.000000000               0.000000000               0.000000000              -0.001433256               0.006699375               0.000647075              -0.001374889               0.002691399               0.001316510               0.000000000               0.000000000               0.000000000               0.000000000              -0.001024794               0.006280134               0.000540218              -0.001169312               0.002483127               0.001313816               0.000000000               0.000000000               0.000000000               0.000000000              -0.000675874               0.005897609               0.000436960              -0.000990652               0.002296067               0.001305416               0.000000000               0.000000000               0.000000000               0.000000000              -0.000382990               0.005572851               0.000333128              -0.000840226               0.002137673               0.001297448               0.000000000               0.000000000               0.000000000               0.000000000              -0.000157425               0.005325218               0.000231846              -0.000724685               0.002016617               0.001291932               0.000000000               0.000000000               0.000000000               0.000000000              -0.000005204               0.005159722               0.000145079              -0.000646915               0.001935528               0.001288613               0.000000000               0.000000000               0.000000000               0.000000000               0.000075163               0.005058508               0.000075031              -0.000604126               0.001887528               0.001283402               0.000000000               0.000000000               0.000000000               0.000000000               0.000094647               0.005009649               0.000025035              -0.000590712               0.001866770               0.001276058               0.000000000               0.000000000               0.000000000               0.000000000               0.000086744               0.004997260               0.000005397              -0.000592127               0.001863112               0.001270985               0.000000000               0.000000000               0.000000000               0.000000000              -0.004114473               0.002587111               0.000322180              -0.001866313               0.001484464              -0.000381848               0.000000000               0.000000000               0.000000000               0.000000000              -0.004299594               0.004728643               0.001352648              -0.002203423               0.002310672               0.000107249               0.000000000               0.000000000               0.000000000               0.000000000              -0.004770118               0.006809637               0.002118452              -0.002639993               0.003149853               0.000509861               0.000000000               0.000000000               0.000000000               0.000000000              -0.004418445               0.007529699               0.002069424              -0.002598123               0.003375915               0.000777792               0.000000000               0.000000000               0.000000000               0.000000000              -0.003833760               0.007677673               0.001844146              -0.002397364               0.003358319               0.000960956               0.000000000               0.000000000               0.000000000               0.000000000              -0.003203763               0.007560648               0.001598961              -0.002146487               0.003235686               0.001089199               0.000000000               0.000000000               0.000000000               0.000000000              -0.002593978               0.007319904               0.001385993              -0.001887725               0.003069185               0.001181460               0.000000000               0.000000000               0.000000000               0.000000000              -0.002031701               0.007020665               0.001209202              -0.001639467               0.002886687               0.001247220               0.000000000               0.000000000               0.000000000               0.000000000              -0.001532558               0.006690254               0.001051411              -0.001410988               0.002700392               0.001289404               0.000000000               0.000000000               0.000000000               0.000000000              -0.001093373               0.006347346               0.000906175              -0.001203430               0.002516904               0.001313474               0.000000000               0.000000000               0.000000000               0.000000000              -0.000709182               0.006014420               0.000767008              -0.001017744               0.002344034               0.001326291               0.000000000               0.000000000               0.000000000               0.000000000              -0.000378403               0.005715441               0.000622180              -0.000856329               0.002190571               0.001334242               0.000000000               0.000000000               0.000000000               0.000000000              -0.000107024               0.005464654               0.000472982              -0.000723214               0.002062604               0.001339390               0.000000000               0.000000000               0.000000000               0.000000000               0.000089893               0.005269786               0.000331269              -0.000625012               0.001964915               0.001339903               0.000000000               0.000000000               0.000000000               0.000000000               0.000203222               0.005129793               0.000198525              -0.000565015               0.001898252               0.001333237               0.000000000               0.000000000               0.000000000               0.000000000               0.000239477               0.005046953               0.000084040              -0.000541064               0.001862656               0.001321592               0.000000000               0.000000000               0.000000000               0.000000000               0.000226300               0.005011763               0.000029644              -0.000541606               0.001851106               0.001309500               0.000000000               0.000000000               0.000000000               0.000000000              -0.006217396               0.001060329              -0.000481876              -0.002464062               0.001174789              -0.001289273               0.000000000               0.000000000               0.000000000               0.000000000              -0.005338454               0.003193187               0.001057065              -0.002401064               0.001864738              -0.000536327               0.000000000               0.000000000               0.000000000               0.000000000              -0.005043369               0.005215200               0.002319229              -0.002543158               0.002586101               0.000042943               0.000000000               0.000000000               0.000000000               0.000000000              -0.004480795               0.006202679               0.002470397              -0.002455627               0.002886080               0.000430453               0.000000000               0.000000000               0.000000000               0.000000000              -0.003847978               0.006647169               0.002305627              -0.002273883               0.002973661               0.000699778               0.000000000               0.000000000               0.000000000               0.000000000              -0.003214150               0.006792285               0.002063170              -0.002054338               0.002948851               0.000894513               0.000000000               0.000000000               0.000000000               0.000000000              -0.002607639               0.006771740               0.001831442              -0.001824328               0.002865333               0.001041005               0.000000000               0.000000000               0.000000000               0.000000000              -0.002044446               0.006645681               0.001625275              -0.001597374               0.002747663               0.001150288               0.000000000               0.000000000               0.000000000               0.000000000              -0.001527380               0.006453772               0.001439356              -0.001379486               0.002611064               0.001231578               0.000000000               0.000000000               0.000000000               0.000000000              -0.001059195               0.006224957               0.001269681              -0.001175315               0.002466736               0.001291421               0.000000000               0.000000000               0.000000000               0.000000000              -0.000639984               0.005984635               0.001107206              -0.000988071               0.002324215               0.001336144               0.000000000               0.000000000               0.000000000               0.000000000              -0.000268091               0.005749001               0.000939895              -0.000819157               0.002189367               0.001370209               0.000000000               0.000000000               0.000000000               0.000000000               0.000053602               0.005533891               0.000760597              -0.000671634               0.002068490               0.001396856               0.000000000               0.000000000               0.000000000               0.000000000               0.000306580               0.005347844               0.000571986              -0.000553512               0.001967101               0.001413589               0.000000000               0.000000000               0.000000000               0.000000000               0.000471197               0.005193909               0.000378892              -0.000472539               0.001888798               0.001416260               0.000000000               0.000000000               0.000000000               0.000000000               0.000537696               0.005081004               0.000186533              -0.000433489               0.001838147               0.001404659               0.000000000               0.000000000               0.000000000               0.000000000               0.000526248               0.005023561               0.000086080              -0.000430601               0.001818037               0.001387436               0.000000000               0.000000000               0.000000000               0.000000000              -0.008435024              -0.000038735              -0.001053516              -0.003158290               0.001039844              -0.002118445               0.000000000               0.000000000               0.000000000               0.000000000              -0.006459010               0.001832372               0.000726565              -0.002651172               0.001494504              -0.001156668               0.000000000               0.000000000               0.000000000               0.000000000              -0.005278416               0.003559201               0.002268771              -0.002424302               0.001994487              -0.000429815               0.000000000               0.000000000               0.000000000               0.000000000              -0.004419346               0.004668187               0.002594156              -0.002240773               0.002302970               0.000062196               0.000000000               0.000000000               0.000000000               0.000000000              -0.003697778               0.005345375               0.002517889              -0.002054834               0.002466717               0.000411883               0.000000000               0.000000000               0.000000000               0.000000000              -0.003047184               0.005739369               0.002315707              -0.001860111               0.002533140               0.000673029               0.000000000               0.000000000               0.000000000               0.000000000              -0.002452889               0.005937598               0.002097755              -0.001662030               0.002533189               0.000871159               0.000000000               0.000000000               0.000000000               0.000000000              -0.001902075               0.005995001               0.001894142              -0.001462650               0.002485863               0.001023213               0.000000000               0.000000000               0.000000000               0.000000000              -0.001382047               0.005968471               0.001706375              -0.001264324               0.002410911               0.001146587               0.000000000               0.000000000               0.000000000               0.000000000              -0.000896716               0.005887004               0.001531467              -0.001072142               0.002319695               0.001247553               0.000000000               0.000000000               0.000000000               0.000000000              -0.000447438               0.005773099               0.001364616              -0.000889425               0.002220822               0.001331397               0.000000000               0.000000000               0.000000000               0.000000000              -0.000030613               0.005641328               0.001195301              -0.000716645               0.002119305               0.001402660               0.000000000               0.000000000               0.000000000               0.000000000               0.000349945               0.005499697               0.001009406              -0.000556232               0.002018625               0.001462393               0.000000000               0.000000000               0.000000000               0.000000000               0.000681472               0.005357606               0.000799904              -0.000414148               0.001923900               0.001509752               0.000000000               0.000000000               0.000000000               0.000000000               0.000941410               0.005226427               0.000564977              -0.000300274               0.001842216               0.001541942               0.000000000               0.000000000               0.000000000               0.000000000               0.001098435               0.005108652               0.000298425              -0.000226668               0.001778423               0.001551755               0.000000000               0.000000000               0.000000000               0.000000000               0.001143562               0.005048556               0.000155992              -0.000202233               0.001750246               0.001548013               0.000000000               0.000000000               0.000000000               0.000000000              -0.010561725              -0.000725161              -0.001285745              -0.003869999               0.001048272              -0.002821727               0.000000000               0.000000000               0.000000000               0.000000000              -0.007570599               0.000729018               0.000424971              -0.002930099               0.001219697              -0.001710402               0.000000000               0.000000000               0.000000000               0.000000000              -0.005488905               0.002008855               0.001965241              -0.002309443               0.001439422              -0.000870021               0.000000000               0.000000000               0.000000000               0.000000000              -0.004276976               0.003105886               0.002383882              -0.001992098               0.001699316              -0.000292783               0.000000000               0.000000000               0.000000000               0.000000000              -0.003430934               0.003931201               0.002389803              -0.001777997               0.001903052               0.000125055               0.000000000               0.000000000               0.000000000               0.000000000              -0.002750697               0.004521452               0.002244986              -0.001596690               0.002039364               0.000442675               0.000000000               0.000000000               0.000000000               0.000000000              -0.002164059               0.004912444               0.002065519              -0.001425575               0.002112656               0.000687081               0.000000000               0.000000000               0.000000000               0.000000000              -0.001626548               0.005153209               0.001893098              -0.001254104               0.002135753               0.000881649               0.000000000               0.000000000               0.000000000               0.000000000              -0.001116574               0.005300828               0.001728203              -0.001081317               0.002127363               0.001046047               0.000000000               0.000000000               0.000000000               0.000000000              -0.000626787               0.005379601               0.001571458              -0.000907494               0.002095680               0.001188186               0.000000000               0.000000000               0.000000000               0.000000000              -0.000151648               0.005404280               0.001424200              -0.000732402               0.002045542               0.001313140               0.000000000               0.000000000               0.000000000               0.000000000               0.000312719               0.005391670               0.001276071              -0.000556689               0.001982768               0.001426080               0.000000000               0.000000000               0.000000000               0.000000000               0.000765002               0.005346839               0.001110352              -0.000381479               0.001909421               0.001527942               0.000000000               0.000000000               0.000000000               0.000000000               0.001195987               0.005275517               0.000913575              -0.000210945               0.001828803               0.001617858               0.000000000               0.000000000               0.000000000               0.000000000               0.001590171               0.005190952               0.000670520              -0.000052556               0.001747819               0.001695263               0.000000000               0.000000000               0.000000000               0.000000000               0.001920696               0.005100202               0.000365873               0.000082734               0.001672472               0.001755207               0.000000000               0.000000000               0.000000000               0.000000000               0.002105845               0.005068627               0.000205671               0.000156112               0.001637488               0.001793600               0.000000000               0.000000000               0.000000000               0.000000000              -0.012343061              -0.001084904              -0.001140709              -0.004493032               0.001136035              -0.003356997               0.000000000               0.000000000               0.000000000               0.000000000              -0.008530842              -0.000070921               0.000202304              -0.003190198               0.001039752              -0.002150446               0.000000000               0.000000000               0.000000000               0.000000000              -0.005669032               0.000740519               0.001444046              -0.002218450               0.000986316              -0.001232134               0.000000000               0.000000000               0.000000000               0.000000000              -0.004113556               0.001745253               0.001833868              -0.001760738               0.001168655              -0.000592083               0.000000000               0.000000000               0.000000000               0.000000000              -0.003130561               0.002642734               0.001884460              -0.001504299               0.001382334              -0.000121965               0.000000000               0.000000000               0.000000000               0.000000000              -0.002413860               0.003360643               0.001798557              -0.001325275               0.001561961               0.000236686               0.000000000               0.000000000               0.000000000               0.000000000              -0.001826508               0.003898324               0.001675231              -0.001172229               0.001690171               0.000517942               0.000000000               0.000000000               0.000000000               0.000000000              -0.001304726               0.004300955               0.001549449              -0.001026890               0.001775933               0.000749043               0.000000000               0.000000000               0.000000000               0.000000000              -0.000807493               0.004602095               0.001425956              -0.000878070               0.001826706               0.000948636               0.000000000               0.000000000               0.000000000               0.000000000              -0.000316540               0.004818395               0.001309642              -0.000721001               0.001846449               0.001125448               0.000000000               0.000000000               0.000000000               0.000000000               0.000177022               0.004967457               0.001202215              -0.000554548               0.001840652               0.001286104               0.000000000               0.000000000               0.000000000               0.000000000               0.000678716               0.005062746               0.001095622              -0.000378325               0.001813673               0.001435348               0.000000000               0.000000000               0.000000000               0.000000000               0.001195921               0.005116417               0.000973018              -0.000191082               0.001769149               0.001578067               0.000000000               0.000000000               0.000000000               0.000000000               0.001731395               0.005136762               0.000819672               0.000007177               0.001709845               0.001717021               0.000000000               0.000000000               0.000000000               0.000000000               0.002281203               0.005121851               0.000619290               0.000215217               0.001635528               0.001850745               0.000000000               0.000000000               0.000000000               0.000000000               0.002840355               0.005073640               0.000346546               0.000430924               0.001547555               0.001978479               0.000000000               0.000000000               0.000000000               0.000000000               0.003228138               0.005082057               0.000203029               0.000575289               0.001502239               0.002077528               0.000000000               0.000000000               0.000000000               0.000000000              -0.013531980              -0.001234299              -0.000666945              -0.004920202               0.001228626              -0.003691576               0.000000000               0.000000000               0.000000000               0.000000000              -0.009183851              -0.000550097               0.000070271              -0.003375180               0.000941688              -0.002433492               0.000000000               0.000000000               0.000000000               0.000000000              -0.005795350              -0.000089010               0.000763431              -0.002162129               0.000691035              -0.001471094               0.000000000               0.000000000               0.000000000               0.000000000              -0.003991796               0.000819125               0.000999660              -0.001599312               0.000806140              -0.000793172               0.000000000               0.000000000               0.000000000               0.000000000              -0.002900503               0.001732141               0.001044004              -0.001304204               0.001012108              -0.000292096               0.000000000               0.000000000               0.000000000               0.000000000              -0.002143982               0.002514239               0.001006785              -0.001118271               0.001210828               0.000092557               0.000000000               0.000000000               0.000000000               0.000000000              -0.001550354               0.003143456               0.000943497              -0.000974313               0.001372579               0.000398266               0.000000000               0.000000000               0.000000000               0.000000000              -0.001036301               0.003650782               0.000875431              -0.000844959               0.001498568               0.000653609               0.000000000               0.000000000               0.000000000               0.000000000              -0.000549546               0.004057881               0.000809508              -0.000713314               0.001590385               0.000877071               0.000000000               0.000000000               0.000000000               0.000000000              -0.000063768               0.004373797               0.000748020              -0.000570637               0.001648130               0.001077493               0.000000000               0.000000000               0.000000000               0.000000000               0.000433960               0.004611914               0.000691048              -0.000413754               0.001675207               0.001261453               0.000000000               0.000000000               0.000000000               0.000000000               0.000954639               0.004789076               0.000635903              -0.000240645               0.001676558               0.001435913               0.000000000               0.000000000               0.000000000               0.000000000               0.001513969               0.004924844               0.000574009              -0.000047867               0.001657554               0.001609687               0.000000000               0.000000000               0.000000000               0.000000000               0.002129470               0.005026435               0.000493474               0.000170245               0.001618713               0.001788958               0.000000000               0.000000000               0.000000000               0.000000000               0.002811793               0.005075050               0.000381054               0.000420037               0.001551654               0.001971691               0.000000000               0.000000000               0.000000000               0.000000000               0.003578640               0.005060317               0.000218157               0.000709443               0.001450274               0.002159718               0.000000000               0.000000000               0.000000000               0.000000000               0.004164526               0.005101264               0.000133136               0.000924030               0.001392394               0.002316425               0.000000000               0.000000000               0.000000000               0.000000000              -0.013950281              -0.001273488              -0.000000000              -0.005072166               0.001266218              -0.003805949               0.000000000               0.000000000               0.000000000               0.000000000              -0.009415100              -0.000710074              -0.000000000              -0.003441901               0.000910603              -0.002531298               0.000000000               0.000000000               0.000000000               0.000000000              -0.005840897              -0.000375965               0.000000000              -0.002143339               0.000589121              -0.001554219               0.000000000               0.000000000               0.000000000               0.000000000              -0.003947867               0.000492286              -0.000000000              -0.001541984               0.000678085              -0.000863899               0.000000000               0.000000000               0.000000000               0.000000000              -0.002815926               0.001401516              -0.000000000              -0.001231160               0.000877553              -0.000353607               0.000000000               0.000000000               0.000000000               0.000000000              -0.002040980               0.002200681               0.000000000              -0.001040450               0.001080370               0.000039919               0.000000000               0.000000000               0.000000000               0.000000000              -0.001444561               0.002857058               0.000000000              -0.000898840               0.001251957               0.000353116               0.000000000               0.000000000               0.000000000               0.000000000              -0.000928737               0.003399562               0.000000000              -0.000773220               0.001390916               0.000617696               0.000000000               0.000000000               0.000000000               0.000000000              -0.000445355               0.003851193               0.000000000              -0.000648406               0.001499853               0.000851448               0.000000000               0.000000000               0.000000000               0.000000000               0.000034549               0.004208680              -0.000000000              -0.000513128               0.001573922               0.001060794               0.000000000               0.000000000               0.000000000               0.000000000               0.000529508               0.004475696              -0.000000000              -0.000360896               0.001612182               0.001251287               0.000000000               0.000000000               0.000000000               0.000000000               0.001057402               0.004685539              -0.000000000              -0.000189166               0.001624886               0.001435720               0.000000000               0.000000000               0.000000000               0.000000000               0.001634321               0.004860631              -0.000000000               0.000005291               0.001618430               0.001623722               0.000000000               0.000000000               0.000000000               0.000000000               0.002278032               0.004992490              -0.000000000               0.000230199               0.001587414               0.001817612               0.000000000               0.000000000               0.000000000               0.000000000               0.003010193               0.005061117              -0.000000000               0.000496178               0.001521629               0.002017807               0.000000000               0.000000000               0.000000000               0.000000000               0.003863444               0.005056148              -0.000000000               0.000816765               0.001413111               0.002229876               0.000000000               0.000000000               0.000000000               0.000000000               0.004534308               0.005108398              -0.000000000               0.001061805               0.001348847               0.002410652               0.000000000               0.000000000               0.000000000               0.000000000               0.002259912               0.024085597               0.000000000              -0.002163227               0.008749528               0.006586301               0.000000000               0.000000000               0.000000000               0.000000000               0.002181651               0.018550879               0.000000000              -0.001500737               0.006683810               0.005183073               0.000000000               0.000000000               0.000000000               0.000000000               0.002801554               0.014060872               0.000000000              -0.000707024               0.004922585               0.004215561               0.000000000               0.000000000               0.000000000               0.000000000               0.002580655               0.011538645               0.000000000              -0.000474584               0.004004371               0.003529787               0.000000000               0.000000000               0.000000000               0.000000000               0.002120044               0.009951299               0.000000000              -0.000448895               0.003466698               0.003017803               0.000000000               0.000000000               0.000000000               0.000000000               0.001634613               0.008841505               0.000000000              -0.000492207               0.003111208               0.002619001               0.000000000               0.000000000               0.000000000               0.000000000               0.001201614               0.007983523               0.000000000              -0.000547334               0.002843592               0.002296259               0.000000000               0.000000000               0.000000000               0.000000000               0.000837404               0.007268217              -0.000000000              -0.000594499               0.002620881               0.002026382               0.000000000               0.000000000               0.000000000               0.000000000               0.000539385               0.006624815              -0.000000000              -0.000625831               0.002416860               0.001791029               0.000000000               0.000000000               0.000000000               0.000000000               0.000301419               0.006016581               0.000000000              -0.000639039               0.002218520               0.001579481               0.000000000               0.000000000               0.000000000               0.000000000               0.000124152               0.005426874               0.000000000              -0.000631801               0.002019540               0.001387739               0.000000000               0.000000000               0.000000000               0.000000000               0.000001982               0.004837804              -0.000000000              -0.000603981               0.001813912               0.001209931               0.000000000               0.000000000               0.000000000               0.000000000              -0.000078179               0.004223290               0.000000000              -0.000557227               0.001593492               0.001036264               0.000000000               0.000000000               0.000000000               0.000000000              -0.000122798               0.003569697               0.000000000              -0.000492260               0.001353974               0.000861714               0.000000000               0.000000000               0.000000000               0.000000000              -0.000123973               0.002867144               0.000000000              -0.000404882               0.001090666               0.000685784               0.000000000               0.000000000               0.000000000               0.000000000              -0.000074014               0.002080035              -0.000000000              -0.000287759               0.000789258               0.000501499               0.000000000               0.000000000               0.000000000               0.000000000              -0.000102343               0.001472686              -0.000000000              -0.000222464               0.000565045               0.000342581               0.000000000               0.000000000               0.000000000               0.000000000               0.002326136               0.023570026              -0.001604409              -0.002073947               0.008547912               0.006473965               0.000000000               0.000000000               0.000000000               0.000000000               0.002118310               0.018224284              -0.000734654              -0.001483666               0.006569256               0.005085590               0.000000000               0.000000000               0.000000000               0.000000000               0.002598669               0.013931589               0.000126626              -0.000766946               0.004899465               0.004132519               0.000000000               0.000000000               0.000000000               0.000000000               0.002326149               0.011513259               0.000482094              -0.000566850               0.004026665               0.003459815               0.000000000               0.000000000               0.000000000               0.000000000               0.001863342               0.009979763               0.000618308              -0.000548716               0.003509459               0.002960744               0.000000000               0.000000000               0.000000000               0.000000000               0.001392387               0.008894037               0.000655628              -0.000589608               0.003161185               0.002571577               0.000000000               0.000000000               0.000000000               0.000000000               0.000978548               0.008047830               0.000649212              -0.000639022               0.002895591               0.002256569               0.000000000               0.000000000               0.000000000               0.000000000               0.000639680               0.007330543               0.000625467              -0.000676436               0.002668969               0.001992532               0.000000000               0.000000000               0.000000000               0.000000000               0.000370364               0.006685760               0.000595024              -0.000696832               0.002460842               0.001764010               0.000000000               0.000000000               0.000000000               0.000000000               0.000161056               0.006082163               0.000565282              -0.000699873               0.002260658               0.001560786               0.000000000               0.000000000               0.000000000               0.000000000               0.000005998               0.005500487               0.000535681              -0.000685310               0.002061914               0.001376604               0.000000000               0.000000000               0.000000000               0.000000000              -0.000097479               0.004923209               0.000496314              -0.000651954               0.001858371               0.001206417               0.000000000               0.000000000               0.000000000               0.000000000              -0.000153671               0.004331409               0.000445507              -0.000599051               0.001643472               0.001044421               0.000000000               0.000000000               0.000000000               0.000000000              -0.000174449               0.003712277               0.000387513              -0.000529452               0.001413897               0.000884446               0.000000000               0.000000000               0.000000000               0.000000000              -0.000156610               0.003056263               0.000305339              -0.000440761               0.001165664               0.000724904               0.000000000               0.000000000               0.000000000               0.000000000              -0.000091004               0.002346127               0.000177336              -0.000327392               0.000891165               0.000563773               0.000000000               0.000000000               0.000000000               0.000000000              -0.000103765               0.001814429               0.000110911              -0.000265715               0.000693375               0.000427660               0.000000000               0.000000000               0.000000000               0.000000000               0.002485086               0.022100330              -0.002970330              -0.001830631               0.007976913               0.006146282               0.000000000               0.000000000               0.000000000               0.000000000               0.001918110               0.017297924              -0.001355628              -0.001442946               0.006246899               0.004803953               0.000000000               0.000000000               0.000000000               0.000000000               0.002017523               0.013565891               0.000227724              -0.000939163               0.004834973               0.003895810               0.000000000               0.000000000               0.000000000               0.000000000               0.001613127               0.011428413               0.000858744              -0.000823627               0.004083975               0.003260348               0.000000000               0.000000000               0.000000000               0.000000000               0.001139480               0.010037032               0.001086889              -0.000827322               0.003621418               0.002794096               0.000000000               0.000000000               0.000000000               0.000000000               0.000717915               0.009017390               0.001139286              -0.000857954               0.003291751               0.002433797               0.000000000               0.000000000               0.000000000               0.000000000               0.000379216               0.008196813               0.001116306              -0.000882394               0.003026375               0.002143981               0.000000000               0.000000000               0.000000000               0.000000000               0.000120820               0.007483404               0.001065948              -0.000890116               0.002791148               0.001901032               0.000000000               0.000000000               0.000000000               0.000000000              -0.000068894               0.006840171               0.001010053              -0.000880855               0.002573652               0.001692798               0.000000000               0.000000000               0.000000000               0.000000000              -0.000202052               0.006247246               0.000954156              -0.000856674               0.002367952               0.001511279               0.000000000               0.000000000               0.000000000               0.000000000              -0.000288865               0.005686236               0.000894713              -0.000819102               0.002168427               0.001349325               0.000000000               0.000000000               0.000000000               0.000000000              -0.000333663               0.005142334               0.000819302              -0.000767914               0.001970065               0.001202152               0.000000000               0.000000000               0.000000000               0.000000000              -0.000335584               0.004604393               0.000725750              -0.000701392               0.001768579               0.001067188               0.000000000               0.000000000               0.000000000               0.000000000              -0.000301330               0.004066708               0.000616953              -0.000621336               0.001562668               0.000941332               0.000000000               0.000000000               0.000000000               0.000000000              -0.000229895               0.003529125               0.000472441              -0.000527350               0.001352146               0.000824796               0.000000000               0.000000000               0.000000000               0.000000000              -0.000123302               0.002997222               0.000267645              -0.000420890               0.001139361               0.000718471               0.000000000               0.000000000               0.000000000               0.000000000              -0.000101641               0.002632010               0.000162046              -0.000367116               0.000999700               0.000632584               0.000000000               0.000000000               0.000000000               0.000000000               0.002617172               0.019880624              -0.003915383              -0.001503637               0.007128020               0.005624383               0.000000000               0.000000000               0.000000000               0.000000000               0.001550789               0.015917256              -0.001786144              -0.001408108               0.005775068               0.004366960               0.000000000               0.000000000               0.000000000               0.000000000               0.001124357               0.013022337               0.000269398              -0.001206155               0.004742787               0.003536632               0.000000000               0.000000000               0.000000000               0.000000000               0.000577115               0.011281855               0.001042237              -0.001193811               0.004158518               0.002964707               0.000000000               0.000000000               0.000000000               0.000000000               0.000124189               0.010075679               0.001300590              -0.001212886               0.003762822               0.002549935               0.000000000               0.000000000               0.000000000               0.000000000              -0.000205787               0.009137238               0.001343829              -0.001219322               0.003452156               0.002232834               0.000000000               0.000000000               0.000000000               0.000000000              -0.000423662               0.008346201               0.001299640              -0.001202146               0.003182754               0.001980608               0.000000000               0.000000000               0.000000000               0.000000000              -0.000557354               0.007646391               0.001226150              -0.001164804               0.002937039               0.001772235               0.000000000               0.000000000               0.000000000               0.000000000              -0.000631476               0.007015384               0.001151433              -0.001113724               0.002709679               0.001595955               0.000000000               0.000000000               0.000000000               0.000000000              -0.000661711               0.006439896               0.001077825              -0.001053126               0.002497652               0.001444526               0.000000000               0.000000000               0.000000000               0.000000000              -0.000649021               0.005910448               0.000997129              -0.000982187               0.002297525               0.001315338               0.000000000               0.000000000               0.000000000               0.000000000              -0.000597626               0.005410563               0.000896446              -0.000900428               0.002103645               0.001203217               0.000000000               0.000000000               0.000000000               0.000000000              -0.000518996               0.004936443               0.000774987              -0.000811677               0.001916024               0.001104346               0.000000000               0.000000000               0.000000000               0.000000000              -0.000418390               0.004490903               0.000638197              -0.000718258               0.001736372               0.001018114               0.000000000               0.000000000               0.000000000               0.000000000              -0.000292369               0.004083359               0.000468790              -0.000620057               0.001567792               0.000947735               0.000000000               0.000000000               0.000000000               0.000000000              -0.000149282               0.003733446               0.000253157              -0.000522660               0.001418690               0.000896029               0.000000000               0.000000000               0.000000000               0.000000000              -0.000097777               0.003526014               0.000145314              -0.000477417               0.001334465               0.000857048               0.000000000               0.000000000               0.000000000               0.000000000               0.002565648               0.017179306              -0.004354328              -0.001185296               0.006121476               0.004936180               0.000000000               0.000000000               0.000000000               0.000000000               0.000986125               0.014275805              -0.002007178              -0.001414676               0.005230113               0.003815436               0.000000000               0.000000000               0.000000000               0.000000000               0.000021130               0.012378028               0.000218186              -0.001539326               0.004639077               0.003099751               0.000000000               0.000000000               0.000000000               0.000000000              -0.000610236               0.011069671               0.000993879              -0.001612544               0.004227368               0.002614824               0.000000000               0.000000000               0.000000000               0.000000000              -0.000977311               0.010046708               0.001230413              -0.001622327               0.003889645               0.002267318               0.000000000               0.000000000               0.000000000               0.000000000              -0.001159161               0.009186740               0.001253173              -0.001583024               0.003589891               0.002006866               0.000000000               0.000000000               0.000000000               0.000000000              -0.001220854               0.008427595               0.001193485              -0.001511266               0.003312925               0.001801659               0.000000000               0.000000000               0.000000000               0.000000000              -0.001205223               0.007747683               0.001112090              -0.001420416               0.003056007               0.001635591               0.000000000               0.000000000               0.000000000               0.000000000              -0.001146018               0.007138422               0.001035551              -0.001322056               0.002820136               0.001498079               0.000000000               0.000000000               0.000000000               0.000000000              -0.001058583               0.006591733               0.000963042              -0.001220932               0.002604200               0.001383267               0.000000000               0.000000000               0.000000000               0.000000000              -0.000942198               0.006093390               0.000879392              -0.001114996               0.002402775               0.001287779               0.000000000               0.000000000               0.000000000               0.000000000              -0.000799128               0.005632173               0.000773356              -0.001003692               0.002211936               0.001208244               0.000000000               0.000000000               0.000000000               0.000000000              -0.000637788               0.005217417               0.000652261              -0.000891346               0.002036237               0.001144891               0.000000000               0.000000000               0.000000000               0.000000000              -0.000472725               0.004854253               0.000518056              -0.000784052               0.001879419               0.001095367               0.000000000               0.000000000               0.000000000               0.000000000              -0.000305867               0.004552524               0.000363735              -0.000683764               0.001745414               0.001061650               0.000000000               0.000000000               0.000000000               0.000000000              -0.000145974               0.004338117               0.000188941              -0.000597003               0.001645026               0.001048022               0.000000000               0.000000000               0.000000000               0.000000000              -0.000082048               0.004236696               0.000104098              -0.000560354               0.001599002               0.001038649               0.000000000               0.000000000               0.000000000               0.000000000               0.002207783               0.014271212              -0.004297585              -0.000955984               0.005075684               0.004119699               0.000000000               0.000000000               0.000000000               0.000000000               0.000229492               0.012550856              -0.002051772              -0.001482795               0.004677841               0.003195046               0.000000000               0.000000000               0.000000000               0.000000000              -0.001166144               0.011684035               0.000045094              -0.001897804               0.004527241               0.002629437               0.000000000               0.000000000               0.000000000               0.000000000              -0.001770217               0.010772134               0.000723875              -0.002010343               0.004260790               0.002250447               0.000000000               0.000000000               0.000000000               0.000000000              -0.001974089               0.009911733               0.000915952              -0.001979245               0.003963626               0.001984381               0.000000000               0.000000000               0.000000000               0.000000000              -0.001966295               0.009119646               0.000925082              -0.001877312               0.003665622               0.001788310               0.000000000               0.000000000               0.000000000               0.000000000              -0.001850830               0.008392246               0.000870213              -0.001743088               0.003378416               0.001635329               0.000000000               0.000000000               0.000000000               0.000000000              -0.001680394               0.007742176               0.000803271              -0.001597916               0.003113338               0.001515422               0.000000000               0.000000000               0.000000000               0.000000000              -0.001488353               0.007163354               0.000746078              -0.001453548               0.002872277               0.001418729               0.000000000               0.000000000               0.000000000               0.000000000              -0.001286541               0.006642523               0.000694087              -0.001312765               0.002651740               0.001338975               0.000000000               0.000000000               0.000000000               0.000000000              -0.001075651               0.006168010               0.000625887              -0.001174368               0.002447438               0.001273071               0.000000000               0.000000000               0.000000000               0.000000000              -0.000857942               0.005737581               0.000539064              -0.001038923               0.002258815               0.001219892               0.000000000               0.000000000               0.000000000               0.000000000              -0.000636041               0.005366922               0.000443943              -0.000909378               0.002092082               0.001182704               0.000000000               0.000000000               0.000000000               0.000000000              -0.000432239               0.005065351               0.000336835              -0.000795257               0.001953519               0.001158262               0.000000000               0.000000000               0.000000000               0.000000000              -0.000256016               0.004841118               0.000221789              -0.000701144               0.001847405               0.001146261               0.000000000               0.000000000               0.000000000               0.000000000              -0.000112234               0.004708154               0.000109770              -0.000630605               0.001779571               0.001148966               0.000000000               0.000000000               0.000000000               0.000000000              -0.000055584               0.004661055               0.000057921              -0.000603475               0.001754828               0.001151353               0.000000000               0.000000000               0.000000000               0.000000000               0.001481183               0.011396794              -0.003836100              -0.000869157               0.004088611               0.003219454               0.000000000               0.000000000               0.000000000               0.000000000              -0.000666799               0.010868932              -0.001982787              -0.001608663               0.004159162               0.002550498               0.000000000               0.000000000               0.000000000               0.000000000              -0.002293950               0.010948616              -0.000258779              -0.002228803               0.004392437               0.002163634               0.000000000               0.000000000               0.000000000               0.000000000              -0.002748935               0.010363741               0.000274807              -0.002326313               0.004229983               0.001903671               0.000000000               0.000000000               0.000000000               0.000000000              -0.002730776               0.009637179               0.000433398              -0.002228683               0.003955255               0.001726572               0.000000000               0.000000000               0.000000000               0.000000000              -0.002512006               0.008907698               0.000455584              -0.002055459               0.003654356               0.001598897               0.000000000               0.000000000               0.000000000               0.000000000              -0.002220550               0.008225377               0.000432752              -0.001860874               0.003362056               0.001501182               0.000000000               0.000000000               0.000000000               0.000000000              -0.001911971               0.007615420               0.000404593              -0.001668912               0.003094752               0.001425840               0.000000000               0.000000000               0.000000000               0.000000000              -0.001609104               0.007065922               0.000382870              -0.001486651               0.002850834               0.001364183               0.000000000               0.000000000               0.000000000               0.000000000              -0.001319194               0.006561528               0.000365296              -0.001314886               0.002625449               0.001310564               0.000000000               0.000000000               0.000000000               0.000000000              -0.001036669               0.006103161               0.000329124              -0.001151643               0.002418247               0.001266605               0.000000000               0.000000000               0.000000000               0.000000000              -0.000770893               0.005697729               0.000272923              -0.001001299               0.002232990               0.001231692               0.000000000               0.000000000               0.000000000               0.000000000              -0.000528827               0.005363989               0.000215994              -0.000868806               0.002077581               0.001208774               0.000000000               0.000000000               0.000000000               0.000000000              -0.000320674               0.005115248               0.000154294              -0.000759657               0.001958285               0.001198628               0.000000000               0.000000000               0.000000000               0.000000000              -0.000160390               0.004952175               0.000090594              -0.000679166               0.001877097               0.001197931               0.000000000               0.000000000               0.000000000               0.000000000              -0.000058081               0.004863108               0.000040182              -0.000629667               0.001830909               0.001201242               0.000000000               0.000000000               0.000000000               0.000000000              -0.000026394               0.004832331               0.000020896              -0.000613938               0.001815407               0.001201469               0.000000000               0.000000000               0.000000000               0.000000000               0.000422143               0.008744917              -0.003089516              -0.000934811               0.003226546               0.002291735               0.000000000               0.000000000               0.000000000               0.000000000              -0.001648311               0.009328877              -0.001857265              -0.001784223               0.003704335               0.001920112               0.000000000               0.000000000               0.000000000               0.000000000              -0.003248516               0.010170339              -0.000677696              -0.002489480               0.004219906               0.001730426               0.000000000               0.000000000               0.000000000               0.000000000              -0.003444811               0.009839222              -0.000279446              -0.002521701               0.004120275               0.001598574               0.000000000               0.000000000               0.000000000               0.000000000              -0.003181190               0.009228802              -0.000116350              -0.002346541               0.003858417               0.001511876               0.000000000               0.000000000               0.000000000               0.000000000              -0.002765833               0.008569175              -0.000048092              -0.002108329               0.003559140               0.001450811               0.000000000               0.000000000               0.000000000               0.000000000              -0.002323354               0.007944817              -0.000015850              -0.001864355               0.003269698               0.001405342               0.000000000               0.000000000               0.000000000               0.000000000              -0.001904196               0.007373681               0.000008097              -0.001635779               0.003003129               0.001367350               0.000000000               0.000000000               0.000000000               0.000000000              -0.001523438               0.006844283               0.000030704              -0.001426821               0.002757012               0.001330191               0.000000000               0.000000000               0.000000000               0.000000000              -0.001177919               0.006353072               0.000051931              -0.001235851               0.002529620               0.001293769               0.000000000               0.000000000               0.000000000               0.000000000              -0.000860937               0.005910225               0.000057784              -0.001061627               0.002323931               0.001262304               0.000000000               0.000000000               0.000000000               0.000000000              -0.000582055               0.005544822               0.000046802              -0.000911371               0.002152046               0.001240675               0.000000000               0.000000000               0.000000000               0.000000000              -0.000352343               0.005270091               0.000038290              -0.000790888               0.002020309               0.001229421               0.000000000               0.000000000               0.000000000               0.000000000              -0.000175984               0.005084621               0.000028924              -0.000701570               0.001928714               0.001227143               0.000000000               0.000000000               0.000000000               0.000000000              -0.000062047               0.004975789               0.000013654              -0.000645240               0.001873660               0.001228420               0.000000000               0.000000000               0.000000000               0.000000000              -0.000011910               0.004919016               0.000003303              -0.000619342               0.001846103               0.001226761               0.000000000               0.000000000               0.000000000               0.000000000              -0.000006644               0.004897740               0.000002423              -0.000614708               0.001837466               0.001222759               0.000000000               0.000000000               0.000000000               0.000000000              -0.000826176               0.006514893              -0.002183961              -0.001124176               0.002546334               0.001422158               0.000000000               0.000000000               0.000000000               0.000000000              -0.002603880               0.007950651              -0.001719756              -0.001970282               0.003306951               0.001336669               0.000000000               0.000000000               0.000000000               0.000000000              -0.003992500               0.009382749              -0.001177424              -0.002670025               0.004017560               0.001347535               0.000000000               0.000000000               0.000000000               0.000000000              -0.003912450               0.009318322              -0.000866295              -0.002631953               0.003983394               0.001351441               0.000000000               0.000000000               0.000000000               0.000000000              -0.003441691               0.008855805              -0.000668250              -0.002397604               0.003751107               0.001353503               0.000000000               0.000000000               0.000000000               0.000000000              -0.002871868               0.008290578              -0.000533745              -0.002113268               0.003467921               0.001354653               0.000000000               0.000000000               0.000000000               0.000000000              -0.002320261               0.007728534              -0.000437173              -0.001836160               0.003188205               0.001352046               0.000000000               0.000000000               0.000000000               0.000000000              -0.001820742               0.007193174              -0.000360620              -0.001581921               0.002925008               0.001343087               0.000000000               0.000000000               0.000000000               0.000000000              -0.001377356               0.006685555              -0.000294992              -0.001352200               0.002679229               0.001327030               0.000000000               0.000000000               0.000000000               0.000000000              -0.000993886               0.006210508              -0.000233808              -0.001149018               0.002453155               0.001304137               0.000000000               0.000000000               0.000000000               0.000000000              -0.000659792               0.005792803              -0.000177365              -0.000971520               0.002254755               0.001283235               0.000000000               0.000000000               0.000000000               0.000000000              -0.000379839               0.005461446              -0.000127076              -0.000825118               0.002095503               0.001270385               0.000000000               0.000000000               0.000000000               0.000000000              -0.000174344               0.005225817              -0.000080157              -0.000718604               0.001981456               0.001262852               0.000000000               0.000000000               0.000000000               0.000000000              -0.000044096               0.005077028              -0.000042502              -0.000651163               0.001909380               0.001258217               0.000000000               0.000000000               0.000000000               0.000000000               0.000017981               0.004994112              -0.000021113              -0.000617520               0.001870527               0.001253007               0.000000000               0.000000000               0.000000000               0.000000000               0.000028477               0.004959367              -0.000008694              -0.000609241               0.001856186               0.001246945               0.000000000               0.000000000               0.000000000               0.000000000               0.000021599               0.004953109              -0.000002732              -0.000611037               0.001854699               0.001243662               0.000000000               0.000000000               0.000000000               0.000000000              -0.002272949               0.004452686              -0.001237986              -0.001408939               0.001953860               0.000544921               0.000000000               0.000000000               0.000000000               0.000000000              -0.003401350               0.006347520              -0.001568356              -0.002068942               0.002805466               0.000736524               0.000000000               0.000000000               0.000000000               0.000000000              -0.004429330               0.008204761              -0.001699733              -0.002686587               0.003630422               0.000943834               0.000000000               0.000000000               0.000000000               0.000000000              -0.004203904               0.008542035              -0.001484638              -0.002644212               0.003728720               0.001084508               0.000000000               0.000000000               0.000000000               0.000000000              -0.003653932               0.008364010              -0.001253390              -0.002415720               0.003593215               0.001177495               0.000000000               0.000000000               0.000000000               0.000000000              -0.003034701               0.008001506              -0.001051065              -0.002138196               0.003379874               0.001241678               0.000000000               0.000000000               0.000000000               0.000000000              -0.002441126               0.007577305              -0.000888510              -0.001862581               0.003146603               0.001284022               0.000000000               0.000000000               0.000000000               0.000000000              -0.001905459               0.007137103              -0.000759770              -0.001606681               0.002914571               0.001307890               0.000000000               0.000000000               0.000000000               0.000000000              -0.001433256               0.006699375              -0.000647075              -0.001374889               0.002691399               0.001316510               0.000000000               0.000000000               0.000000000               0.000000000              -0.001024794               0.006280134              -0.000540218              -0.001169312               0.002483127               0.001313816               0.000000000               0.000000000               0.000000000               0.000000000              -0.000675874               0.005897609              -0.000436960              -0.000990652               0.002296067               0.001305416               0.000000000               0.000000000               0.000000000               0.000000000              -0.000382990               0.005572851              -0.000333128              -0.000840226               0.002137673               0.001297448               0.000000000               0.000000000               0.000000000               0.000000000              -0.000157425               0.005325218              -0.000231846              -0.000724685               0.002016617               0.001291932               0.000000000               0.000000000               0.000000000               0.000000000              -0.000005204               0.005159722              -0.000145079              -0.000646915               0.001935528               0.001288613               0.000000000               0.000000000               0.000000000               0.000000000               0.000075163               0.005058508              -0.000075031              -0.000604126               0.001887528               0.001283402               0.000000000               0.000000000               0.000000000               0.000000000               0.000094647               0.005009649              -0.000025035              -0.000590712               0.001866770               0.001276058               0.000000000               0.000000000               0.000000000               0.000000000               0.000086744               0.004997260              -0.000005397              -0.000592127               0.001863112               0.001270985               0.000000000               0.000000000               0.000000000               0.000000000              -0.004114473               0.002587111              -0.000322180              -0.001866313               0.001484464              -0.000381848               0.000000000               0.000000000               0.000000000               0.000000000              -0.004299594               0.004728643              -0.001352648              -0.002203423               0.002310672               0.000107249               0.000000000               0.000000000               0.000000000               0.000000000              -0.004770118               0.006809637              -0.002118452              -0.002639993               0.003149853               0.000509861               0.000000000               0.000000000               0.000000000               0.000000000              -0.004418445               0.007529699              -0.002069424              -0.002598123               0.003375915               0.000777792               0.000000000               0.000000000               0.000000000               0.000000000              -0.003833760               0.007677673              -0.001844146              -0.002397364               0.003358319               0.000960956               0.000000000               0.000000000               0.000000000               0.000000000              -0.003203763               0.007560648              -0.001598961              -0.002146487               0.003235686               0.001089199               0.000000000               0.000000000               0.000000000               0.000000000              -0.002593978               0.007319904              -0.001385993              -0.001887725               0.003069185               0.001181460               0.000000000               0.000000000               0.000000000               0.000000000              -0.002031701               0.007020665              -0.001209202              -0.001639467               0.002886687               0.001247220               0.000000000               0.000000000               0.000000000               0.000000000              -0.001532558               0.006690254              -0.001051411              -0.001410988               0.002700392               0.001289404               0.000000000               0.000000000               0.000000000               0.000000000              -0.001093373               0.006347346              -0.000906175              -0.001203430               0.002516904               0.001313474               0.000000000               0.000000000               0.000000000               0.000000000              -0.000709182               0.006014420              -0.000767008              -0.001017744               0.002344034               0.001326291               0.000000000               0.000000000               0.000000000               0.000000000              -0.000378403               0.005715441              -0.000622180              -0.000856329               0.002190571               0.001334242               0.000000000               0.000000000               0.000000000               0.000000000              -0.000107024               0.005464654              -0.000472982              -0.000723214               0.002062604               0.001339390               0.000000000               0.000000000               0.000000000               0.000000000               0.000089893               0.005269786              -0.000331269              -0.000625012               0.001964915               0.001339903               0.000000000               0.000000000               0.000000000               0.000000000               0.000203222               0.005129793              -0.000198525              -0.000565015               0.001898252               0.001333237               0.000000000               0.000000000               0.000000000               0.000000000               0.000239477               0.005046953              -0.000084040              -0.000541064               0.001862656               0.001321592               0.000000000               0.000000000               0.000000000               0.000000000               0.000226300               0.005011763              -0.000029644              -0.000541606               0.001851106               0.001309500               0.000000000               0.000000000               0.000000000               0.000000000              -0.006217396               0.001060329               0.000481876              -0.002464062               0.001174789              -0.001289273               0.000000000               0.000000000               0.000000000               0.000000000              -0.005338454               0.003193187              -0.001057065              -0.002401064               0.001864738              -0.000536327               0.000000000               0.000000000               0.000000000               0.000000000              -0.005043369               0.005215200              -0.002319229              -0.002543158               0.002586101               0.000042943               0.000000000               0.000000000               0.000000000               0.000000000              -0.004480795               0.006202679              -0.002470397              -0.002455627               0.002886080               0.000430453               0.000000000               0.000000000               0.000000000               0.000000000              -0.003847978               0.006647169              -0.002305627              -0.002273883               0.002973661               0.000699778               0.000000000               0.000000000               0.000000000               0.000000000              -0.003214150               0.006792285              -0.002063170              -0.002054338               0.002948851               0.000894513               0.000000000               0.000000000               0.000000000               0.000000000              -0.002607639               0.006771740              -0.001831442              -0.001824328               0.002865333               0.001041005               0.000000000               0.000000000               0.000000000               0.000000000              -0.002044446               0.006645681              -0.001625275              -0.001597374               0.002747663               0.001150288               0.000000000               0.000000000               0.000000000               0.000000000              -0.001527380               0.006453772              -0.001439356              -0.001379486               0.002611064               0.001231578               0.000000000               0.000000000               0.000000000               0.000000000              -0.001059195               0.006224957              -0.001269681              -0.001175315               0.002466736               0.001291421               0.000000000               0.000000000               0.000000000               0.000000000              -0.000639984               0.005984635              -0.001107206              -0.000988071               0.002324215               0.001336144               0.000000000               0.000000000               0.000000000               0.000000000              -0.000268091               0.005749001              -0.000939895              -0.000819157               0.002189367               0.001370209               0.000000000               0.000000000               0.000000000               0.000000000               0.000053602               0.005533891              -0.000760597              -0.000671634               0.002068490               0.001396856               0.000000000               0.000000000               0.000000000               0.000000000               0.000306580               0.005347844              -0.000571986              -0.000553512               0.001967101               0.001413589               0.000000000               0.000000000               0.000000000               0.000000000               0.000471197               0.005193909              -0.000378892              -0.000472539               0.001888798               0.001416260               0.000000000               0.000000000               0.000000000               0.000000000               0.000537696               0.005081004              -0.000186533              -0.000433489               0.001838147               0.001404659               0.000000000               0.000000000               0.000000000               0.000000000               0.000526248               0.005023561              -0.000086080              -0.000430601               0.001818037               0.001387436               0.000000000               0.000000000               0.000000000               0.000000000              -0.008435024              -0.000038735               0.001053516              -0.003158290               0.001039844              -0.002118445               0.000000000               0.000000000               0.000000000               0.000000000              -0.006459010               0.001832372              -0.000726565              -0.002651172               0.001494504              -0.001156668               0.000000000               0.000000000               0.000000000               0.000000000              -0.005278416               0.003559201              -0.002268771              -0.002424302               0.001994487              -0.000429815               0.000000000               0.000000000               0.000000000               0.000000000              -0.004419346               0.004668187              -0.002594156              -0.002240773               0.002302970               0.000062196               0.000000000               0.000000000               0.000000000               0.000000000              -0.003697778               0.005345375              -0.002517889              -0.002054834               0.002466717               0.000411883               0.000000000               0.000000000               0.000000000               0.000000000              -0.003047184               0.005739369              -0.002315707              -0.001860111               0.002533140               0.000673029               0.000000000               0.000000000               0.000000000               0.000000000              -0.002452889               0.005937598              -0.002097755              -0.001662030               0.002533189               0.000871159               0.000000000               0.000000000               0.000000000               0.000000000              -0.001902075               0.005995001              -0.001894142              -0.001462650               0.002485863               0.001023213               0.000000000               0.000000000               0.000000000               0.000000000              -0.001382047               0.005968471              -0.001706375              -0.001264324               0.002410911               0.001146587               0.000000000               0.000000000               0.000000000               0.000000000              -0.000896716               0.005887004              -0.001531467              -0.001072142               0.002319695               0.001247553               0.000000000               0.000000000               0.000000000               0.000000000              -0.000447438               0.005773099              -0.001364616              -0.000889425               0.002220822               0.001331397               0.000000000               0.000000000               0.000000000               0.000000000              -0.000030613               0.005641328              -0.001195301              -0.000716645               0.002119305               0.001402660               0.000000000               0.000000000               0.000000000               0.000000000               0.000349945               0.005499697              -0.001009406              -0.000556232               0.002018625               0.001462393               0.000000000               0.000000000               0.000000000               0.000000000               0.000681472               0.005357606              -0.000799904              -0.000414148               0.001923900               0.001509752               0.000000000               0.000000000               0.000000000               0.000000000               0.000941410               0.005226427              -0.000564977              -0.000300274               0.001842216               0.001541942               0.000000000               0.000000000               0.000000000               0.000000000               0.001098435               0.005108652              -0.000298425              -0.000226668               0.001778423               0.001551755               0.000000000               0.000000000               0.000000000               0.000000000               0.001143562               0.005048556              -0.000155992              -0.000202233               0.001750246               0.001548013               0.000000000               0.000000000               0.000000000               0.000000000              -0.010561725              -0.000725161               0.001285745              -0.003869999               0.001048272              -0.002821727               0.000000000               0.000000000               0.000000000               0.000000000              -0.007570599               0.000729018              -0.000424971              -0.002930099               0.001219697              -0.001710402               0.000000000               0.000000000               0.000000000               0.000000000              -0.005488905               0.002008855              -0.001965241              -0.002309443               0.001439422              -0.000870021               0.000000000               0.000000000               0.000000000               0.000000000              -0.004276976               0.003105886              -0.002383882              -0.001992098               0.001699316              -0.000292783               0.000000000               0.000000000               0.000000000               0.000000000              -0.003430934               0.003931201              -0.002389803              -0.001777997               0.001903052               0.000125055               0.000000000               0.000000000               0.000000000               0.000000000              -0.002750697               0.004521452              -0.002244986              -0.001596690               0.002039364               0.000442675               0.000000000               0.000000000               0.000000000               0.000000000              -0.002164059               0.004912444              -0.002065519              -0.001425575               0.002112656               0.000687081               0.000000000               0.000000000               0.000000000               0.000000000              -0.001626548               0.005153209              -0.001893098              -0.001254104               0.002135753               0.000881649               0.000000000               0.000000000               0.000000000               0.000000000              -0.001116574               0.005300828              -0.001728203              -0.001081317               0.002127363               0.001046047               0.000000000               0.000000000               0.000000000               0.000000000              -0.000626787               0.005379601              -0.001571458              -0.000907494               0.002095680               0.001188186               0.000000000               0.000000000               0.000000000               0.000000000              -0.000151648               0.005404280              -0.001424200              -0.000732402               0.002045542               0.001313140               0.000000000               0.000000000               0.000000000               0.000000000               0.000312719               0.005391670              -0.001276071              -0.000556689               0.001982768               0.001426080               0.000000000               0.000000000               0.000000000               0.000000000               0.000765002               0.005346839              -0.001110352              -0.000381479               0.001909421               0.001527942               0.000000000               0.000000000               0.000000000               0.000000000               0.001195987               0.005275517              -0.000913575              -0.000210945               0.001828803               0.001617858               0.000000000               0.000000000               0.000000000               0.000000000               0.001590171               0.005190952              -0.000670520              -0.000052556               0.001747819               0.001695263               0.000000000               0.000000000               0.000000000               0.000000000               0.001920696               0.005100202              -0.000365873               0.000082734               0.001672472               0.001755207               0.000000000               0.000000000               0.000000000               0.000000000               0.002105845               0.005068627              -0.000205671               0.000156112               0.001637488               0.001793600               0.000000000               0.000000000               0.000000000               0.000000000              -0.012343061              -0.001084904               0.001140709              -0.004493032               0.001136035              -0.003356997               0.000000000               0.000000000               0.000000000               0.000000000              -0.008530842              -0.000070921              -0.000202304              -0.003190198               0.001039752              -0.002150446               0.000000000               0.000000000               0.000000000               0.000000000              -0.005669032               0.000740519              -0.001444046              -0.002218450               0.000986316              -0.001232134               0.000000000               0.000000000               0.000000000               0.000000000              -0.004113556               0.001745253              -0.001833868              -0.001760738               0.001168655              -0.000592083               0.000000000               0.000000000               0.000000000               0.000000000              -0.003130561               0.002642734              -0.001884460              -0.001504299               0.001382334              -0.000121965               0.000000000               0.000000000               0.000000000               0.000000000              -0.002413860               0.003360643              -0.001798557              -0.001325275               0.001561961               0.000236686               0.000000000               0.000000000               0.000000000               0.000000000              -0.001826508               0.003898324              -0.001675231              -0.001172229               0.001690171               0.000517942               0.000000000               0.000000000               0.000000000               0.000000000              -0.001304726               0.004300955              -0.001549449              -0.001026890               0.001775933               0.000749043               0.000000000               0.000000000               0.000000000               0.000000000              -0.000807493               0.004602095              -0.001425956              -0.000878070               0.001826706               0.000948636               0.000000000               0.000000000               0.000000000               0.000000000              -0.000316540               0.004818395              -0.001309642              -0.000721001               0.001846449               0.001125448               0.000000000               0.000000000               0.000000000               0.000000000               0.000177022               0.004967457              -0.001202215              -0.000554548               0.001840652               0.001286104               0.000000000               0.000000000               0.000000000               0.000000000               0.000678716               0.005062746              -0.001095622              -0.000378325               0.001813673               0.001435348               0.000000000               0.000000000               0.000000000               0.000000000               0.001195921               0.005116417              -0.000973018              -0.000191082               0.001769149               0.001578067               0.000000000               0.000000000               0.000000000               0.000000000               0.001731395               0.005136762              -0.000819672               0.000007177               0.001709845               0.001717021               0.000000000               0.000000000               0.000000000               0.000000000               0.002281203               0.005121851              -0.000619290               0.000215217               0.001635528               0.001850745               0.000000000               0.000000000               0.000000000               0.000000000               0.002840355               0.005073640              -0.000346546               0.000430924               0.001547555               0.001978479               0.000000000               0.000000000               0.000000000               0.000000000               0.003228138               0.005082057              -0.000203029               0.000575289               0.001502239               0.002077528               0.000000000               0.000000000               0.000000000               0.000000000              -0.013531980              -0.001234299               0.000666945              -0.004920202               0.001228626              -0.003691576               0.000000000               0.000000000               0.000000000               0.000000000              -0.009183851              -0.000550097              -0.000070271              -0.003375180               0.000941688              -0.002433492               0.000000000               0.000000000               0.000000000               0.000000000              -0.005795350              -0.000089010              -0.000763431              -0.002162129               0.000691035              -0.001471094               0.000000000               0.000000000               0.000000000               0.000000000              -0.003991796               0.000819125              -0.000999660              -0.001599312               0.000806140              -0.000793172               0.000000000               0.000000000               0.000000000               0.000000000              -0.002900503               0.001732141              -0.001044004              -0.001304204               0.001012108              -0.000292096               0.000000000               0.000000000               0.000000000               0.000000000              -0.002143982               0.002514239              -0.001006785              -0.001118271               0.001210828               0.000092557               0.000000000               0.000000000               0.000000000               0.000000000              -0.001550354               0.003143456              -0.000943497              -0.000974313               0.001372579               0.000398266               0.000000000               0.000000000               0.000000000               0.000000000              -0.001036301               0.003650782              -0.000875431              -0.000844959               0.001498568               0.000653609               0.000000000               0.000000000               0.000000000               0.000000000              -0.000549546               0.004057881              -0.000809508              -0.000713314               0.001590385               0.000877071               0.000000000               0.000000000               0.000000000               0.000000000              -0.000063768               0.004373797              -0.000748020              -0.000570637               0.001648130               0.001077493               0.000000000               0.000000000               0.000000000               0.000000000               0.000433960               0.004611914              -0.000691048              -0.000413754               0.001675207               0.001261453               0.000000000               0.000000000               0.000000000               0.000000000               0.000954639               0.004789076              -0.000635903              -0.000240645               0.001676558               0.001435913               0.000000000               0.000000000               0.000000000               0.000000000               0.001513969               0.004924844              -0.000574009              -0.000047867               0.001657554               0.001609687               0.000000000               0.000000000               0.000000000               0.000000000               0.002129470               0.005026435              -0.000493474               0.000170245               0.001618713               0.001788958               0.000000000               0.000000000               0.000000000               0.000000000               0.002811793               0.005075050              -0.000381054               0.000420037               0.001551654               0.001971691               0.000000000               0.000000000               0.000000000               0.000000000               0.003578640               0.005060317              -0.000218157               0.000709443               0.001450274               0.002159718               0.000000000               0.000000000               0.000000000               0.000000000               0.004164526               0.005101264              -0.000133136               0.000924030               0.001392394               0.002316425               0.000000000               0.000000000               0.000000000               0.000000000               0.000000000               0.000000000               0.000000000               0.000000000               0.000000000               0.000000000               0.000000000               0.000000000               0.000000000               0.000000000               0.000000000               0.000000000               0.000000000               0.000000000               0.000000000               0.000000000               0.000000000               0.000000000               0.000000000               0.000000000               0.000000000               0.000000000               0.000000000               0.000000000               0.000000000               0.000000000               0.000000000               0.000000000               0.000000000               0.000000000               0.000000000               0.000000000               0.000000000               0.000000000               0.000000000               0.000000000               0.000000000               0.000000000               0.000000000               0.000000000               0.000000000               0.000000000               0.000000000               0.000000000               0.000000000               0.000000000               0.000000000               0.000000000               0.000000000               0.000000000               0.000000000               0.000000000               0.000000000               0.000000000               0.000000000               0.000000000               0.000000000               0.000000000               0.000000000               0.000000000               0.000000000               0.000000000               0.000000000               0.000000000               0.000000000               0.000000000               0.000000000               0.000000000               0.000000000               0.000000000               0.000000000               0.000000000               0.000000000               0.000000000               0.000000000               0.000000000               0.000000000               0.000000000               0.000000000               0.000000000               0.000000000               0.000000000               0.000000000               0.000000000               0.000000000               0.000000000               0.000000000               0.000000000               0.000000000               0.000000000               0.000000000               0.000000000               0.000000000               0.000000000               0.000000000               0.000000000               0.000000000               0.000000000               0.000000000               0.000000000               0.000000000               0.000000000               0.000000000               0.000000000               0.000000000               0.000000000               0.000000000               0.000000000               0.000000000               0.000000000               0.000000000               0.000000000               0.000000000               0.000000000               0.000000000               0.000000000               0.000000000               0.000000000               0.000000000               0.000000000               0.000000000               0.000000000               0.000000000               0.000000000               0.000000000               0.000000000               0.000000000               0.000000000               0.000000000               0.000000000               0.000000000               0.000000000               0.000000000               0.000000000               0.000000000               0.000000000               0.000000000               0.000000000               0.000000000               0.000000000               0.000000000               0.000000000               0.000000000               0.000000000               0.000000000               0.000000000               0.000000000               0.000000000               0.000000000               0.000000000               0.000000000               0.000000000               0.000000000               0.000000000               0.000000000               0.000000000               0.000000000               0.000000000               0.000000000               0.000000000               0.000000000               0.000000000               0.000000000               0.000000000               0.000000000               0.000000000               0.000000000               0.000000000               0.000000000               0.000000000               0.000000000               0.000000000               0.000000000               0.000000000               0.000000000               0.000000000               0.000000000               0.000000000               0.000000000               0.000000000               0.000000000               0.000000000               0.000000000               0.000000000               0.000000000               0.000000000               0.000000000               0.000000000               0.000000000               0.000000000               0.000000000               0.000000000               0.000000000               0.000000000               0.000000000               0.000000000               0.000000000               0.000000000               0.000000000               0.000000000               0.000000000               0.000000000               0.000000000               0.000000000               0.000000000               0.000000000               0.000000000               0.000000000               0.000000000               0.000000000               0.000000000               0.000000000               0.000000000               0.000000000               0.000000000               0.000000000               0.000000000               0.000000000               0.000000000               0.000000000               0.000000000               0.000000000               0.000000000               0.000000000               0.000000000               0.000000000               0.000000000               0.000000000               0.000000000               0.000000000               0.000000000               0.000000000               0.000000000               0.000000000               0.000000000               0.000000000               0.000000000               0.000000000               0.000000000               0.000000000               0.000000000               0.000000000               0.000000000               0.000000000               0.000000000               0.000000000               0.000000000               0.000000000               0.000000000               0.000000000               0.000000000               0.000000000               0.000000000               0.000000000               0.000000000               0.000000000               0.000000000               0.000000000               0.000000000               0.000000000               0.000000000               0.000000000               0.000000000               0.000000000               0.000000000               0.000000000               0.000000000               0.000000000               0.000000000               0.000000000               0.000000000               0.000000000               0.000000000               0.000000000               0.000000000               0.000000000               0.000000000               0.000000000               0.000000000               0.000000000               0.000000000               0.000000000               0.000000000               0.000000000               0.000000000               0.000000000               0.000000000               0.000000000               0.000000000               0.000000000               0.000000000               0.000000000               0.000000000               0.000000000               0.000000000               0.000000000               0.000000000               0.000000000               0.000000000               0.000000000               0.000000000               0.000000000               0.000000000               0.000000000               0.000000000               0.000000000               0.000000000               0.000000000               0.000000000               0.000000000               0.000000000               0.000000000               0.000000000               0.000000000               0.000000000               0.000000000               0.000000000               0.000000000               0.000000000               0.000000000               0.000000000               0.000000000               0.000000000               0.000000000               0.000000000               0.000000000               0.000000000               0.000000000               0.000000000               0.000000000               0.000000000               0.000000000               0.000000000               0.000000000               0.000000000               0.000000000               0.000000000               0.000000000               0.000000000               0.000000000               0.002326136               0.023570026               0.001604409              -0.002073947               0.008547912               0.006473965               0.000000000               0.000000000               0.000000000               0.000000000               0.002118310               0.018224284               0.000734654              -0.001483666               0.006569256               0.005085590               0.000000000               0.000000000               0.000000000               0.000000000               0.002598669               0.013931589              -0.000126626              -0.000766946               0.004899465               0.004132519               0.000000000               0.000000000               0.000000000               0.000000000               0.002326149               0.011513259              -0.000482094              -0.000566850               0.004026665               0.003459815               0.000000000               0.000000000               0.000000000               0.000000000               0.001863342               0.009979763              -0.000618308              -0.000548716               0.003509459               0.002960744               0.000000000               0.000000000               0.000000000               0.000000000               0.001392387               0.008894037              -0.000655628              -0.000589608               0.003161185               0.002571577               0.000000000               0.000000000               0.000000000               0.000000000               0.000978548               0.008047830              -0.000649212              -0.000639022               0.002895591               0.002256569               0.000000000               0.000000000               0.000000000               0.000000000               0.000639680               0.007330543              -0.000625467              -0.000676436               0.002668969               0.001992532               0.000000000               0.000000000               0.000000000               0.000000000               0.000370364               0.006685760              -0.000595024              -0.000696832               0.002460842               0.001764010               0.000000000               0.000000000               0.000000000               0.000000000               0.000161056               0.006082163              -0.000565282              -0.000699873               0.002260658               0.001560786               0.000000000               0.000000000               0.000000000               0.000000000               0.000005998               0.005500487              -0.000535681              -0.000685310               0.002061914               0.001376604               0.000000000               0.000000000               0.000000000               0.000000000              -0.000097479               0.004923209              -0.000496314              -0.000651954               0.001858371               0.001206417               0.000000000               0.000000000               0.000000000               0.000000000              -0.000153671               0.004331409              -0.000445507              -0.000599051               0.001643472               0.001044421               0.000000000               0.000000000               0.000000000               0.000000000              -0.000174449               0.003712277              -0.000387513              -0.000529452               0.001413897               0.000884446               0.000000000               0.000000000               0.000000000               0.000000000              -0.000156610               0.003056263              -0.000305339              -0.000440761               0.001165664               0.000724904               0.000000000               0.000000000               0.000000000               0.000000000              -0.000091004               0.002346127              -0.000177336              -0.000327392               0.000891165               0.000563773               0.000000000               0.000000000               0.000000000               0.000000000              -0.000103765               0.001814429              -0.000110911              -0.000265715               0.000693375               0.000427660               0.000000000               0.000000000               0.000000000               0.000000000               0.002485086               0.022100330               0.002970330              -0.001830631               0.007976913               0.006146282               0.000000000               0.000000000               0.000000000               0.000000000               0.001918110               0.017297924               0.001355628              -0.001442946               0.006246899               0.004803953               0.000000000               0.000000000               0.000000000               0.000000000               0.002017523               0.013565891              -0.000227724              -0.000939163               0.004834973               0.003895810               0.000000000               0.000000000               0.000000000               0.000000000               0.001613127               0.011428413              -0.000858744              -0.000823627               0.004083975               0.003260348               0.000000000               0.000000000               0.000000000               0.000000000               0.001139480               0.010037032              -0.001086889              -0.000827322               0.003621418               0.002794096               0.000000000               0.000000000               0.000000000               0.000000000               0.000717915               0.009017390              -0.001139286              -0.000857954               0.003291751               0.002433797               0.000000000               0.000000000               0.000000000               0.000000000               0.000379216               0.008196813              -0.001116306              -0.000882394               0.003026375               0.002143981               0.000000000               0.000000000               0.000000000               0.000000000               0.000120820               0.007483404              -0.001065948              -0.000890116               0.002791148               0.001901032               0.000000000               0.000000000               0.000000000               0.000000000              -0.000068894               0.006840171              -0.001010053              -0.000880855               0.002573652               0.001692798               0.000000000               0.000000000               0.000000000               0.000000000              -0.000202052               0.006247246              -0.000954156              -0.000856674               0.002367952               0.001511279               0.000000000               0.000000000               0.000000000               0.000000000              -0.000288865               0.005686236              -0.000894713              -0.000819102               0.002168427               0.001349325               0.000000000               0.000000000               0.000000000               0.000000000              -0.000333663               0.005142334              -0.000819302              -0.000767914               0.001970065               0.001202152               0.000000000               0.000000000               0.000000000               0.000000000              -0.000335584               0.004604393              -0.000725750              -0.000701392               0.001768579               0.001067188               0.000000000               0.000000000               0.000000000               0.000000000              -0.000301330               0.004066708              -0.000616953              -0.000621336               0.001562668               0.000941332               0.000000000               0.000000000               0.000000000               0.000000000              -0.000229895               0.003529125              -0.000472441              -0.000527350               0.001352146               0.000824796               0.000000000               0.000000000               0.000000000               0.000000000              -0.000123302               0.002997222              -0.000267645              -0.000420890               0.001139361               0.000718471               0.000000000               0.000000000               0.000000000               0.000000000              -0.000101641               0.002632010              -0.000162046              -0.000367116               0.000999700               0.000632584               0.000000000               0.000000000               0.000000000               0.000000000               0.002617172               0.019880624               0.003915383              -0.001503637               0.007128020               0.005624383               0.000000000               0.000000000               0.000000000               0.000000000               0.001550789               0.015917256               0.001786144              -0.001408108               0.005775068               0.004366960               0.000000000               0.000000000               0.000000000               0.000000000               0.001124357               0.013022337              -0.000269398              -0.001206155               0.004742787               0.003536632               0.000000000               0.000000000               0.000000000               0.000000000               0.000577115               0.011281855              -0.001042237              -0.001193811               0.004158518               0.002964707               0.000000000               0.000000000               0.000000000               0.000000000               0.000124189               0.010075679              -0.001300590              -0.001212886               0.003762822               0.002549935               0.000000000               0.000000000               0.000000000               0.000000000              -0.000205787               0.009137238              -0.001343829              -0.001219322               0.003452156               0.002232834               0.000000000               0.000000000               0.000000000               0.000000000              -0.000423662               0.008346201              -0.001299640              -0.001202146               0.003182754               0.001980608               0.000000000               0.000000000               0.000000000               0.000000000              -0.000557354               0.007646391              -0.001226150              -0.001164804               0.002937039               0.001772235               0.000000000               0.000000000               0.000000000               0.000000000              -0.000631476               0.007015384              -0.001151433              -0.001113724               0.002709679               0.001595955               0.000000000               0.000000000               0.000000000               0.000000000              -0.000661711               0.006439896              -0.001077825              -0.001053126               0.002497652               0.001444526               0.000000000               0.000000000               0.000000000               0.000000000              -0.000649021               0.005910448              -0.000997129              -0.000982187               0.002297525               0.001315338               0.000000000               0.000000000               0.000000000               0.000000000              -0.000597626               0.005410563              -0.000896446              -0.000900428               0.002103645               0.001203217               0.000000000               0.000000000               0.000000000               0.000000000              -0.000518996               0.004936443              -0.000774987              -0.000811677               0.001916024               0.001104346               0.000000000               0.000000000               0.000000000               0.000000000              -0.000418390               0.004490903              -0.000638197              -0.000718258               0.001736372               0.001018114               0.000000000               0.000000000               0.000000000               0.000000000              -0.000292369               0.004083359              -0.000468790              -0.000620057               0.001567792               0.000947735               0.000000000               0.000000000               0.000000000               0.000000000              -0.000149282               0.003733446              -0.000253157              -0.000522660               0.001418690               0.000896029               0.000000000               0.000000000               0.000000000               0.000000000              -0.000097777               0.003526014              -0.000145314              -0.000477417               0.001334465               0.000857048               0.000000000               0.000000000               0.000000000               0.000000000               0.002565648               0.017179306               0.004354328              -0.001185296               0.006121476               0.004936180               0.000000000               0.000000000               0.000000000               0.000000000               0.000986125               0.014275805               0.002007178              -0.001414676               0.005230113               0.003815436               0.000000000               0.000000000               0.000000000               0.000000000               0.000021130               0.012378028              -0.000218186              -0.001539326               0.004639077               0.003099751               0.000000000               0.000000000               0.000000000               0.000000000              -0.000610236               0.011069671              -0.000993879              -0.001612544               0.004227368               0.002614824               0.000000000               0.000000000               0.000000000               0.000000000              -0.000977311               0.010046708              -0.001230413              -0.001622327               0.003889645               0.002267318               0.000000000               0.000000000               0.000000000               0.000000000              -0.001159161               0.009186740              -0.001253173              -0.001583024               0.003589891               0.002006866               0.000000000               0.000000000               0.000000000               0.000000000              -0.001220854               0.008427595              -0.001193485              -0.001511266               0.003312925               0.001801659               0.000000000               0.000000000               0.000000000               0.000000000              -0.001205223               0.007747683              -0.001112090              -0.001420416               0.003056007               0.001635591               0.000000000               0.000000000               0.000000000               0.000000000              -0.001146018               0.007138422              -0.001035551              -0.001322056               0.002820136               0.001498079               0.000000000               0.000000000               0.000000000               0.000000000              -0.001058583               0.006591733              -0.000963042              -0.001220932               0.002604200               0.001383267               0.000000000               0.000000000               0.000000000               0.000000000              -0.000942198               0.006093390              -0.000879392              -0.001114996               0.002402775               0.001287779               0.000000000               0.000000000               0.000000000               0.000000000              -0.000799128               0.005632173              -0.000773356              -0.001003692               0.002211936               0.001208244               0.000000000               0.000000000               0.000000000               0.000000000              -0.000637788               0.005217417              -0.000652261              -0.000891346               0.002036237               0.001144891               0.000000000               0.000000000               0.000000000               0.000000000              -0.000472725               0.004854253              -0.000518056              -0.000784052               0.001879419               0.001095367               0.000000000               0.000000000               0.000000000               0.000000000              -0.000305867               0.004552524              -0.000363735              -0.000683764               0.001745414               0.001061650               0.000000000               0.000000000               0.000000000               0.000000000              -0.000145974               0.004338117              -0.000188941              -0.000597003               0.001645026               0.001048022               0.000000000               0.000000000               0.000000000               0.000000000              -0.000082048               0.004236696              -0.000104098              -0.000560354               0.001599002               0.001038649               0.000000000               0.000000000               0.000000000               0.000000000               0.002207783               0.014271212               0.004297585              -0.000955984               0.005075684               0.004119699               0.000000000               0.000000000               0.000000000               0.000000000               0.000229492               0.012550856               0.002051772              -0.001482795               0.004677841               0.003195046               0.000000000               0.000000000               0.000000000               0.000000000              -0.001166144               0.011684035              -0.000045094              -0.001897804               0.004527241               0.002629437               0.000000000               0.000000000               0.000000000               0.000000000              -0.001770217               0.010772134              -0.000723875              -0.002010343               0.004260790               0.002250447               0.000000000               0.000000000               0.000000000               0.000000000              -0.001974089               0.009911733              -0.000915952              -0.001979245               0.003963626               0.001984381               0.000000000               0.000000000               0.000000000               0.000000000              -0.001966295               0.009119646              -0.000925082              -0.001877312               0.003665622               0.001788310               0.000000000               0.000000000               0.000000000               0.000000000              -0.001850830               0.008392246              -0.000870213              -0.001743088               0.003378416               0.001635329               0.000000000               0.000000000               0.000000000               0.000000000              -0.001680394               0.007742176              -0.000803271              -0.001597916               0.003113338               0.001515422               0.000000000               0.000000000               0.000000000               0.000000000              -0.001488353               0.007163354              -0.000746078              -0.001453548               0.002872277               0.001418729               0.000000000               0.000000000               0.000000000               0.000000000              -0.001286541               0.006642523              -0.000694087              -0.001312765               0.002651740               0.001338975               0.000000000               0.000000000               0.000000000               0.000000000              -0.001075651               0.006168010              -0.000625887              -0.001174368               0.002447438               0.001273071               0.000000000               0.000000000               0.000000000               0.000000000              -0.000857942               0.005737581              -0.000539064              -0.001038923               0.002258815               0.001219892               0.000000000               0.000000000               0.000000000               0.000000000              -0.000636041               0.005366922              -0.000443943              -0.000909378               0.002092082               0.001182704               0.000000000               0.000000000               0.000000000               0.000000000              -0.000432239               0.005065351              -0.000336835              -0.000795257               0.001953519               0.001158262               0.000000000               0.000000000               0.000000000               0.000000000              -0.000256016               0.004841118              -0.000221789              -0.000701144               0.001847405               0.001146261               0.000000000               0.000000000               0.000000000               0.000000000              -0.000112234               0.004708154              -0.000109770              -0.000630605               0.001779571               0.001148966               0.000000000               0.000000000               0.000000000               0.000000000              -0.000055584               0.004661055              -0.000057921              -0.000603475               0.001754828               0.001151353               0.000000000               0.000000000               0.000000000               0.000000000               0.001481183               0.011396794               0.003836100              -0.000869157               0.004088611               0.003219454               0.000000000               0.000000000               0.000000000               0.000000000              -0.000666799               0.010868932               0.001982787              -0.001608663               0.004159162               0.002550498               0.000000000               0.000000000               0.000000000               0.000000000              -0.002293950               0.010948616               0.000258779              -0.002228803               0.004392437               0.002163634               0.000000000               0.000000000               0.000000000               0.000000000              -0.002748935               0.010363741              -0.000274807              -0.002326313               0.004229983               0.001903671               0.000000000               0.000000000               0.000000000               0.000000000              -0.002730776               0.009637179              -0.000433398              -0.002228683               0.003955255               0.001726572               0.000000000               0.000000000               0.000000000               0.000000000              -0.002512006               0.008907698              -0.000455584              -0.002055459               0.003654356               0.001598897               0.000000000               0.000000000               0.000000000               0.000000000              -0.002220550               0.008225377              -0.000432752              -0.001860874               0.003362056               0.001501182               0.000000000               0.000000000               0.000000000               0.000000000              -0.001911971               0.007615420              -0.000404593              -0.001668912               0.003094752               0.001425840               0.000000000               0.000000000               0.000000000               0.000000000              -0.001609104               0.007065922              -0.000382870              -0.001486651               0.002850834               0.001364183               0.000000000               0.000000000               0.000000000               0.000000000              -0.001319194               0.006561528              -0.000365296              -0.001314886               0.002625449               0.001310564               0.000000000               0.000000000               0.000000000               0.000000000              -0.001036669               0.006103161              -0.000329124              -0.001151643               0.002418247               0.001266605               0.000000000               0.000000000               0.000000000               0.000000000              -0.000770893               0.005697729              -0.000272923              -0.001001299               0.002232990               0.001231692               0.000000000               0.000000000               0.000000000               0.000000000              -0.000528827               0.005363989              -0.000215994              -0.000868806               0.002077581               0.001208774               0.000000000               0.000000000               0.000000000               0.000000000              -0.000320674               0.005115248              -0.000154294              -0.000759657               0.001958285               0.001198628               0.000000000               0.000000000               0.000000000               0.000000000              -0.000160390               0.004952175              -0.000090594              -0.000679166               0.001877097               0.001197931               0.000000000               0.000000000               0.000000000               0.000000000              -0.000058081               0.004863108              -0.000040182              -0.000629667               0.001830909               0.001201242               0.000000000               0.000000000               0.000000000               0.000000000              -0.000026394               0.004832331              -0.000020896              -0.000613938               0.001815407               0.001201469               0.000000000               0.000000000               0.000000000               0.000000000               0.000422143               0.008744917               0.003089516              -0.000934811               0.003226546               0.002291735               0.000000000               0.000000000               0.000000000               0.000000000              -0.001648311               0.009328877               0.001857265              -0.001784223               0.003704335               0.001920112               0.000000000               0.000000000               0.000000000               0.000000000              -0.003248516               0.010170339               0.000677696              -0.002489480               0.004219906               0.001730426               0.000000000               0.000000000               0.000000000               0.000000000              -0.003444811               0.009839222               0.000279446              -0.002521701               0.004120275               0.001598574               0.000000000               0.000000000               0.000000000               0.000000000              -0.003181190               0.009228802               0.000116350              -0.002346541               0.003858417               0.001511876               0.000000000               0.000000000               0.000000000               0.000000000              -0.002765833               0.008569175               0.000048092              -0.002108329               0.003559140               0.001450811               0.000000000               0.000000000               0.000000000               0.000000000              -0.002323354               0.007944817               0.000015850              -0.001864355               0.003269698               0.001405342               0.000000000               0.000000000               0.000000000               0.000000000              -0.001904196               0.007373681              -0.000008097              -0.001635779               0.003003129               0.001367350               0.000000000               0.000000000               0.000000000               0.000000000              -0.001523438               0.006844283              -0.000030704              -0.001426821               0.002757012               0.001330191               0.000000000               0.000000000               0.000000000               0.000000000              -0.001177919               0.006353072              -0.000051931              -0.001235851               0.002529620               0.001293769               0.000000000               0.000000000               0.000000000               0.000000000              -0.000860937               0.005910225              -0.000057784              -0.001061627               0.002323931               0.001262304               0.000000000               0.000000000               0.000000000               0.000000000              -0.000582055               0.005544822              -0.000046802              -0.000911371               0.002152046               0.001240675               0.000000000               0.000000000               0.000000000               0.000000000              -0.000352343               0.005270091              -0.000038290              -0.000790888               0.002020309               0.001229421               0.000000000               0.000000000               0.000000000               0.000000000              -0.000175984               0.005084621              -0.000028924              -0.000701570               0.001928714               0.001227143               0.000000000               0.000000000               0.000000000               0.000000000              -0.000062047               0.004975789              -0.000013654              -0.000645240               0.001873660               0.001228420               0.000000000               0.000000000               0.000000000               0.000000000              -0.000011910               0.004919016              -0.000003303              -0.000619342               0.001846103               0.001226761               0.000000000               0.000000000               0.000000000               0.000000000              -0.000006644               0.004897740              -0.000002423              -0.000614708               0.001837466               0.001222759               0.000000000               0.000000000               0.000000000               0.000000000              -0.000826176               0.006514893               0.002183961              -0.001124176               0.002546334               0.001422158               0.000000000               0.000000000               0.000000000               0.000000000              -0.002603880               0.007950651               0.001719756              -0.001970282               0.003306951               0.001336669               0.000000000               0.000000000               0.000000000               0.000000000              -0.003992500               0.009382749               0.001177424              -0.002670025               0.004017560               0.001347535               0.000000000               0.000000000               0.000000000               0.000000000              -0.003912450               0.009318322               0.000866295              -0.002631953               0.003983394               0.001351441               0.000000000               0.000000000               0.000000000               0.000000000              -0.003441691               0.008855805               0.000668250              -0.002397604               0.003751107               0.001353503               0.000000000               0.000000000               0.000000000               0.000000000              -0.002871868               0.008290578               0.000533745              -0.002113268               0.003467921               0.001354653               0.000000000               0.000000000               0.000000000               0.000000000              -0.002320261               0.007728534               0.000437173              -0.001836160               0.003188205               0.001352046               0.000000000               0.000000000               0.000000000               0.000000000              -0.001820742               0.007193174               0.000360620              -0.001581921               0.002925008               0.001343087               0.000000000               0.000000000               0.000000000               0.000000000              -0.001377356               0.006685555               0.000294992              -0.001352200               0.002679229               0.001327030               0.000000000               0.000000000               0.000000000               0.000000000              -0.000993886               0.006210508               0.000233808              -0.001149018               0.002453155               0.001304137               0.000000000               0.000000000               0.000000000               0.000000000              -0.000659792               0.005792803               0.000177365              -0.000971520               0.002254755               0.001283235               0.000000000               0.000000000               0.000000000               0.000000000              -0.000379839               0.005461446               0.000127076              -0.000825118               0.002095503               0.001270385               0.000000000               0.000000000               0.000000000               0.000000000              -0.000174344               0.005225817               0.000080157              -0.000718604               0.001981456               0.001262852               0.000000000               0.000000000               0.000000000               0.000000000              -0.000044096               0.005077028               0.000042502              -0.000651163               0.001909380               0.001258217               0.000000000               0.000000000               0.000000000               0.000000000               0.000017981               0.004994112               0.000021113              -0.000617520               0.001870527               0.001253007               0.000000000               0.000000000               0.000000000               0.000000000               0.000028477               0.004959367               0.000008694              -0.000609241               0.001856186               0.001246945               0.000000000               0.000000000               0.000000000               0.000000000               0.000021599               0.004953109               0.000002732              -0.000611037               0.001854699               0.001243662               0.000000000               0.000000000               0.000000000               0.000000000              -0.002272949               0.004452686               0.001237986              -0.001408939               0.001953860               0.000544921               0.000000000               0.000000000               0.000000000               0.000000000              -0.003401350               0.006347520               0.001568356              -0.002068942               0.002805466               0.000736524               0.000000000               0.000000000               0.000000000               0.000000000              -0.004429330               0.008204761               0.001699733              -0.002686587               0.003630422               0.000943834               0.000000000               0.000000000               0.000000000               0.000000000              -0.004203904               0.008542035               0.001484638              -0.002644212               0.003728720               0.001084508               0.000000000               0.000000000               0.000000000               0.000000000              -0.003653932               0.008364010               0.001253390              -0.002415720               0.003593215               0.001177495               0.000000000               0.000000000               0.000000000               0.000000000              -0.003034701               0.008001506               0.001051065              -0.002138196               0.003379874               0.001241678               0.000000000               0.000000000               0.000000000               0.000000000              -0.002441126               0.007577305               0.000888510              -0.001862581               0.003146603               0.001284022               0.000000000               0.000000000               0.000000000               0.000000000              -0.001905459               0.007137103               0.000759770              -0.001606681               0.002914571               0.001307890               0.000000000               0.000000000               0.000000000               0.000000000              -0.001433256               0.006699375               0.000647075              -0.001374889               0.002691399               0.001316510               0.000000000               0.000000000               0.000000000               0.000000000              -0.001024794               0.006280134               0.000540218              -0.001169312               0.002483127               0.001313816               0.000000000               0.000000000               0.000000000               0.000000000              -0.000675874               0.005897609               0.000436960              -0.000990652               0.002296067               0.001305416               0.000000000               0.000000000               0.000000000               0.000000000              -0.000382990               0.005572851               0.000333128              -0.000840226               0.002137673               0.001297448               0.000000000               0.000000000               0.000000000               0.000000000              -0.000157425               0.005325218               0.000231846              -0.000724685               0.002016617               0.001291932               0.000000000               0.000000000               0.000000000               0.000000000              -0.000005204               0.005159722               0.000145079              -0.000646915               0.001935528               0.001288613               0.000000000               0.000000000               0.000000000               0.000000000               0.000075163               0.005058508               0.000075031              -0.000604126               0.001887528               0.001283402               0.000000000               0.000000000               0.000000000               0.000000000               0.000094647               0.005009649               0.000025035              -0.000590712               0.001866770               0.001276058               0.000000000               0.000000000               0.000000000               0.000000000               0.000086744               0.004997260               0.000005397              -0.000592127               0.001863112               0.001270985               0.000000000               0.000000000               0.000000000               0.000000000              -0.004114473               0.002587111               0.000322180              -0.001866313               0.001484464              -0.000381848               0.000000000               0.000000000               0.000000000               0.000000000              -0.004299594               0.004728643               0.001352648              -0.002203423               0.002310672               0.000107249               0.000000000               0.000000000               0.000000000               0.000000000              -0.004770118               0.006809637               0.002118452              -0.002639993               0.003149853               0.000509861               0.000000000               0.000000000               0.000000000               0.000000000              -0.004418445               0.007529699               0.002069424              -0.002598123               0.003375915               0.000777792               0.000000000               0.000000000               0.000000000               0.000000000              -0.003833760               0.007677673               0.001844146              -0.002397364               0.003358319               0.000960956               0.000000000               0.000000000               0.000000000               0.000000000              -0.003203763               0.007560648               0.001598961              -0.002146487               0.003235686               0.001089199               0.000000000               0.000000000               0.000000000               0.000000000              -0.002593978               0.007319904               0.001385993              -0.001887725               0.003069185               0.001181460               0.000000000               0.000000000               0.000000000               0.000000000              -0.002031701               0.007020665               0.001209202              -0.001639467               0.002886687               0.001247220               0.000000000               0.000000000               0.000000000               0.000000000              -0.001532558               0.006690254               0.001051411              -0.001410988               0.002700392               0.001289404               0.000000000               0.000000000               0.000000000               0.000000000              -0.001093373               0.006347346               0.000906175              -0.001203430               0.002516904               0.001313474               0.000000000               0.000000000               0.000000000               0.000000000              -0.000709182               0.006014420               0.000767008              -0.001017744               0.002344034               0.001326291               0.000000000               0.000000000               0.000000000               0.000000000              -0.000378403               0.005715441               0.000622180              -0.000856329               0.002190571               0.001334242               0.000000000               0.000000000               0.000000000               0.000000000              -0.000107024               0.005464654               0.000472982              -0.000723214               0.002062604               0.001339390               0.000000000               0.000000000               0.000000000               0.000000000               0.000089893               0.005269786               0.000331269              -0.000625012               0.001964915               0.001339903               0.000000000               0.000000000               0.000000000               0.000000000               0.000203222               0.005129793               0.000198525              -0.000565015               0.001898252               0.001333237               0.000000000               0.000000000               0.000000000               0.000000000               0.000239477               0.005046953               0.000084040              -0.000541064               0.001862656               0.001321592               0.000000000               0.000000000               0.000000000               0.000000000               0.000226300               0.005011763               0.000029644              -0.000541606               0.001851106               0.001309500               0.000000000               0.000000000               0.000000000               0.000000000              -0.006217396               0.001060329              -0.000481876              -0.002464062               0.001174789              -0.001289273               0.000000000               0.000000000               0.000000000               0.000000000              -0.005338454               0.003193187               0.001057065              -0.002401064               0.001864738              -0.000536327               0.000000000               0.000000000               0.000000000               0.000000000              -0.005043369               0.005215200               0.002319229              -0.002543158               0.002586101               0.000042943               0.000000000               0.000000000               0.000000000               0.000000000              -0.004480795               0.006202679               0.002470397              -0.002455627               0.002886080               0.000430453               0.000000000               0.000000000               0.000000000               0.000000000              -0.003847978               0.006647169               0.002305627              -0.002273883               0.002973661               0.000699778               0.000000000               0.000000000               0.000000000               0.000000000              -0.003214150               0.006792285               0.002063170              -0.002054338               0.002948851               0.000894513               0.000000000               0.000000000               0.000000000               0.000000000              -0.002607639               0.006771740               0.001831442              -0.001824328               0.002865333               0.001041005               0.000000000               0.000000000               0.000000000               0.000000000              -0.002044446               0.006645681               0.001625275              -0.001597374               0.002747663               0.001150288               0.000000000               0.000000000               0.000000000               0.000000000              -0.001527380               0.006453772               0.001439356              -0.001379486               0.002611064               0.001231578               0.000000000               0.000000000               0.000000000               0.000000000              -0.001059195               0.006224957               0.001269681              -0.001175315               0.002466736               0.001291421               0.000000000               0.000000000               0.000000000               0.000000000              -0.000639984               0.005984635               0.001107206              -0.000988071               0.002324215               0.001336144               0.000000000               0.000000000               0.000000000               0.000000000              -0.000268091               0.005749001               0.000939895              -0.000819157               0.002189367               0.001370209               0.000000000               0.000000000               0.000000000               0.000000000               0.000053602               0.005533891               0.000760597              -0.000671634               0.002068490               0.001396856               0.000000000               0.000000000               0.000000000               0.000000000               0.000306580               0.005347844               0.000571986              -0.000553512               0.001967101               0.001413589               0.000000000               0.000000000               0.000000000               0.000000000               0.000471197               0.005193909               0.000378892              -0.000472539               0.001888798               0.001416260               0.000000000               0.000000000               0.000000000               0.000000000               0.000537696               0.005081004               0.000186533              -0.000433489               0.001838147               0.001404659               0.000000000               0.000000000               0.000000000               0.000000000               0.000526248               0.005023561               0.000086080              -0.000430601               0.001818037               0.001387436               0.000000000               0.000000000               0.000000000               0.000000000              -0.008435024              -0.000038735              -0.001053516              -0.003158290               0.001039844              -0.002118445               0.000000000               0.000000000               0.000000000               0.000000000              -0.006459010               0.001832372               0.000726565              -0.002651172               0.001494504              -0.001156668               0.000000000               0.000000000               0.000000000               0.000000000              -0.005278416               0.003559201               0.002268771              -0.002424302               0.001994487              -0.000429815               0.000000000               0.000000000               0.000000000               0.000000000              -0.004419346               0.004668187               0.002594156              -0.002240773               0.002302970               0.000062196               0.000000000               0.000000000               0.000000000               0.000000000              -0.003697778               0.005345375               0.002517889              -0.002054834               0.002466717               0.000411883               0.000000000               0.000000000               0.000000000               0.000000000              -0.003047184               0.005739369               0.002315707              -0.001860111               0.002533140               0.000673029               0.000000000               0.000000000               0.000000000               0.000000000              -0.002452889               0.005937598               0.002097755              -0.001662030               0.002533189               0.000871159               0.000000000               0.000000000               0.000000000               0.000000000              -0.001902075               0.005995001               0.001894142              -0.001462650               0.002485863               0.001023213               0.000000000               0.000000000               0.000000000               0.000000000              -0.001382047               0.005968471               0.001706375              -0.001264324               0.002410911               0.001146587               0.000000000               0.000000000               0.000000000               0.000000000              -0.000896716               0.005887004               0.001531467              -0.001072142               0.002319695               0.001247553               0.000000000               0.000000000               0.000000000               0.000000000              -0.000447438               0.005773099               0.001364616              -0.000889425               0.002220822               0.001331397               0.000000000               0.000000000               0.000000000               0.000000000              -0.000030613               0.005641328               0.001195301              -0.000716645               0.002119305               0.001402660               0.000000000               0.000000000               0.000000000               0.000000000               0.000349945               0.005499697               0.001009406              -0.000556232               0.002018625               0.001462393               0.000000000               0.000000000               0.000000000               0.000000000               0.000681472               0.005357606               0.000799904              -0.000414148               0.001923900               0.001509752               0.000000000               0.000000000               0.000000000               0.000000000               0.000941410               0.005226427               0.000564977              -0.000300274               0.001842216               0.001541942               0.000000000               0.000000000               0.000000000               0.000000000               0.001098435               0.005108652               0.000298425              -0.000226668               0.001778423               0.001551755               0.000000000               0.000000000               0.000000000               0.000000000               0.001143562               0.005048556               0.000155992              -0.000202233               0.001750246               0.001548013               0.000000000               0.000000000               0.000000000               0.000000000              -0.010561725              -0.000725161              -0.001285745              -0.003869999               0.001048272              -0.002821727               0.000000000               0.000000000               0.000000000               0.000000000              -0.007570599               0.000729018               0.000424971              -0.002930099               0.001219697              -0.001710402               0.000000000               0.000000000               0.000000000               0.000000000              -0.005488905               0.002008855               0.001965241              -0.002309443               0.001439422              -0.000870021               0.000000000               0.000000000               0.000000000               0.000000000              -0.004276976               0.003105886               0.002383882              -0.001992098               0.001699316              -0.000292783               0.000000000               0.000000000               0.000000000               0.000000000              -0.003430934               0.003931201               0.002389803              -0.001777997               0.001903052               0.000125055               0.000000000               0.000000000               0.000000000               0.000000000              -0.002750697               0.004521452               0.002244986              -0.001596690               0.002039364               0.000442675               0.000000000               0.000000000               0.000000000               0.000000000              -0.002164059               0.004912444               0.002065519              -0.001425575               0.002112656               0.000687081               0.000000000               0.000000000               0.000000000               0.000000000              -0.001626548               0.005153209               0.001893098              -0.001254104               0.002135753               0.000881649               0.000000000               0.000000000               0.000000000               0.000000000              -0.001116574               0.005300828               0.001728203              -0.001081317               0.002127363               0.001046047               0.000000000               0.000000000               0.000000000               0.000000000              -0.000626787               0.005379601               0.001571458              -0.000907494               0.002095680               0.001188186               0.000000000               0.000000000               0.000000000               0.000000000              -0.000151648               0.005404280               0.001424200              -0.000732402               0.002045542               0.001313140               0.000000000               0.000000000               0.000000000               0.000000000               0.000312719               0.005391670               0.001276071              -0.000556689               0.001982768               0.001426080               0.000000000               0.000000000               0.000000000               0.000000000               0.000765002               0.005346839               0.001110352              -0.000381479               0.001909421               0.001527942               0.000000000               0.000000000               0.000000000               0.000000000               0.001195987               0.005275517               0.000913575              -0.000210945               0.001828803               0.001617858               0.000000000               0.000000000               0.000000000               0.000000000               0.001590171               0.005190952               0.000670520              -0.000052556               0.001747819               0.001695263               0.000000000               0.000000000               0.000000000               0.000000000               0.001920696               0.005100202               0.000365873               0.000082734               0.001672472               0.001755207               0.000000000               0.000000000               0.000000000               0.000000000               0.002105845               0.005068627               0.000205671               0.000156112               0.001637488               0.001793600               0.000000000               0.000000000               0.000000000               0.000000000              -0.012343061              -0.001084904              -0.001140709              -0.004493032               0.001136035              -0.003356997               0.000000000               0.000000000               0.000000000               0.000000000              -0.008530842              -0.000070921               0.000202304              -0.003190198               0.001039752              -0.002150446               0.000000000               0.000000000               0.000000000               0.000000000              -0.005669032               0.000740519               0.001444046              -0.002218450               0.000986316              -0.001232134               0.000000000               0.000000000               0.000000000               0.000000000              -0.004113556               0.001745253               0.001833868              -0.001760738               0.001168655              -0.000592083               0.000000000               0.000000000               0.000000000               0.000000000              -0.003130561               0.002642734               0.001884460              -0.001504299               0.001382334              -0.000121965               0.000000000               0.000000000               0.000000000               0.000000000              -0.002413860               0.003360643               0.001798557              -0.001325275               0.001561961               0.000236686               0.000000000               0.000000000               0.000000000               0.000000000              -0.001826508               0.003898324               0.001675231              -0.001172229               0.001690171               0.000517942               0.000000000               0.000000000               0.000000000               0.000000000              -0.001304726               0.004300955               0.001549449              -0.001026890               0.001775933               0.000749043               0.000000000               0.000000000               0.000000000               0.000000000              -0.000807493               0.004602095               0.001425956              -0.000878070               0.001826706               0.000948636               0.000000000               0.000000000               0.000000000               0.000000000              -0.000316540               0.004818395               0.001309642              -0.000721001               0.001846449               0.001125448               0.000000000               0.000000000               0.000000000               0.000000000               0.000177022               0.004967457               0.001202215              -0.000554548               0.001840652               0.001286104               0.000000000               0.000000000               0.000000000               0.000000000               0.000678716               0.005062746               0.001095622              -0.000378325               0.001813673               0.001435348               0.000000000               0.000000000               0.000000000               0.000000000               0.001195921               0.005116417               0.000973018              -0.000191082               0.001769149               0.001578067               0.000000000               0.000000000               0.000000000               0.000000000               0.001731395               0.005136762               0.000819672               0.000007177               0.001709845               0.001717021               0.000000000               0.000000000               0.000000000               0.000000000               0.002281203               0.005121851               0.000619290               0.000215217               0.001635528               0.001850745               0.000000000               0.000000000               0.000000000               0.000000000               0.002840355               0.005073640               0.000346546               0.000430924               0.001547555               0.001978479               0.000000000               0.000000000               0.000000000               0.000000000               0.003228138               0.005082057               0.000203029               0.000575289               0.001502239               0.002077528               0.000000000               0.000000000               0.000000000               0.000000000              -0.013531980              -0.001234299              -0.000666945              -0.004920202               0.001228626              -0.003691576               0.000000000               0.000000000               0.000000000               0.000000000              -0.009183851              -0.000550097               0.000070271              -0.003375180               0.000941688              -0.002433492               0.000000000               0.000000000               0.000000000               0.000000000              -0.005795350              -0.000089010               0.000763431              -0.002162129               0.000691035              -0.001471094               0.000000000               0.000000000               0.000000000               0.000000000              -0.003991796               0.000819125               0.000999660              -0.001599312               0.000806140              -0.000793172               0.000000000               0.000000000               0.000000000               0.000000000              -0.002900503               0.001732141               0.001044004              -0.001304204               0.001012108              -0.000292096               0.000000000               0.000000000               0.000000000               0.000000000              -0.002143982               0.002514239               0.001006785              -0.001118271               0.001210828               0.000092557               0.000000000               0.000000000               0.000000000               0.000000000              -0.001550354               0.003143456               0.000943497              -0.000974313               0.001372579               0.000398266               0.000000000               0.000000000               0.000000000               0.000000000              -0.001036301               0.003650782               0.000875431              -0.000844959               0.001498568               0.000653609               0.000000000               0.000000000               0.000000000               0.000000000              -0.000549546               0.004057881               0.000809508              -0.000713314               0.001590385               0.000877071               0.000000000               0.000000000               0.000000000               0.000000000              -0.000063768               0.004373797               0.000748020              -0.000570637               0.001648130               0.001077493               0.000000000               0.000000000               0.000000000               0.000000000               0.000433960               0.004611914               0.000691048              -0.000413754               0.001675207               0.001261453               0.000000000               0.000000000               0.000000000               0.000000000               0.000954639               0.004789076               0.000635903              -0.000240645               0.001676558               0.001435913               0.000000000               0.000000000               0.000000000               0.000000000               0.001513969               0.004924844               0.000574009              -0.000047867               0.001657554               0.001609687               0.000000000               0.000000000               0.000000000               0.000000000               0.002129470               0.005026435               0.000493474               0.000170245               0.001618713               0.001788958               0.000000000               0.000000000               0.000000000               0.000000000               0.002811793               0.005075050               0.000381054               0.000420037               0.001551654               0.001971691               0.000000000               0.000000000               0.000000000               0.000000000               0.003578640               0.005060317               0.000218157               0.000709443               0.001450274               0.002159718               0.000000000               0.000000000               0.000000000               0.000000000               0.004164526               0.005101264               0.000133136               0.000924030               0.001392394               0.002316425               0.000000000               0.000000000               0.000000000               0.000000000               0.000000000               0.000000000               0.000000000               0.000000000               0.000000000               0.000000000               0.000000000               0.000000000               0.000000000               0.000000000               0.000000000               0.000000000               0.000000000               0.000000000               0.000000000               0.000000000               0.000000000               0.000000000               0.000000000               0.000000000               0.000000000               0.000000000               0.000000000               0.000000000               0.000000000               0.000000000               0.000000000               0.000000000               0.000000000               0.000000000               0.000000000               0.000000000               0.000000000               0.000000000               0.000000000               0.000000000               0.000000000               0.000000000               0.000000000               0.000000000               0.000000000               0.000000000               0.000000000               0.000000000               0.000000000               0.000000000               0.000000000               0.000000000               0.000000000               0.000000000               0.000000000               0.000000000               0.000000000               0.000000000               0.000000000               0.000000000               0.000000000               0.000000000               0.000000000               0.000000000               0.000000000               0.000000000               0.000000000               0.000000000               0.000000000               0.000000000               0.000000000               0.000000000               0.000000000               0.000000000               0.000000000               0.000000000               0.000000000               0.000000000               0.000000000               0.000000000               0.000000000               0.000000000               0.000000000               0.000000000               0.000000000               0.000000000               0.000000000               0.000000000               0.000000000               0.000000000               0.000000000               0.000000000               0.000000000               0.000000000               0.000000000               0.000000000               0.000000000               0.000000000               0.000000000               0.000000000               0.000000000               0.000000000               0.000000000               0.000000000               0.000000000               0.000000000               0.000000000               0.000000000               0.000000000               0.000000000               0.000000000               0.000000000               0.000000000               0.000000000               0.000000000               0.000000000               0.000000000               0.000000000               0.000000000               0.000000000               0.000000000               0.000000000               0.000000000               0.000000000               0.000000000               0.000000000               0.000000000               0.000000000               0.000000000               0.000000000               0.000000000               0.000000000               0.000000000               0.000000000               0.000000000               0.000000000               0.000000000               0.000000000               0.000000000               0.000000000               0.000000000               0.000000000               0.000000000               0.000000000               0.000000000               0.000000000               0.000000000               0.000000000               0.000000000               0.000000000               0.000000000               0.000000000               0.000000000               0.000000000               0.000000000               0.000000000               0.000000000               0.000000000               0.000000000               0.000000000               0.000000000               0.000000000               0.000000000               0.000000000               0.000000000               0.000000000               0.000000000               0.000000000               0.000000000               0.000000000               0.000000000               0.000000000               0.000000000               0.000000000 </DataArray>
</PointData>
</Piece>
</UnstructuredGrid> </VTKFile>
