<?xml version="1.0"?>
<VTKFile type="UnstructuredGrid" version="0.1">
<UnstructuredGrid>
<Piece NumberOfPoints="      1156" NumberOfCells="      1024">
<Points>
<DataArray type="Float64"                                    Name="coordinates"                                                      NumberOfComponents=" 3" format="ascii">
              0.133000000               0.000000000               0.000000000               0.155937500               0.000000000               0.000000000               0.178875000               0.000000000               0.000000000               0.201812500               0.000000000               0.000000000               0.224750000               0.000000000               0.000000000               0.247687500               0.000000000               0.000000000               0.270625000               0.000000000               0.000000000               0.293562500               0.000000000               0.000000000               0.316500000               0.000000000               0.000000000               0.339437500               0.000000000               0.000000000               0.362375000               0.000000000               0.000000000               0.385312500               0.000000000               0.000000000               0.408250000               0.000000000               0.000000000               0.431187500               0.000000000               0.000000000               0.454125000               0.000000000               0.000000000               0.477062500               0.000000000               0.000000000               0.500000000               0.000000000               0.000000000               0.132359569               0.013036280               0.000000000               0.155337096               0.016127762               0.000000000               0.178314623               0.019219245               0.000000000               0.201292150               0.022310727               0.000000000               0.224269676               0.025402210               0.000000000               0.247247203               0.028493692               0.000000000               0.270224730               0.031585175               0.000000000               0.293202257               0.034676657               0.000000000               0.316179784               0.037768140               0.000000000               0.339157311               0.040859622               0.000000000               0.362134838               0.043951105               0.000000000               0.385112365               0.047042587               0.000000000               0.408089892               0.050134070               0.000000000               0.431067419               0.053225552               0.000000000               0.454044946               0.056317035               0.000000000               0.477022473               0.059408517               0.000000000               0.500000000               0.062500000               0.000000000               0.130444442               0.025947013               0.000000000               0.153541665               0.032137825               0.000000000               0.176638887               0.038328636               0.000000000               0.199736109               0.044519448               0.000000000               0.222833332               0.050710260               0.000000000               0.245930554               0.056901071               0.000000000               0.269027776               0.063091883               0.000000000               0.292124999               0.069282695               0.000000000               0.315222221               0.075473506               0.000000000               0.338319444               0.081664318               0.000000000               0.361416666               0.087855130               0.000000000               0.384513888               0.094045942               0.000000000               0.407611111               0.100236753               0.000000000               0.430708333               0.106427565               0.000000000               0.453805555               0.112618377               0.000000000               0.476902778               0.118809188               0.000000000               0.500000000               0.125000000               0.000000000               0.127273065               0.038607862               0.000000000               0.150568498               0.047913621               0.000000000               0.173863932               0.057219379               0.000000000               0.197159365               0.066525138               0.000000000               0.220454798               0.075830897               0.000000000               0.243750232               0.085136655               0.000000000               0.267045665               0.094442414               0.000000000               0.290341099               0.103748172               0.000000000               0.313636532               0.113053931               0.000000000               0.336931966               0.122359690               0.000000000               0.360227399               0.131665448               0.000000000               0.383522833               0.140971207               0.000000000               0.406818266               0.150276966               0.000000000               0.430113700               0.159582724               0.000000000               0.453409133               0.168888483               0.000000000               0.476704567               0.178194241               0.000000000               0.500000000               0.187500000               0.000000000               0.122875978               0.050896897               0.000000000               0.146446229               0.063340840               0.000000000               0.170016481               0.075784784               0.000000000               0.193586732               0.088228728               0.000000000               0.217156983               0.100672672               0.000000000               0.240727235               0.113116616               0.000000000               0.264297486               0.125560560               0.000000000               0.287867738               0.138004504               0.000000000               0.311437989               0.150448448               0.000000000               0.335008240               0.162892392               0.000000000               0.358578492               0.175336336               0.000000000               0.382148743               0.187780280               0.000000000               0.405718994               0.200224224               0.000000000               0.429289246               0.212668168               0.000000000               0.452859497               0.225112112               0.000000000               0.476429749               0.237556056               0.000000000               0.500000000               0.250000000               0.000000000               0.117295528               0.062695766               0.000000000               0.141214558               0.078308531               0.000000000               0.165133587               0.093921295               0.000000000               0.189052617               0.109534060               0.000000000               0.212971646               0.125146824               0.000000000               0.236890676               0.140759589               0.000000000               0.260809705               0.156372354               0.000000000               0.284728735               0.171985118               0.000000000               0.308647764               0.187597883               0.000000000               0.332566794               0.203210648               0.000000000               0.356485823               0.218823412               0.000000000               0.380404853               0.234436177               0.000000000               0.404323882               0.250048941               0.000000000               0.428242912               0.265661706               0.000000000               0.452161941               0.281274471               0.000000000               0.476080971               0.296887235               0.000000000               0.500000000               0.312500000               0.000000000               0.110585458               0.073890841               0.000000000               0.134923867               0.092710163               0.000000000               0.159262276               0.111529486               0.000000000               0.183600685               0.130348808               0.000000000               0.207939094               0.149168131               0.000000000               0.232277503               0.167987453               0.000000000               0.256615912               0.186806776               0.000000000               0.280954320               0.205626098               0.000000000               0.305292729               0.224445420               0.000000000               0.329631138               0.243264743               0.000000000               0.353969547               0.262084065               0.000000000               0.378307956               0.280903388               0.000000000               0.402646365               0.299722710               0.000000000               0.426984773               0.318542033               0.000000000               0.451323182               0.337361355               0.000000000               0.475661591               0.356180678               0.000000000               0.500000000               0.375000000               0.000000000               0.102810390               0.084374307               0.000000000               0.127634741               0.106444663               0.000000000               0.152459092               0.128515018               0.000000000               0.177283442               0.150585374               0.000000000               0.202107793               0.172655730               0.000000000               0.226932143               0.194726086               0.000000000               0.251756494               0.216796442               0.000000000               0.276580845               0.238866798               0.000000000               0.301405195               0.260937153               0.000000000               0.326229546               0.283007509               0.000000000               0.351053896               0.305077865               0.000000000               0.375878247               0.327148221               0.000000000               0.400702598               0.349218577               0.000000000               0.425526948               0.371288933               0.000000000               0.450351299               0.393359288               0.000000000               0.475175649               0.415429644               0.000000000               0.500000000               0.437500000               0.000000000               0.094045202               0.094045202               0.000000000               0.119417377               0.119417377               0.000000000               0.144789552               0.144789552               0.000000000               0.170161727               0.170161727               0.000000000               0.195533901               0.195533901               0.000000000               0.220906076               0.220906076               0.000000000               0.246278251               0.246278251               0.000000000               0.271650426               0.271650426               0.000000000               0.297022601               0.297022601               0.000000000               0.322394776               0.322394776               0.000000000               0.347766951               0.347766951               0.000000000               0.373139126               0.373139126               0.000000000               0.398511300               0.398511300               0.000000000               0.423883475               0.423883475               0.000000000               0.449255650               0.449255650               0.000000000               0.474627825               0.474627825               0.000000000               0.500000000               0.500000000               0.000000000               0.084374307               0.102810390               0.000000000               0.106444663               0.127634741               0.000000000               0.128515018               0.152459092               0.000000000               0.150585374               0.177283442               0.000000000               0.172655730               0.202107793               0.000000000               0.194726086               0.226932143               0.000000000               0.216796442               0.251756494               0.000000000               0.238866798               0.276580845               0.000000000               0.260937153               0.301405195               0.000000000               0.283007509               0.326229546               0.000000000               0.305077865               0.351053896               0.000000000               0.327148221               0.375878247               0.000000000               0.349218577               0.400702598               0.000000000               0.371288933               0.425526948               0.000000000               0.393359288               0.450351299               0.000000000               0.415429644               0.475175649               0.000000000               0.437500000               0.500000000               0.000000000               0.073890841               0.110585458               0.000000000               0.092710163               0.134923867               0.000000000               0.111529486               0.159262276               0.000000000               0.130348808               0.183600685               0.000000000               0.149168131               0.207939094               0.000000000               0.167987453               0.232277503               0.000000000               0.186806776               0.256615912               0.000000000               0.205626098               0.280954320               0.000000000               0.224445420               0.305292729               0.000000000               0.243264743               0.329631138               0.000000000               0.262084065               0.353969547               0.000000000               0.280903388               0.378307956               0.000000000               0.299722710               0.402646365               0.000000000               0.318542033               0.426984773               0.000000000               0.337361355               0.451323182               0.000000000               0.356180678               0.475661591               0.000000000               0.375000000               0.500000000               0.000000000               0.062695766               0.117295528               0.000000000               0.078308531               0.141214558               0.000000000               0.093921295               0.165133587               0.000000000               0.109534060               0.189052617               0.000000000               0.125146824               0.212971646               0.000000000               0.140759589               0.236890676               0.000000000               0.156372354               0.260809705               0.000000000               0.171985118               0.284728735               0.000000000               0.187597883               0.308647764               0.000000000               0.203210648               0.332566794               0.000000000               0.218823412               0.356485823               0.000000000               0.234436177               0.380404853               0.000000000               0.250048941               0.404323882               0.000000000               0.265661706               0.428242912               0.000000000               0.281274471               0.452161941               0.000000000               0.296887235               0.476080971               0.000000000               0.312500000               0.500000000               0.000000000               0.050896897               0.122875978               0.000000000               0.063340840               0.146446229               0.000000000               0.075784784               0.170016481               0.000000000               0.088228728               0.193586732               0.000000000               0.100672672               0.217156983               0.000000000               0.113116616               0.240727235               0.000000000               0.125560560               0.264297486               0.000000000               0.138004504               0.287867738               0.000000000               0.150448448               0.311437989               0.000000000               0.162892392               0.335008240               0.000000000               0.175336336               0.358578492               0.000000000               0.187780280               0.382148743               0.000000000               0.200224224               0.405718994               0.000000000               0.212668168               0.429289246               0.000000000               0.225112112               0.452859497               0.000000000               0.237556056               0.476429749               0.000000000               0.250000000               0.500000000               0.000000000               0.038607862               0.127273065               0.000000000               0.047913621               0.150568498               0.000000000               0.057219379               0.173863932               0.000000000               0.066525138               0.197159365               0.000000000               0.075830897               0.220454798               0.000000000               0.085136655               0.243750232               0.000000000               0.094442414               0.267045665               0.000000000               0.103748172               0.290341099               0.000000000               0.113053931               0.313636532               0.000000000               0.122359690               0.336931966               0.000000000               0.131665448               0.360227399               0.000000000               0.140971207               0.383522833               0.000000000               0.150276966               0.406818266               0.000000000               0.159582724               0.430113700               0.000000000               0.168888483               0.453409133               0.000000000               0.178194241               0.476704567               0.000000000               0.187500000               0.500000000               0.000000000               0.025947013               0.130444442               0.000000000               0.032137825               0.153541665               0.000000000               0.038328636               0.176638887               0.000000000               0.044519448               0.199736109               0.000000000               0.050710260               0.222833332               0.000000000               0.056901071               0.245930554               0.000000000               0.063091883               0.269027776               0.000000000               0.069282695               0.292124999               0.000000000               0.075473506               0.315222221               0.000000000               0.081664318               0.338319444               0.000000000               0.087855130               0.361416666               0.000000000               0.094045942               0.384513888               0.000000000               0.100236753               0.407611111               0.000000000               0.106427565               0.430708333               0.000000000               0.112618377               0.453805555               0.000000000               0.118809188               0.476902778               0.000000000               0.125000000               0.500000000               0.000000000               0.013036280               0.132359569               0.000000000               0.016127762               0.155337096               0.000000000               0.019219245               0.178314623               0.000000000               0.022310727               0.201292150               0.000000000               0.025402210               0.224269676               0.000000000               0.028493692               0.247247203               0.000000000               0.031585175               0.270224730               0.000000000               0.034676657               0.293202257               0.000000000               0.037768140               0.316179784               0.000000000               0.040859622               0.339157311               0.000000000               0.043951105               0.362134838               0.000000000               0.047042587               0.385112365               0.000000000               0.050134070               0.408089892               0.000000000               0.053225552               0.431067419               0.000000000               0.056317035               0.454044946               0.000000000               0.059408517               0.477022473               0.000000000               0.062500000               0.500000000               0.000000000               0.000000000               0.133000000               0.000000000               0.000000000               0.155937500               0.000000000               0.000000000               0.178875000               0.000000000               0.000000000               0.201812500               0.000000000               0.000000000               0.224750000               0.000000000               0.000000000               0.247687500               0.000000000               0.000000000               0.270625000               0.000000000               0.000000000               0.293562500               0.000000000               0.000000000               0.316500000               0.000000000               0.000000000               0.339437500               0.000000000               0.000000000               0.362375000               0.000000000               0.000000000               0.385312500               0.000000000               0.000000000               0.408250000               0.000000000               0.000000000               0.431187500               0.000000000               0.000000000               0.454125000               0.000000000               0.000000000               0.477062500               0.000000000               0.000000000               0.500000000               0.000000000               0.133000000               0.000000000               0.000000000               0.155937500               0.000000000               0.000000000               0.178875000               0.000000000               0.000000000               0.201812500               0.000000000               0.000000000               0.224750000               0.000000000               0.000000000               0.247687500               0.000000000               0.000000000               0.270625000               0.000000000               0.000000000               0.293562500               0.000000000               0.000000000               0.316500000               0.000000000               0.000000000               0.339437500               0.000000000               0.000000000               0.362375000               0.000000000               0.000000000               0.385312500               0.000000000               0.000000000               0.408250000               0.000000000               0.000000000               0.431187500               0.000000000               0.000000000               0.454125000               0.000000000               0.000000000               0.477062500               0.000000000               0.000000000               0.500000000               0.000000000               0.000000000               0.132359569              -0.013036280               0.000000000               0.155337096              -0.016127762               0.000000000               0.178314623              -0.019219245               0.000000000               0.201292150              -0.022310727               0.000000000               0.224269676              -0.025402210               0.000000000               0.247247203              -0.028493692               0.000000000               0.270224730              -0.031585175               0.000000000               0.293202257              -0.034676657               0.000000000               0.316179784              -0.037768140               0.000000000               0.339157311              -0.040859622               0.000000000               0.362134838              -0.043951105               0.000000000               0.385112365              -0.047042587               0.000000000               0.408089892              -0.050134070               0.000000000               0.431067419              -0.053225552               0.000000000               0.454044946              -0.056317035               0.000000000               0.477022473              -0.059408517               0.000000000               0.500000000              -0.062500000               0.000000000               0.130444442              -0.025947013               0.000000000               0.153541665              -0.032137825               0.000000000               0.176638887              -0.038328636               0.000000000               0.199736109              -0.044519448               0.000000000               0.222833332              -0.050710260               0.000000000               0.245930554              -0.056901071               0.000000000               0.269027776              -0.063091883               0.000000000               0.292124999              -0.069282695               0.000000000               0.315222221              -0.075473506               0.000000000               0.338319444              -0.081664318               0.000000000               0.361416666              -0.087855130               0.000000000               0.384513888              -0.094045942               0.000000000               0.407611111              -0.100236753               0.000000000               0.430708333              -0.106427565               0.000000000               0.453805555              -0.112618377               0.000000000               0.476902778              -0.118809188               0.000000000               0.500000000              -0.125000000               0.000000000               0.127273065              -0.038607862               0.000000000               0.150568498              -0.047913621               0.000000000               0.173863932              -0.057219379               0.000000000               0.197159365              -0.066525138               0.000000000               0.220454798              -0.075830897               0.000000000               0.243750232              -0.085136655               0.000000000               0.267045665              -0.094442414               0.000000000               0.290341099              -0.103748172               0.000000000               0.313636532              -0.113053931               0.000000000               0.336931966              -0.122359690               0.000000000               0.360227399              -0.131665448               0.000000000               0.383522833              -0.140971207               0.000000000               0.406818266              -0.150276966               0.000000000               0.430113700              -0.159582724               0.000000000               0.453409133              -0.168888483               0.000000000               0.476704567              -0.178194241               0.000000000               0.500000000              -0.187500000               0.000000000               0.122875978              -0.050896897               0.000000000               0.146446229              -0.063340840               0.000000000               0.170016481              -0.075784784               0.000000000               0.193586732              -0.088228728               0.000000000               0.217156983              -0.100672672               0.000000000               0.240727235              -0.113116616               0.000000000               0.264297486              -0.125560560               0.000000000               0.287867738              -0.138004504               0.000000000               0.311437989              -0.150448448               0.000000000               0.335008240              -0.162892392               0.000000000               0.358578492              -0.175336336               0.000000000               0.382148743              -0.187780280               0.000000000               0.405718994              -0.200224224               0.000000000               0.429289246              -0.212668168               0.000000000               0.452859497              -0.225112112               0.000000000               0.476429749              -0.237556056               0.000000000               0.500000000              -0.250000000               0.000000000               0.117295528              -0.062695766               0.000000000               0.141214558              -0.078308531               0.000000000               0.165133587              -0.093921295               0.000000000               0.189052617              -0.109534060               0.000000000               0.212971646              -0.125146824               0.000000000               0.236890676              -0.140759589               0.000000000               0.260809705              -0.156372354               0.000000000               0.284728735              -0.171985118               0.000000000               0.308647764              -0.187597883               0.000000000               0.332566794              -0.203210648               0.000000000               0.356485823              -0.218823412               0.000000000               0.380404853              -0.234436177               0.000000000               0.404323882              -0.250048941               0.000000000               0.428242912              -0.265661706               0.000000000               0.452161941              -0.281274471               0.000000000               0.476080971              -0.296887235               0.000000000               0.500000000              -0.312500000               0.000000000               0.110585458              -0.073890841               0.000000000               0.134923867              -0.092710163               0.000000000               0.159262276              -0.111529486               0.000000000               0.183600685              -0.130348808               0.000000000               0.207939094              -0.149168131               0.000000000               0.232277503              -0.167987453               0.000000000               0.256615912              -0.186806776               0.000000000               0.280954320              -0.205626098               0.000000000               0.305292729              -0.224445420               0.000000000               0.329631138              -0.243264743               0.000000000               0.353969547              -0.262084065               0.000000000               0.378307956              -0.280903388               0.000000000               0.402646365              -0.299722710               0.000000000               0.426984773              -0.318542033               0.000000000               0.451323182              -0.337361355               0.000000000               0.475661591              -0.356180678               0.000000000               0.500000000              -0.375000000               0.000000000               0.102810390              -0.084374307               0.000000000               0.127634741              -0.106444663               0.000000000               0.152459092              -0.128515018               0.000000000               0.177283442              -0.150585374               0.000000000               0.202107793              -0.172655730               0.000000000               0.226932143              -0.194726086               0.000000000               0.251756494              -0.216796442               0.000000000               0.276580845              -0.238866798               0.000000000               0.301405195              -0.260937153               0.000000000               0.326229546              -0.283007509               0.000000000               0.351053896              -0.305077865               0.000000000               0.375878247              -0.327148221               0.000000000               0.400702598              -0.349218577               0.000000000               0.425526948              -0.371288933               0.000000000               0.450351299              -0.393359288               0.000000000               0.475175649              -0.415429644               0.000000000               0.500000000              -0.437500000               0.000000000               0.094045202              -0.094045202               0.000000000               0.119417377              -0.119417377               0.000000000               0.144789552              -0.144789552               0.000000000               0.170161727              -0.170161727               0.000000000               0.195533901              -0.195533901               0.000000000               0.220906076              -0.220906076               0.000000000               0.246278251              -0.246278251               0.000000000               0.271650426              -0.271650426               0.000000000               0.297022601              -0.297022601               0.000000000               0.322394776              -0.322394776               0.000000000               0.347766951              -0.347766951               0.000000000               0.373139126              -0.373139126               0.000000000               0.398511300              -0.398511300               0.000000000               0.423883475              -0.423883475               0.000000000               0.449255650              -0.449255650               0.000000000               0.474627825              -0.474627825               0.000000000               0.500000000              -0.500000000               0.000000000               0.084374307              -0.102810390               0.000000000               0.106444663              -0.127634741               0.000000000               0.128515018              -0.152459092               0.000000000               0.150585374              -0.177283442               0.000000000               0.172655730              -0.202107793               0.000000000               0.194726086              -0.226932143               0.000000000               0.216796442              -0.251756494               0.000000000               0.238866798              -0.276580845               0.000000000               0.260937153              -0.301405195               0.000000000               0.283007509              -0.326229546               0.000000000               0.305077865              -0.351053896               0.000000000               0.327148221              -0.375878247               0.000000000               0.349218577              -0.400702598               0.000000000               0.371288933              -0.425526948               0.000000000               0.393359288              -0.450351299               0.000000000               0.415429644              -0.475175649               0.000000000               0.437500000              -0.500000000               0.000000000               0.073890841              -0.110585458               0.000000000               0.092710163              -0.134923867               0.000000000               0.111529486              -0.159262276               0.000000000               0.130348808              -0.183600685               0.000000000               0.149168131              -0.207939094               0.000000000               0.167987453              -0.232277503               0.000000000               0.186806776              -0.256615912               0.000000000               0.205626098              -0.280954320               0.000000000               0.224445420              -0.305292729               0.000000000               0.243264743              -0.329631138               0.000000000               0.262084065              -0.353969547               0.000000000               0.280903388              -0.378307956               0.000000000               0.299722710              -0.402646365               0.000000000               0.318542033              -0.426984773               0.000000000               0.337361355              -0.451323182               0.000000000               0.356180678              -0.475661591               0.000000000               0.375000000              -0.500000000               0.000000000               0.062695766              -0.117295528               0.000000000               0.078308531              -0.141214558               0.000000000               0.093921295              -0.165133587               0.000000000               0.109534060              -0.189052617               0.000000000               0.125146824              -0.212971646               0.000000000               0.140759589              -0.236890676               0.000000000               0.156372354              -0.260809705               0.000000000               0.171985118              -0.284728735               0.000000000               0.187597883              -0.308647764               0.000000000               0.203210648              -0.332566794               0.000000000               0.218823412              -0.356485823               0.000000000               0.234436177              -0.380404853               0.000000000               0.250048941              -0.404323882               0.000000000               0.265661706              -0.428242912               0.000000000               0.281274471              -0.452161941               0.000000000               0.296887235              -0.476080971               0.000000000               0.312500000              -0.500000000               0.000000000               0.050896897              -0.122875978               0.000000000               0.063340840              -0.146446229               0.000000000               0.075784784              -0.170016481               0.000000000               0.088228728              -0.193586732               0.000000000               0.100672672              -0.217156983               0.000000000               0.113116616              -0.240727235               0.000000000               0.125560560              -0.264297486               0.000000000               0.138004504              -0.287867738               0.000000000               0.150448448              -0.311437989               0.000000000               0.162892392              -0.335008240               0.000000000               0.175336336              -0.358578492               0.000000000               0.187780280              -0.382148743               0.000000000               0.200224224              -0.405718994               0.000000000               0.212668168              -0.429289246               0.000000000               0.225112112              -0.452859497               0.000000000               0.237556056              -0.476429749               0.000000000               0.250000000              -0.500000000               0.000000000               0.038607862              -0.127273065               0.000000000               0.047913621              -0.150568498               0.000000000               0.057219379              -0.173863932               0.000000000               0.066525138              -0.197159365               0.000000000               0.075830897              -0.220454798               0.000000000               0.085136655              -0.243750232               0.000000000               0.094442414              -0.267045665               0.000000000               0.103748172              -0.290341099               0.000000000               0.113053931              -0.313636532               0.000000000               0.122359690              -0.336931966               0.000000000               0.131665448              -0.360227399               0.000000000               0.140971207              -0.383522833               0.000000000               0.150276966              -0.406818266               0.000000000               0.159582724              -0.430113700               0.000000000               0.168888483              -0.453409133               0.000000000               0.178194241              -0.476704567               0.000000000               0.187500000              -0.500000000               0.000000000               0.025947013              -0.130444442               0.000000000               0.032137825              -0.153541665               0.000000000               0.038328636              -0.176638887               0.000000000               0.044519448              -0.199736109               0.000000000               0.050710260              -0.222833332               0.000000000               0.056901071              -0.245930554               0.000000000               0.063091883              -0.269027776               0.000000000               0.069282695              -0.292124999               0.000000000               0.075473506              -0.315222221               0.000000000               0.081664318              -0.338319444               0.000000000               0.087855130              -0.361416666               0.000000000               0.094045942              -0.384513888               0.000000000               0.100236753              -0.407611111               0.000000000               0.106427565              -0.430708333               0.000000000               0.112618377              -0.453805555               0.000000000               0.118809188              -0.476902778               0.000000000               0.125000000              -0.500000000               0.000000000               0.013036280              -0.132359569               0.000000000               0.016127762              -0.155337096               0.000000000               0.019219245              -0.178314623               0.000000000               0.022310727              -0.201292150               0.000000000               0.025402210              -0.224269676               0.000000000               0.028493692              -0.247247203               0.000000000               0.031585175              -0.270224730               0.000000000               0.034676657              -0.293202257               0.000000000               0.037768140              -0.316179784               0.000000000               0.040859622              -0.339157311               0.000000000               0.043951105              -0.362134838               0.000000000               0.047042587              -0.385112365               0.000000000               0.050134070              -0.408089892               0.000000000               0.053225552              -0.431067419               0.000000000               0.056317035              -0.454044946               0.000000000               0.059408517              -0.477022473               0.000000000               0.062500000              -0.500000000               0.000000000               0.000000000              -0.133000000               0.000000000               0.000000000              -0.155937500               0.000000000               0.000000000              -0.178875000               0.000000000               0.000000000              -0.201812500               0.000000000               0.000000000              -0.224750000               0.000000000               0.000000000              -0.247687500               0.000000000               0.000000000              -0.270625000               0.000000000               0.000000000              -0.293562500               0.000000000               0.000000000              -0.316500000               0.000000000               0.000000000              -0.339437500               0.000000000               0.000000000              -0.362375000               0.000000000               0.000000000              -0.385312500               0.000000000               0.000000000              -0.408250000               0.000000000               0.000000000              -0.431187500               0.000000000               0.000000000              -0.454125000               0.000000000               0.000000000              -0.477062500               0.000000000               0.000000000              -0.500000000               0.000000000              -0.133000000               0.000000000               0.000000000              -0.155937500               0.000000000               0.000000000              -0.178875000               0.000000000               0.000000000              -0.201812500               0.000000000               0.000000000              -0.224750000               0.000000000               0.000000000              -0.247687500               0.000000000               0.000000000              -0.270625000               0.000000000               0.000000000              -0.293562500               0.000000000               0.000000000              -0.316500000               0.000000000               0.000000000              -0.339437500               0.000000000               0.000000000              -0.362375000               0.000000000               0.000000000              -0.385312500               0.000000000               0.000000000              -0.408250000               0.000000000               0.000000000              -0.431187500               0.000000000               0.000000000              -0.454125000               0.000000000               0.000000000              -0.477062500               0.000000000               0.000000000              -0.500000000               0.000000000               0.000000000              -0.132359569              -0.013036280               0.000000000              -0.155337096              -0.016127762               0.000000000              -0.178314623              -0.019219245               0.000000000              -0.201292150              -0.022310727               0.000000000              -0.224269676              -0.025402210               0.000000000              -0.247247203              -0.028493692               0.000000000              -0.270224730              -0.031585175               0.000000000              -0.293202257              -0.034676657               0.000000000              -0.316179784              -0.037768140               0.000000000              -0.339157311              -0.040859622               0.000000000              -0.362134838              -0.043951105               0.000000000              -0.385112365              -0.047042587               0.000000000              -0.408089892              -0.050134070               0.000000000              -0.431067419              -0.053225552               0.000000000              -0.454044946              -0.056317035               0.000000000              -0.477022473              -0.059408517               0.000000000              -0.500000000              -0.062500000               0.000000000              -0.130444442              -0.025947013               0.000000000              -0.153541665              -0.032137825               0.000000000              -0.176638887              -0.038328636               0.000000000              -0.199736109              -0.044519448               0.000000000              -0.222833332              -0.050710260               0.000000000              -0.245930554              -0.056901071               0.000000000              -0.269027776              -0.063091883               0.000000000              -0.292124999              -0.069282695               0.000000000              -0.315222221              -0.075473506               0.000000000              -0.338319444              -0.081664318               0.000000000              -0.361416666              -0.087855130               0.000000000              -0.384513888              -0.094045942               0.000000000              -0.407611111              -0.100236753               0.000000000              -0.430708333              -0.106427565               0.000000000              -0.453805555              -0.112618377               0.000000000              -0.476902778              -0.118809188               0.000000000              -0.500000000              -0.125000000               0.000000000              -0.127273065              -0.038607862               0.000000000              -0.150568498              -0.047913621               0.000000000              -0.173863932              -0.057219379               0.000000000              -0.197159365              -0.066525138               0.000000000              -0.220454798              -0.075830897               0.000000000              -0.243750232              -0.085136655               0.000000000              -0.267045665              -0.094442414               0.000000000              -0.290341099              -0.103748172               0.000000000              -0.313636532              -0.113053931               0.000000000              -0.336931966              -0.122359690               0.000000000              -0.360227399              -0.131665448               0.000000000              -0.383522833              -0.140971207               0.000000000              -0.406818266              -0.150276966               0.000000000              -0.430113700              -0.159582724               0.000000000              -0.453409133              -0.168888483               0.000000000              -0.476704567              -0.178194241               0.000000000              -0.500000000              -0.187500000               0.000000000              -0.122875978              -0.050896897               0.000000000              -0.146446229              -0.063340840               0.000000000              -0.170016481              -0.075784784               0.000000000              -0.193586732              -0.088228728               0.000000000              -0.217156983              -0.100672672               0.000000000              -0.240727235              -0.113116616               0.000000000              -0.264297486              -0.125560560               0.000000000              -0.287867738              -0.138004504               0.000000000              -0.311437989              -0.150448448               0.000000000              -0.335008240              -0.162892392               0.000000000              -0.358578492              -0.175336336               0.000000000              -0.382148743              -0.187780280               0.000000000              -0.405718994              -0.200224224               0.000000000              -0.429289246              -0.212668168               0.000000000              -0.452859497              -0.225112112               0.000000000              -0.476429749              -0.237556056               0.000000000              -0.500000000              -0.250000000               0.000000000              -0.117295528              -0.062695766               0.000000000              -0.141214558              -0.078308531               0.000000000              -0.165133587              -0.093921295               0.000000000              -0.189052617              -0.109534060               0.000000000              -0.212971646              -0.125146824               0.000000000              -0.236890676              -0.140759589               0.000000000              -0.260809705              -0.156372354               0.000000000              -0.284728735              -0.171985118               0.000000000              -0.308647764              -0.187597883               0.000000000              -0.332566794              -0.203210648               0.000000000              -0.356485823              -0.218823412               0.000000000              -0.380404853              -0.234436177               0.000000000              -0.404323882              -0.250048941               0.000000000              -0.428242912              -0.265661706               0.000000000              -0.452161941              -0.281274471               0.000000000              -0.476080971              -0.296887235               0.000000000              -0.500000000              -0.312500000               0.000000000              -0.110585458              -0.073890841               0.000000000              -0.134923867              -0.092710163               0.000000000              -0.159262276              -0.111529486               0.000000000              -0.183600685              -0.130348808               0.000000000              -0.207939094              -0.149168131               0.000000000              -0.232277503              -0.167987453               0.000000000              -0.256615912              -0.186806776               0.000000000              -0.280954320              -0.205626098               0.000000000              -0.305292729              -0.224445420               0.000000000              -0.329631138              -0.243264743               0.000000000              -0.353969547              -0.262084065               0.000000000              -0.378307956              -0.280903388               0.000000000              -0.402646365              -0.299722710               0.000000000              -0.426984773              -0.318542033               0.000000000              -0.451323182              -0.337361355               0.000000000              -0.475661591              -0.356180678               0.000000000              -0.500000000              -0.375000000               0.000000000              -0.102810390              -0.084374307               0.000000000              -0.127634741              -0.106444663               0.000000000              -0.152459092              -0.128515018               0.000000000              -0.177283442              -0.150585374               0.000000000              -0.202107793              -0.172655730               0.000000000              -0.226932143              -0.194726086               0.000000000              -0.251756494              -0.216796442               0.000000000              -0.276580845              -0.238866798               0.000000000              -0.301405195              -0.260937153               0.000000000              -0.326229546              -0.283007509               0.000000000              -0.351053896              -0.305077865               0.000000000              -0.375878247              -0.327148221               0.000000000              -0.400702598              -0.349218577               0.000000000              -0.425526948              -0.371288933               0.000000000              -0.450351299              -0.393359288               0.000000000              -0.475175649              -0.415429644               0.000000000              -0.500000000              -0.437500000               0.000000000              -0.094045202              -0.094045202               0.000000000              -0.119417377              -0.119417377               0.000000000              -0.144789552              -0.144789552               0.000000000              -0.170161727              -0.170161727               0.000000000              -0.195533901              -0.195533901               0.000000000              -0.220906076              -0.220906076               0.000000000              -0.246278251              -0.246278251               0.000000000              -0.271650426              -0.271650426               0.000000000              -0.297022601              -0.297022601               0.000000000              -0.322394776              -0.322394776               0.000000000              -0.347766951              -0.347766951               0.000000000              -0.373139126              -0.373139126               0.000000000              -0.398511300              -0.398511300               0.000000000              -0.423883475              -0.423883475               0.000000000              -0.449255650              -0.449255650               0.000000000              -0.474627825              -0.474627825               0.000000000              -0.500000000              -0.500000000               0.000000000              -0.084374307              -0.102810390               0.000000000              -0.106444663              -0.127634741               0.000000000              -0.128515018              -0.152459092               0.000000000              -0.150585374              -0.177283442               0.000000000              -0.172655730              -0.202107793               0.000000000              -0.194726086              -0.226932143               0.000000000              -0.216796442              -0.251756494               0.000000000              -0.238866798              -0.276580845               0.000000000              -0.260937153              -0.301405195               0.000000000              -0.283007509              -0.326229546               0.000000000              -0.305077865              -0.351053896               0.000000000              -0.327148221              -0.375878247               0.000000000              -0.349218577              -0.400702598               0.000000000              -0.371288933              -0.425526948               0.000000000              -0.393359288              -0.450351299               0.000000000              -0.415429644              -0.475175649               0.000000000              -0.437500000              -0.500000000               0.000000000              -0.073890841              -0.110585458               0.000000000              -0.092710163              -0.134923867               0.000000000              -0.111529486              -0.159262276               0.000000000              -0.130348808              -0.183600685               0.000000000              -0.149168131              -0.207939094               0.000000000              -0.167987453              -0.232277503               0.000000000              -0.186806776              -0.256615912               0.000000000              -0.205626098              -0.280954320               0.000000000              -0.224445420              -0.305292729               0.000000000              -0.243264743              -0.329631138               0.000000000              -0.262084065              -0.353969547               0.000000000              -0.280903388              -0.378307956               0.000000000              -0.299722710              -0.402646365               0.000000000              -0.318542033              -0.426984773               0.000000000              -0.337361355              -0.451323182               0.000000000              -0.356180678              -0.475661591               0.000000000              -0.375000000              -0.500000000               0.000000000              -0.062695766              -0.117295528               0.000000000              -0.078308531              -0.141214558               0.000000000              -0.093921295              -0.165133587               0.000000000              -0.109534060              -0.189052617               0.000000000              -0.125146824              -0.212971646               0.000000000              -0.140759589              -0.236890676               0.000000000              -0.156372354              -0.260809705               0.000000000              -0.171985118              -0.284728735               0.000000000              -0.187597883              -0.308647764               0.000000000              -0.203210648              -0.332566794               0.000000000              -0.218823412              -0.356485823               0.000000000              -0.234436177              -0.380404853               0.000000000              -0.250048941              -0.404323882               0.000000000              -0.265661706              -0.428242912               0.000000000              -0.281274471              -0.452161941               0.000000000              -0.296887235              -0.476080971               0.000000000              -0.312500000              -0.500000000               0.000000000              -0.050896897              -0.122875978               0.000000000              -0.063340840              -0.146446229               0.000000000              -0.075784784              -0.170016481               0.000000000              -0.088228728              -0.193586732               0.000000000              -0.100672672              -0.217156983               0.000000000              -0.113116616              -0.240727235               0.000000000              -0.125560560              -0.264297486               0.000000000              -0.138004504              -0.287867738               0.000000000              -0.150448448              -0.311437989               0.000000000              -0.162892392              -0.335008240               0.000000000              -0.175336336              -0.358578492               0.000000000              -0.187780280              -0.382148743               0.000000000              -0.200224224              -0.405718994               0.000000000              -0.212668168              -0.429289246               0.000000000              -0.225112112              -0.452859497               0.000000000              -0.237556056              -0.476429749               0.000000000              -0.250000000              -0.500000000               0.000000000              -0.038607862              -0.127273065               0.000000000              -0.047913621              -0.150568498               0.000000000              -0.057219379              -0.173863932               0.000000000              -0.066525138              -0.197159365               0.000000000              -0.075830897              -0.220454798               0.000000000              -0.085136655              -0.243750232               0.000000000              -0.094442414              -0.267045665               0.000000000              -0.103748172              -0.290341099               0.000000000              -0.113053931              -0.313636532               0.000000000              -0.122359690              -0.336931966               0.000000000              -0.131665448              -0.360227399               0.000000000              -0.140971207              -0.383522833               0.000000000              -0.150276966              -0.406818266               0.000000000              -0.159582724              -0.430113700               0.000000000              -0.168888483              -0.453409133               0.000000000              -0.178194241              -0.476704567               0.000000000              -0.187500000              -0.500000000               0.000000000              -0.025947013              -0.130444442               0.000000000              -0.032137825              -0.153541665               0.000000000              -0.038328636              -0.176638887               0.000000000              -0.044519448              -0.199736109               0.000000000              -0.050710260              -0.222833332               0.000000000              -0.056901071              -0.245930554               0.000000000              -0.063091883              -0.269027776               0.000000000              -0.069282695              -0.292124999               0.000000000              -0.075473506              -0.315222221               0.000000000              -0.081664318              -0.338319444               0.000000000              -0.087855130              -0.361416666               0.000000000              -0.094045942              -0.384513888               0.000000000              -0.100236753              -0.407611111               0.000000000              -0.106427565              -0.430708333               0.000000000              -0.112618377              -0.453805555               0.000000000              -0.118809188              -0.476902778               0.000000000              -0.125000000              -0.500000000               0.000000000              -0.013036280              -0.132359569               0.000000000              -0.016127762              -0.155337096               0.000000000              -0.019219245              -0.178314623               0.000000000              -0.022310727              -0.201292150               0.000000000              -0.025402210              -0.224269676               0.000000000              -0.028493692              -0.247247203               0.000000000              -0.031585175              -0.270224730               0.000000000              -0.034676657              -0.293202257               0.000000000              -0.037768140              -0.316179784               0.000000000              -0.040859622              -0.339157311               0.000000000              -0.043951105              -0.362134838               0.000000000              -0.047042587              -0.385112365               0.000000000              -0.050134070              -0.408089892               0.000000000              -0.053225552              -0.431067419               0.000000000              -0.056317035              -0.454044946               0.000000000              -0.059408517              -0.477022473               0.000000000              -0.062500000              -0.500000000               0.000000000               0.000000000              -0.133000000               0.000000000               0.000000000              -0.155937500               0.000000000               0.000000000              -0.178875000               0.000000000               0.000000000              -0.201812500               0.000000000               0.000000000              -0.224750000               0.000000000               0.000000000              -0.247687500               0.000000000               0.000000000              -0.270625000               0.000000000               0.000000000              -0.293562500               0.000000000               0.000000000              -0.316500000               0.000000000               0.000000000              -0.339437500               0.000000000               0.000000000              -0.362375000               0.000000000               0.000000000              -0.385312500               0.000000000               0.000000000              -0.408250000               0.000000000               0.000000000              -0.431187500               0.000000000               0.000000000              -0.454125000               0.000000000               0.000000000              -0.477062500               0.000000000               0.000000000              -0.500000000               0.000000000              -0.133000000               0.000000000               0.000000000              -0.155937500               0.000000000               0.000000000              -0.178875000               0.000000000               0.000000000              -0.201812500               0.000000000               0.000000000              -0.224750000               0.000000000               0.000000000              -0.247687500               0.000000000               0.000000000              -0.270625000               0.000000000               0.000000000              -0.293562500               0.000000000               0.000000000              -0.316500000               0.000000000               0.000000000              -0.339437500               0.000000000               0.000000000              -0.362375000               0.000000000               0.000000000              -0.385312500               0.000000000               0.000000000              -0.408250000               0.000000000               0.000000000              -0.431187500               0.000000000               0.000000000              -0.454125000               0.000000000               0.000000000              -0.477062500               0.000000000               0.000000000              -0.500000000               0.000000000               0.000000000              -0.132359569               0.013036280               0.000000000              -0.155337096               0.016127762               0.000000000              -0.178314623               0.019219245               0.000000000              -0.201292150               0.022310727               0.000000000              -0.224269676               0.025402210               0.000000000              -0.247247203               0.028493692               0.000000000              -0.270224730               0.031585175               0.000000000              -0.293202257               0.034676657               0.000000000              -0.316179784               0.037768140               0.000000000              -0.339157311               0.040859622               0.000000000              -0.362134838               0.043951105               0.000000000              -0.385112365               0.047042587               0.000000000              -0.408089892               0.050134070               0.000000000              -0.431067419               0.053225552               0.000000000              -0.454044946               0.056317035               0.000000000              -0.477022473               0.059408517               0.000000000              -0.500000000               0.062500000               0.000000000              -0.130444442               0.025947013               0.000000000              -0.153541665               0.032137825               0.000000000              -0.176638887               0.038328636               0.000000000              -0.199736109               0.044519448               0.000000000              -0.222833332               0.050710260               0.000000000              -0.245930554               0.056901071               0.000000000              -0.269027776               0.063091883               0.000000000              -0.292124999               0.069282695               0.000000000              -0.315222221               0.075473506               0.000000000              -0.338319444               0.081664318               0.000000000              -0.361416666               0.087855130               0.000000000              -0.384513888               0.094045942               0.000000000              -0.407611111               0.100236753               0.000000000              -0.430708333               0.106427565               0.000000000              -0.453805555               0.112618377               0.000000000              -0.476902778               0.118809188               0.000000000              -0.500000000               0.125000000               0.000000000              -0.127273065               0.038607862               0.000000000              -0.150568498               0.047913621               0.000000000              -0.173863932               0.057219379               0.000000000              -0.197159365               0.066525138               0.000000000              -0.220454798               0.075830897               0.000000000              -0.243750232               0.085136655               0.000000000              -0.267045665               0.094442414               0.000000000              -0.290341099               0.103748172               0.000000000              -0.313636532               0.113053931               0.000000000              -0.336931966               0.122359690               0.000000000              -0.360227399               0.131665448               0.000000000              -0.383522833               0.140971207               0.000000000              -0.406818266               0.150276966               0.000000000              -0.430113700               0.159582724               0.000000000              -0.453409133               0.168888483               0.000000000              -0.476704567               0.178194241               0.000000000              -0.500000000               0.187500000               0.000000000              -0.122875978               0.050896897               0.000000000              -0.146446229               0.063340840               0.000000000              -0.170016481               0.075784784               0.000000000              -0.193586732               0.088228728               0.000000000              -0.217156983               0.100672672               0.000000000              -0.240727235               0.113116616               0.000000000              -0.264297486               0.125560560               0.000000000              -0.287867738               0.138004504               0.000000000              -0.311437989               0.150448448               0.000000000              -0.335008240               0.162892392               0.000000000              -0.358578492               0.175336336               0.000000000              -0.382148743               0.187780280               0.000000000              -0.405718994               0.200224224               0.000000000              -0.429289246               0.212668168               0.000000000              -0.452859497               0.225112112               0.000000000              -0.476429749               0.237556056               0.000000000              -0.500000000               0.250000000               0.000000000              -0.117295528               0.062695766               0.000000000              -0.141214558               0.078308531               0.000000000              -0.165133587               0.093921295               0.000000000              -0.189052617               0.109534060               0.000000000              -0.212971646               0.125146824               0.000000000              -0.236890676               0.140759589               0.000000000              -0.260809705               0.156372354               0.000000000              -0.284728735               0.171985118               0.000000000              -0.308647764               0.187597883               0.000000000              -0.332566794               0.203210648               0.000000000              -0.356485823               0.218823412               0.000000000              -0.380404853               0.234436177               0.000000000              -0.404323882               0.250048941               0.000000000              -0.428242912               0.265661706               0.000000000              -0.452161941               0.281274471               0.000000000              -0.476080971               0.296887235               0.000000000              -0.500000000               0.312500000               0.000000000              -0.110585458               0.073890841               0.000000000              -0.134923867               0.092710163               0.000000000              -0.159262276               0.111529486               0.000000000              -0.183600685               0.130348808               0.000000000              -0.207939094               0.149168131               0.000000000              -0.232277503               0.167987453               0.000000000              -0.256615912               0.186806776               0.000000000              -0.280954320               0.205626098               0.000000000              -0.305292729               0.224445420               0.000000000              -0.329631138               0.243264743               0.000000000              -0.353969547               0.262084065               0.000000000              -0.378307956               0.280903388               0.000000000              -0.402646365               0.299722710               0.000000000              -0.426984773               0.318542033               0.000000000              -0.451323182               0.337361355               0.000000000              -0.475661591               0.356180678               0.000000000              -0.500000000               0.375000000               0.000000000              -0.102810390               0.084374307               0.000000000              -0.127634741               0.106444663               0.000000000              -0.152459092               0.128515018               0.000000000              -0.177283442               0.150585374               0.000000000              -0.202107793               0.172655730               0.000000000              -0.226932143               0.194726086               0.000000000              -0.251756494               0.216796442               0.000000000              -0.276580845               0.238866798               0.000000000              -0.301405195               0.260937153               0.000000000              -0.326229546               0.283007509               0.000000000              -0.351053896               0.305077865               0.000000000              -0.375878247               0.327148221               0.000000000              -0.400702598               0.349218577               0.000000000              -0.425526948               0.371288933               0.000000000              -0.450351299               0.393359288               0.000000000              -0.475175649               0.415429644               0.000000000              -0.500000000               0.437500000               0.000000000              -0.094045202               0.094045202               0.000000000              -0.119417377               0.119417377               0.000000000              -0.144789552               0.144789552               0.000000000              -0.170161727               0.170161727               0.000000000              -0.195533901               0.195533901               0.000000000              -0.220906076               0.220906076               0.000000000              -0.246278251               0.246278251               0.000000000              -0.271650426               0.271650426               0.000000000              -0.297022601               0.297022601               0.000000000              -0.322394776               0.322394776               0.000000000              -0.347766951               0.347766951               0.000000000              -0.373139126               0.373139126               0.000000000              -0.398511300               0.398511300               0.000000000              -0.423883475               0.423883475               0.000000000              -0.449255650               0.449255650               0.000000000              -0.474627825               0.474627825               0.000000000              -0.500000000               0.500000000               0.000000000              -0.084374307               0.102810390               0.000000000              -0.106444663               0.127634741               0.000000000              -0.128515018               0.152459092               0.000000000              -0.150585374               0.177283442               0.000000000              -0.172655730               0.202107793               0.000000000              -0.194726086               0.226932143               0.000000000              -0.216796442               0.251756494               0.000000000              -0.238866798               0.276580845               0.000000000              -0.260937153               0.301405195               0.000000000              -0.283007509               0.326229546               0.000000000              -0.305077865               0.351053896               0.000000000              -0.327148221               0.375878247               0.000000000              -0.349218577               0.400702598               0.000000000              -0.371288933               0.425526948               0.000000000              -0.393359288               0.450351299               0.000000000              -0.415429644               0.475175649               0.000000000              -0.437500000               0.500000000               0.000000000              -0.073890841               0.110585458               0.000000000              -0.092710163               0.134923867               0.000000000              -0.111529486               0.159262276               0.000000000              -0.130348808               0.183600685               0.000000000              -0.149168131               0.207939094               0.000000000              -0.167987453               0.232277503               0.000000000              -0.186806776               0.256615912               0.000000000              -0.205626098               0.280954320               0.000000000              -0.224445420               0.305292729               0.000000000              -0.243264743               0.329631138               0.000000000              -0.262084065               0.353969547               0.000000000              -0.280903388               0.378307956               0.000000000              -0.299722710               0.402646365               0.000000000              -0.318542033               0.426984773               0.000000000              -0.337361355               0.451323182               0.000000000              -0.356180678               0.475661591               0.000000000              -0.375000000               0.500000000               0.000000000              -0.062695766               0.117295528               0.000000000              -0.078308531               0.141214558               0.000000000              -0.093921295               0.165133587               0.000000000              -0.109534060               0.189052617               0.000000000              -0.125146824               0.212971646               0.000000000              -0.140759589               0.236890676               0.000000000              -0.156372354               0.260809705               0.000000000              -0.171985118               0.284728735               0.000000000              -0.187597883               0.308647764               0.000000000              -0.203210648               0.332566794               0.000000000              -0.218823412               0.356485823               0.000000000              -0.234436177               0.380404853               0.000000000              -0.250048941               0.404323882               0.000000000              -0.265661706               0.428242912               0.000000000              -0.281274471               0.452161941               0.000000000              -0.296887235               0.476080971               0.000000000              -0.312500000               0.500000000               0.000000000              -0.050896897               0.122875978               0.000000000              -0.063340840               0.146446229               0.000000000              -0.075784784               0.170016481               0.000000000              -0.088228728               0.193586732               0.000000000              -0.100672672               0.217156983               0.000000000              -0.113116616               0.240727235               0.000000000              -0.125560560               0.264297486               0.000000000              -0.138004504               0.287867738               0.000000000              -0.150448448               0.311437989               0.000000000              -0.162892392               0.335008240               0.000000000              -0.175336336               0.358578492               0.000000000              -0.187780280               0.382148743               0.000000000              -0.200224224               0.405718994               0.000000000              -0.212668168               0.429289246               0.000000000              -0.225112112               0.452859497               0.000000000              -0.237556056               0.476429749               0.000000000              -0.250000000               0.500000000               0.000000000              -0.038607862               0.127273065               0.000000000              -0.047913621               0.150568498               0.000000000              -0.057219379               0.173863932               0.000000000              -0.066525138               0.197159365               0.000000000              -0.075830897               0.220454798               0.000000000              -0.085136655               0.243750232               0.000000000              -0.094442414               0.267045665               0.000000000              -0.103748172               0.290341099               0.000000000              -0.113053931               0.313636532               0.000000000              -0.122359690               0.336931966               0.000000000              -0.131665448               0.360227399               0.000000000              -0.140971207               0.383522833               0.000000000              -0.150276966               0.406818266               0.000000000              -0.159582724               0.430113700               0.000000000              -0.168888483               0.453409133               0.000000000              -0.178194241               0.476704567               0.000000000              -0.187500000               0.500000000               0.000000000              -0.025947013               0.130444442               0.000000000              -0.032137825               0.153541665               0.000000000              -0.038328636               0.176638887               0.000000000              -0.044519448               0.199736109               0.000000000              -0.050710260               0.222833332               0.000000000              -0.056901071               0.245930554               0.000000000              -0.063091883               0.269027776               0.000000000              -0.069282695               0.292124999               0.000000000              -0.075473506               0.315222221               0.000000000              -0.081664318               0.338319444               0.000000000              -0.087855130               0.361416666               0.000000000              -0.094045942               0.384513888               0.000000000              -0.100236753               0.407611111               0.000000000              -0.106427565               0.430708333               0.000000000              -0.112618377               0.453805555               0.000000000              -0.118809188               0.476902778               0.000000000              -0.125000000               0.500000000               0.000000000              -0.013036280               0.132359569               0.000000000              -0.016127762               0.155337096               0.000000000              -0.019219245               0.178314623               0.000000000              -0.022310727               0.201292150               0.000000000              -0.025402210               0.224269676               0.000000000              -0.028493692               0.247247203               0.000000000              -0.031585175               0.270224730               0.000000000              -0.034676657               0.293202257               0.000000000              -0.037768140               0.316179784               0.000000000              -0.040859622               0.339157311               0.000000000              -0.043951105               0.362134838               0.000000000              -0.047042587               0.385112365               0.000000000              -0.050134070               0.408089892               0.000000000              -0.053225552               0.431067419               0.000000000              -0.056317035               0.454044946               0.000000000              -0.059408517               0.477022473               0.000000000              -0.062500000               0.500000000               0.000000000               0.000000000               0.133000000               0.000000000               0.000000000               0.155937500               0.000000000               0.000000000               0.178875000               0.000000000               0.000000000               0.201812500               0.000000000               0.000000000               0.224750000               0.000000000               0.000000000               0.247687500               0.000000000               0.000000000               0.270625000               0.000000000               0.000000000               0.293562500               0.000000000               0.000000000               0.316500000               0.000000000               0.000000000               0.339437500               0.000000000               0.000000000               0.362375000               0.000000000               0.000000000               0.385312500               0.000000000               0.000000000               0.408250000               0.000000000               0.000000000               0.431187500               0.000000000               0.000000000               0.454125000               0.000000000               0.000000000               0.477062500               0.000000000               0.000000000               0.500000000               0.000000000 </DataArray>
</Points>
<Cells>
<DataArray type="Int32"                                    Name="connectivity"                                                      NumberOfComponents=" 1" format="ascii">
         0          1         18         17          1          2         19         18          2          3         20         19          3          4         21         20          4          5         22         21          5          6         23         22          6          7         24         23          7          8         25         24          8          9         26         25          9         10         27         26         10         11         28         27         11         12         29         28         12         13         30         29         13         14         31         30         14         15         32         31         15         16         33         32         17         18         35         34         18         19         36         35         19         20         37         36         20         21         38         37         21         22         39         38         22         23         40         39         23         24         41         40         24         25         42         41         25         26         43         42         26         27         44         43         27         28         45         44         28         29         46         45         29         30         47         46         30         31         48         47         31         32         49         48         32         33         50         49         34         35         52         51         35         36         53         52         36         37         54         53         37         38         55         54         38         39         56         55         39         40         57         56         40         41         58         57         41         42         59         58         42         43         60         59         43         44         61         60         44         45         62         61         45         46         63         62         46         47         64         63         47         48         65         64         48         49         66         65         49         50         67         66         51         52         69         68         52         53         70         69         53         54         71         70         54         55         72         71         55         56         73         72         56         57         74         73         57         58         75         74         58         59         76         75         59         60         77         76         60         61         78         77         61         62         79         78         62         63         80         79         63         64         81         80         64         65         82         81         65         66         83         82         66         67         84         83         68         69         86         85         69         70         87         86         70         71         88         87         71         72         89         88         72         73         90         89         73         74         91         90         74         75         92         91         75         76         93         92         76         77         94         93         77         78         95         94         78         79         96         95         79         80         97         96         80         81         98         97         81         82         99         98         82         83        100         99         83         84        101        100         85         86        103        102         86         87        104        103         87         88        105        104         88         89        106        105         89         90        107        106         90         91        108        107         91         92        109        108         92         93        110        109         93         94        111        110         94         95        112        111         95         96        113        112         96         97        114        113         97         98        115        114         98         99        116        115         99        100        117        116        100        101        118        117        102        103        120        119        103        104        121        120        104        105        122        121        105        106        123        122        106        107        124        123        107        108        125        124        108        109        126        125        109        110        127        126        110        111        128        127        111        112        129        128        112        113        130        129        113        114        131        130        114        115        132        131        115        116        133        132        116        117        134        133        117        118        135        134        119        120        137        136        120        121        138        137        121        122        139        138        122        123        140        139        123        124        141        140        124        125        142        141        125        126        143        142        126        127        144        143        127        128        145        144        128        129        146        145        129        130        147        146        130        131        148        147        131        132        149        148        132        133        150        149        133        134        151        150        134        135        152        151        136        137        154        153        137        138        155        154        138        139        156        155        139        140        157        156        140        141        158        157        141        142        159        158        142        143        160        159        143        144        161        160        144        145        162        161        145        146        163        162        146        147        164        163        147        148        165        164        148        149        166        165        149        150        167        166        150        151        168        167        151        152        169        168        153        154        171        170        154        155        172        171        155        156        173        172        156        157        174        173        157        158        175        174        158        159        176        175        159        160        177        176        160        161        178        177        161        162        179        178        162        163        180        179        163        164        181        180        164        165        182        181        165        166        183        182        166        167        184        183        167        168        185        184        168        169        186        185        170        171        188        187        171        172        189        188        172        173        190        189        173        174        191        190        174        175        192        191        175        176        193        192        176        177        194        193        177        178        195        194        178        179        196        195        179        180        197        196        180        181        198        197        181        182        199        198        182        183        200        199        183        184        201        200        184        185        202        201        185        186        203        202        187        188        205        204        188        189        206        205        189        190        207        206        190        191        208        207        191        192        209        208        192        193        210        209        193        194        211        210        194        195        212        211        195        196        213        212        196        197        214        213        197        198        215        214        198        199        216        215        199        200        217        216        200        201        218        217        201        202        219        218        202        203        220        219        204        205        222        221        205        206        223        222        206        207        224        223        207        208        225        224        208        209        226        225        209        210        227        226        210        211        228        227        211        212        229        228        212        213        230        229        213        214        231        230        214        215        232        231        215        216        233        232        216        217        234        233        217        218        235        234        218        219        236        235        219        220        237        236        221        222        239        238        222        223        240        239        223        224        241        240        224        225        242        241        225        226        243        242        226        227        244        243        227        228        245        244        228        229        246        245        229        230        247        246        230        231        248        247        231        232        249        248        232        233        250        249        233        234        251        250        234        235        252        251        235        236        253        252        236        237        254        253        238        239        256        255        239        240        257        256        240        241        258        257        241        242        259        258        242        243        260        259        243        244        261        260        244        245        262        261        245        246        263        262        246        247        264        263        247        248        265        264        248        249        266        265        249        250        267        266        250        251        268        267        251        252        269        268        252        253        270        269        253        254        271        270        255        256        273        272        256        257        274        273        257        258        275        274        258        259        276        275        259        260        277        276        260        261        278        277        261        262        279        278        262        263        280        279        263        264        281        280        264        265        282        281        265        266        283        282        266        267        284        283        267        268        285        284        268        269        286        285        269        270        287        286        270        271        288        287        306        307          1          0        307        308          2          1        308        309          3          2        309        310          4          3        310        311          5          4        311        312          6          5        312        313          7          6        313        314          8          7        314        315          9          8        315        316         10          9        316        317         11         10        317        318         12         11        318        319         13         12        319        320         14         13        320        321         15         14        321        322         16         15        323        324        307        306        324        325        308        307        325        326        309        308        326        327        310        309        327        328        311        310        328        329        312        311        329        330        313        312        330        331        314        313        331        332        315        314        332        333        316        315        333        334        317        316        334        335        318        317        335        336        319        318        336        337        320        319        337        338        321        320        338        339        322        321        340        341        324        323        341        342        325        324        342        343        326        325        343        344        327        326        344        345        328        327        345        346        329        328        346        347        330        329        347        348        331        330        348        349        332        331        349        350        333        332        350        351        334        333        351        352        335        334        352        353        336        335        353        354        337        336        354        355        338        337        355        356        339        338        357        358        341        340        358        359        342        341        359        360        343        342        360        361        344        343        361        362        345        344        362        363        346        345        363        364        347        346        364        365        348        347        365        366        349        348        366        367        350        349        367        368        351        350        368        369        352        351        369        370        353        352        370        371        354        353        371        372        355        354        372        373        356        355        374        375        358        357        375        376        359        358        376        377        360        359        377        378        361        360        378        379        362        361        379        380        363        362        380        381        364        363        381        382        365        364        382        383        366        365        383        384        367        366        384        385        368        367        385        386        369        368        386        387        370        369        387        388        371        370        388        389        372        371        389        390        373        372        391        392        375        374        392        393        376        375        393        394        377        376        394        395        378        377        395        396        379        378        396        397        380        379        397        398        381        380        398        399        382        381        399        400        383        382        400        401        384        383        401        402        385        384        402        403        386        385        403        404        387        386        404        405        388        387        405        406        389        388        406        407        390        389        408        409        392        391        409        410        393        392        410        411        394        393        411        412        395        394        412        413        396        395        413        414        397        396        414        415        398        397        415        416        399        398        416        417        400        399        417        418        401        400        418        419        402        401        419        420        403        402        420        421        404        403        421        422        405        404        422        423        406        405        423        424        407        406        425        426        409        408        426        427        410        409        427        428        411        410        428        429        412        411        429        430        413        412        430        431        414        413        431        432        415        414        432        433        416        415        433        434        417        416        434        435        418        417        435        436        419        418        436        437        420        419        437        438        421        420        438        439        422        421        439        440        423        422        440        441        424        423        442        443        426        425        443        444        427        426        444        445        428        427        445        446        429        428        446        447        430        429        447        448        431        430        448        449        432        431        449        450        433        432        450        451        434        433        451        452        435        434        452        453        436        435        453        454        437        436        454        455        438        437        455        456        439        438        456        457        440        439        457        458        441        440        459        460        443        442        460        461        444        443        461        462        445        444        462        463        446        445        463        464        447        446        464        465        448        447        465        466        449        448        466        467        450        449        467        468        451        450        468        469        452        451        469        470        453        452        470        471        454        453        471        472        455        454        472        473        456        455        473        474        457        456        474        475        458        457        476        477        460        459        477        478        461        460        478        479        462        461        479        480        463        462        480        481        464        463        481        482        465        464        482        483        466        465        483        484        467        466        484        485        468        467        485        486        469        468        486        487        470        469        487        488        471        470        488        489        472        471        489        490        473        472        490        491        474        473        491        492        475        474        493        494        477        476        494        495        478        477        495        496        479        478        496        497        480        479        497        498        481        480        498        499        482        481        499        500        483        482        500        501        484        483        501        502        485        484        502        503        486        485        503        504        487        486        504        505        488        487        505        506        489        488        506        507        490        489        507        508        491        490        508        509        492        491        510        511        494        493        511        512        495        494        512        513        496        495        513        514        497        496        514        515        498        497        515        516        499        498        516        517        500        499        517        518        501        500        518        519        502        501        519        520        503        502        520        521        504        503        521        522        505        504        522        523        506        505        523        524        507        506        524        525        508        507        525        526        509        508        527        528        511        510        528        529        512        511        529        530        513        512        530        531        514        513        531        532        515        514        532        533        516        515        533        534        517        516        534        535        518        517        535        536        519        518        536        537        520        519        537        538        521        520        538        539        522        521        539        540        523        522        540        541        524        523        541        542        525        524        542        543        526        525        544        545        528        527        545        546        529        528        546        547        530        529        547        548        531        530        548        549        532        531        549        550        533        532        550        551        534        533        551        552        535        534        552        553        536        535        553        554        537        536        554        555        538        537        555        556        539        538        556        557        540        539        557        558        541        540        558        559        542        541        559        560        543        542        561        562        545        544        562        563        546        545        563        564        547        546        564        565        548        547        565        566        549        548        566        567        550        549        567        568        551        550        568        569        552        551        569        570        553        552        570        571        554        553        571        572        555        554        572        573        556        555        573        574        557        556        574        575        558        557        575        576        559        558        576        577        560        559        578        579        596        595        579        580        597        596        580        581        598        597        581        582        599        598        582        583        600        599        583        584        601        600        584        585        602        601        585        586        603        602        586        587        604        603        587        588        605        604        588        589        606        605        589        590        607        606        590        591        608        607        591        592        609        608        592        593        610        609        593        594        611        610        595        596        613        612        596        597        614        613        597        598        615        614        598        599        616        615        599        600        617        616        600        601        618        617        601        602        619        618        602        603        620        619        603        604        621        620        604        605        622        621        605        606        623        622        606        607        624        623        607        608        625        624        608        609        626        625        609        610        627        626        610        611        628        627        612        613        630        629        613        614        631        630        614        615        632        631        615        616        633        632        616        617        634        633        617        618        635        634        618        619        636        635        619        620        637        636        620        621        638        637        621        622        639        638        622        623        640        639        623        624        641        640        624        625        642        641        625        626        643        642        626        627        644        643        627        628        645        644        629        630        647        646        630        631        648        647        631        632        649        648        632        633        650        649        633        634        651        650        634        635        652        651        635        636        653        652        636        637        654        653        637        638        655        654        638        639        656        655        639        640        657        656        640        641        658        657        641        642        659        658        642        643        660        659        643        644        661        660        644        645        662        661        646        647        664        663        647        648        665        664        648        649        666        665        649        650        667        666        650        651        668        667        651        652        669        668        652        653        670        669        653        654        671        670        654        655        672        671        655        656        673        672        656        657        674        673        657        658        675        674        658        659        676        675        659        660        677        676        660        661        678        677        661        662        679        678        663        664        681        680        664        665        682        681        665        666        683        682        666        667        684        683        667        668        685        684        668        669        686        685        669        670        687        686        670        671        688        687        671        672        689        688        672        673        690        689        673        674        691        690        674        675        692        691        675        676        693        692        676        677        694        693        677        678        695        694        678        679        696        695        680        681        698        697        681        682        699        698        682        683        700        699        683        684        701        700        684        685        702        701        685        686        703        702        686        687        704        703        687        688        705        704        688        689        706        705        689        690        707        706        690        691        708        707        691        692        709        708        692        693        710        709        693        694        711        710        694        695        712        711        695        696        713        712        697        698        715        714        698        699        716        715        699        700        717        716        700        701        718        717        701        702        719        718        702        703        720        719        703        704        721        720        704        705        722        721        705        706        723        722        706        707        724        723        707        708        725        724        708        709        726        725        709        710        727        726        710        711        728        727        711        712        729        728        712        713        730        729        714        715        732        731        715        716        733        732        716        717        734        733        717        718        735        734        718        719        736        735        719        720        737        736        720        721        738        737        721        722        739        738        722        723        740        739        723        724        741        740        724        725        742        741        725        726        743        742        726        727        744        743        727        728        745        744        728        729        746        745        729        730        747        746        731        732        749        748        732        733        750        749        733        734        751        750        734        735        752        751        735        736        753        752        736        737        754        753        737        738        755        754        738        739        756        755        739        740        757        756        740        741        758        757        741        742        759        758        742        743        760        759        743        744        761        760        744        745        762        761        745        746        763        762        746        747        764        763        748        749        766        765        749        750        767        766        750        751        768        767        751        752        769        768        752        753        770        769        753        754        771        770        754        755        772        771        755        756        773        772        756        757        774        773        757        758        775        774        758        759        776        775        759        760        777        776        760        761        778        777        761        762        779        778        762        763        780        779        763        764        781        780        765        766        783        782        766        767        784        783        767        768        785        784        768        769        786        785        769        770        787        786        770        771        788        787        771        772        789        788        772        773        790        789        773        774        791        790        774        775        792        791        775        776        793        792        776        777        794        793        777        778        795        794        778        779        796        795        779        780        797        796        780        781        798        797        782        783        800        799        783        784        801        800        784        785        802        801        785        786        803        802        786        787        804        803        787        788        805        804        788        789        806        805        789        790        807        806        790        791        808        807        791        792        809        808        792        793        810        809        793        794        811        810        794        795        812        811        795        796        813        812        796        797        814        813        797        798        815        814        799        800        817        816        800        801        818        817        801        802        819        818        802        803        820        819        803        804        821        820        804        805        822        821        805        806        823        822        806        807        824        823        807        808        825        824        808        809        826        825        809        810        827        826        810        811        828        827        811        812        829        828        812        813        830        829        813        814        831        830        814        815        832        831        816        817        834        833        817        818        835        834        818        819        836        835        819        820        837        836        820        821        838        837        821        822        839        838        822        823        840        839        823        824        841        840        824        825        842        841        825        826        843        842        826        827        844        843        827        828        845        844        828        829        846        845        829        830        847        846        830        831        848        847        831        832        849        848        833        834        562        561        834        835        563        562        835        836        564        563        836        837        565        564        837        838        566        565        838        839        567        566        839        840        568        567        840        841        569        568        841        842        570        569        842        843        571        570        843        844        572        571        844        845        573        572        845        846        574        573        846        847        575        574        847        848        576        575        848        849        577        576        884        885        579        578        885        886        580        579        886        887        581        580        887        888        582        581        888        889        583        582        889        890        584        583        890        891        585        584        891        892        586        585        892        893        587        586        893        894        588        587        894        895        589        588        895        896        590        589        896        897        591        590        897        898        592        591        898        899        593        592        899        900        594        593        901        902        885        884        902        903        886        885        903        904        887        886        904        905        888        887        905        906        889        888        906        907        890        889        907        908        891        890        908        909        892        891        909        910        893        892        910        911        894        893        911        912        895        894        912        913        896        895        913        914        897        896        914        915        898        897        915        916        899        898        916        917        900        899        918        919        902        901        919        920        903        902        920        921        904        903        921        922        905        904        922        923        906        905        923        924        907        906        924        925        908        907        925        926        909        908        926        927        910        909        927        928        911        910        928        929        912        911        929        930        913        912        930        931        914        913        931        932        915        914        932        933        916        915        933        934        917        916        935        936        919        918        936        937        920        919        937        938        921        920        938        939        922        921        939        940        923        922        940        941        924        923        941        942        925        924        942        943        926        925        943        944        927        926        944        945        928        927        945        946        929        928        946        947        930        929        947        948        931        930        948        949        932        931        949        950        933        932        950        951        934        933        952        953        936        935        953        954        937        936        954        955        938        937        955        956        939        938        956        957        940        939        957        958        941        940        958        959        942        941        959        960        943        942        960        961        944        943        961        962        945        944        962        963        946        945        963        964        947        946        964        965        948        947        965        966        949        948        966        967        950        949        967        968        951        950        969        970        953        952        970        971        954        953        971        972        955        954        972        973        956        955        973        974        957        956        974        975        958        957        975        976        959        958        976        977        960        959        977        978        961        960        978        979        962        961        979        980        963        962        980        981        964        963        981        982        965        964        982        983        966        965        983        984        967        966        984        985        968        967        986        987        970        969        987        988        971        970        988        989        972        971        989        990        973        972        990        991        974        973        991        992        975        974        992        993        976        975        993        994        977        976        994        995        978        977        995        996        979        978        996        997        980        979        997        998        981        980        998        999        982        981        999       1000        983        982       1000       1001        984        983       1001       1002        985        984       1003       1004        987        986       1004       1005        988        987       1005       1006        989        988       1006       1007        990        989       1007       1008        991        990       1008       1009        992        991       1009       1010        993        992       1010       1011        994        993       1011       1012        995        994       1012       1013        996        995       1013       1014        997        996       1014       1015        998        997       1015       1016        999        998       1016       1017       1000        999       1017       1018       1001       1000       1018       1019       1002       1001       1020       1021       1004       1003       1021       1022       1005       1004       1022       1023       1006       1005       1023       1024       1007       1006       1024       1025       1008       1007       1025       1026       1009       1008       1026       1027       1010       1009       1027       1028       1011       1010       1028       1029       1012       1011       1029       1030       1013       1012       1030       1031       1014       1013       1031       1032       1015       1014       1032       1033       1016       1015       1033       1034       1017       1016       1034       1035       1018       1017       1035       1036       1019       1018       1037       1038       1021       1020       1038       1039       1022       1021       1039       1040       1023       1022       1040       1041       1024       1023       1041       1042       1025       1024       1042       1043       1026       1025       1043       1044       1027       1026       1044       1045       1028       1027       1045       1046       1029       1028       1046       1047       1030       1029       1047       1048       1031       1030       1048       1049       1032       1031       1049       1050       1033       1032       1050       1051       1034       1033       1051       1052       1035       1034       1052       1053       1036       1035       1054       1055       1038       1037       1055       1056       1039       1038       1056       1057       1040       1039       1057       1058       1041       1040       1058       1059       1042       1041       1059       1060       1043       1042       1060       1061       1044       1043       1061       1062       1045       1044       1062       1063       1046       1045       1063       1064       1047       1046       1064       1065       1048       1047       1065       1066       1049       1048       1066       1067       1050       1049       1067       1068       1051       1050       1068       1069       1052       1051       1069       1070       1053       1052       1071       1072       1055       1054       1072       1073       1056       1055       1073       1074       1057       1056       1074       1075       1058       1057       1075       1076       1059       1058       1076       1077       1060       1059       1077       1078       1061       1060       1078       1079       1062       1061       1079       1080       1063       1062       1080       1081       1064       1063       1081       1082       1065       1064       1082       1083       1066       1065       1083       1084       1067       1066       1084       1085       1068       1067       1085       1086       1069       1068       1086       1087       1070       1069       1088       1089       1072       1071       1089       1090       1073       1072       1090       1091       1074       1073       1091       1092       1075       1074       1092       1093       1076       1075       1093       1094       1077       1076       1094       1095       1078       1077       1095       1096       1079       1078       1096       1097       1080       1079       1097       1098       1081       1080       1098       1099       1082       1081       1099       1100       1083       1082       1100       1101       1084       1083       1101       1102       1085       1084       1102       1103       1086       1085       1103       1104       1087       1086       1105       1106       1089       1088       1106       1107       1090       1089       1107       1108       1091       1090       1108       1109       1092       1091       1109       1110       1093       1092       1110       1111       1094       1093       1111       1112       1095       1094       1112       1113       1096       1095       1113       1114       1097       1096       1114       1115       1098       1097       1115       1116       1099       1098       1116       1117       1100       1099       1117       1118       1101       1100       1118       1119       1102       1101       1119       1120       1103       1102       1120       1121       1104       1103       1122       1123       1106       1105       1123       1124       1107       1106       1124       1125       1108       1107       1125       1126       1109       1108       1126       1127       1110       1109       1127       1128       1111       1110       1128       1129       1112       1111       1129       1130       1113       1112       1130       1131       1114       1113       1131       1132       1115       1114       1132       1133       1116       1115       1133       1134       1117       1116       1134       1135       1118       1117       1135       1136       1119       1118       1136       1137       1120       1119       1137       1138       1121       1120        272        273       1123       1122        273        274       1124       1123        274        275       1125       1124        275        276       1126       1125        276        277       1127       1126        277        278       1128       1127        278        279       1129       1128        279        280       1130       1129        280        281       1131       1130        281        282       1132       1131        282        283       1133       1132        283        284       1134       1133        284        285       1135       1134        285        286       1136       1135        286        287       1137       1136        287        288       1138       1137 </DataArray>
<DataArray type="Int32"                                    Name="offsets"                                                      NumberOfComponents=" 1" format="ascii">
         4          8         12         16         20         24         28         32         36         40         44         48         52         56         60         64         68         72         76         80         84         88         92         96        100        104        108        112        116        120        124        128        132        136        140        144        148        152        156        160        164        168        172        176        180        184        188        192        196        200        204        208        212        216        220        224        228        232        236        240        244        248        252        256        260        264        268        272        276        280        284        288        292        296        300        304        308        312        316        320        324        328        332        336        340        344        348        352        356        360        364        368        372        376        380        384        388        392        396        400        404        408        412        416        420        424        428        432        436        440        444        448        452        456        460        464        468        472        476        480        484        488        492        496        500        504        508        512        516        520        524        528        532        536        540        544        548        552        556        560        564        568        572        576        580        584        588        592        596        600        604        608        612        616        620        624        628        632        636        640        644        648        652        656        660        664        668        672        676        680        684        688        692        696        700        704        708        712        716        720        724        728        732        736        740        744        748        752        756        760        764        768        772        776        780        784        788        792        796        800        804        808        812        816        820        824        828        832        836        840        844        848        852        856        860        864        868        872        876        880        884        888        892        896        900        904        908        912        916        920        924        928        932        936        940        944        948        952        956        960        964        968        972        976        980        984        988        992        996       1000       1004       1008       1012       1016       1020       1024       1028       1032       1036       1040       1044       1048       1052       1056       1060       1064       1068       1072       1076       1080       1084       1088       1092       1096       1100       1104       1108       1112       1116       1120       1124       1128       1132       1136       1140       1144       1148       1152       1156       1160       1164       1168       1172       1176       1180       1184       1188       1192       1196       1200       1204       1208       1212       1216       1220       1224       1228       1232       1236       1240       1244       1248       1252       1256       1260       1264       1268       1272       1276       1280       1284       1288       1292       1296       1300       1304       1308       1312       1316       1320       1324       1328       1332       1336       1340       1344       1348       1352       1356       1360       1364       1368       1372       1376       1380       1384       1388       1392       1396       1400       1404       1408       1412       1416       1420       1424       1428       1432       1436       1440       1444       1448       1452       1456       1460       1464       1468       1472       1476       1480       1484       1488       1492       1496       1500       1504       1508       1512       1516       1520       1524       1528       1532       1536       1540       1544       1548       1552       1556       1560       1564       1568       1572       1576       1580       1584       1588       1592       1596       1600       1604       1608       1612       1616       1620       1624       1628       1632       1636       1640       1644       1648       1652       1656       1660       1664       1668       1672       1676       1680       1684       1688       1692       1696       1700       1704       1708       1712       1716       1720       1724       1728       1732       1736       1740       1744       1748       1752       1756       1760       1764       1768       1772       1776       1780       1784       1788       1792       1796       1800       1804       1808       1812       1816       1820       1824       1828       1832       1836       1840       1844       1848       1852       1856       1860       1864       1868       1872       1876       1880       1884       1888       1892       1896       1900       1904       1908       1912       1916       1920       1924       1928       1932       1936       1940       1944       1948       1952       1956       1960       1964       1968       1972       1976       1980       1984       1988       1992       1996       2000       2004       2008       2012       2016       2020       2024       2028       2032       2036       2040       2044       2048       2052       2056       2060       2064       2068       2072       2076       2080       2084       2088       2092       2096       2100       2104       2108       2112       2116       2120       2124       2128       2132       2136       2140       2144       2148       2152       2156       2160       2164       2168       2172       2176       2180       2184       2188       2192       2196       2200       2204       2208       2212       2216       2220       2224       2228       2232       2236       2240       2244       2248       2252       2256       2260       2264       2268       2272       2276       2280       2284       2288       2292       2296       2300       2304       2308       2312       2316       2320       2324       2328       2332       2336       2340       2344       2348       2352       2356       2360       2364       2368       2372       2376       2380       2384       2388       2392       2396       2400       2404       2408       2412       2416       2420       2424       2428       2432       2436       2440       2444       2448       2452       2456       2460       2464       2468       2472       2476       2480       2484       2488       2492       2496       2500       2504       2508       2512       2516       2520       2524       2528       2532       2536       2540       2544       2548       2552       2556       2560       2564       2568       2572       2576       2580       2584       2588       2592       2596       2600       2604       2608       2612       2616       2620       2624       2628       2632       2636       2640       2644       2648       2652       2656       2660       2664       2668       2672       2676       2680       2684       2688       2692       2696       2700       2704       2708       2712       2716       2720       2724       2728       2732       2736       2740       2744       2748       2752       2756       2760       2764       2768       2772       2776       2780       2784       2788       2792       2796       2800       2804       2808       2812       2816       2820       2824       2828       2832       2836       2840       2844       2848       2852       2856       2860       2864       2868       2872       2876       2880       2884       2888       2892       2896       2900       2904       2908       2912       2916       2920       2924       2928       2932       2936       2940       2944       2948       2952       2956       2960       2964       2968       2972       2976       2980       2984       2988       2992       2996       3000       3004       3008       3012       3016       3020       3024       3028       3032       3036       3040       3044       3048       3052       3056       3060       3064       3068       3072       3076       3080       3084       3088       3092       3096       3100       3104       3108       3112       3116       3120       3124       3128       3132       3136       3140       3144       3148       3152       3156       3160       3164       3168       3172       3176       3180       3184       3188       3192       3196       3200       3204       3208       3212       3216       3220       3224       3228       3232       3236       3240       3244       3248       3252       3256       3260       3264       3268       3272       3276       3280       3284       3288       3292       3296       3300       3304       3308       3312       3316       3320       3324       3328       3332       3336       3340       3344       3348       3352       3356       3360       3364       3368       3372       3376       3380       3384       3388       3392       3396       3400       3404       3408       3412       3416       3420       3424       3428       3432       3436       3440       3444       3448       3452       3456       3460       3464       3468       3472       3476       3480       3484       3488       3492       3496       3500       3504       3508       3512       3516       3520       3524       3528       3532       3536       3540       3544       3548       3552       3556       3560       3564       3568       3572       3576       3580       3584       3588       3592       3596       3600       3604       3608       3612       3616       3620       3624       3628       3632       3636       3640       3644       3648       3652       3656       3660       3664       3668       3672       3676       3680       3684       3688       3692       3696       3700       3704       3708       3712       3716       3720       3724       3728       3732       3736       3740       3744       3748       3752       3756       3760       3764       3768       3772       3776       3780       3784       3788       3792       3796       3800       3804       3808       3812       3816       3820       3824       3828       3832       3836       3840       3844       3848       3852       3856       3860       3864       3868       3872       3876       3880       3884       3888       3892       3896       3900       3904       3908       3912       3916       3920       3924       3928       3932       3936       3940       3944       3948       3952       3956       3960       3964       3968       3972       3976       3980       3984       3988       3992       3996       4000       4004       4008       4012       4016       4020       4024       4028       4032       4036       4040       4044       4048       4052       4056       4060       4064       4068       4072       4076       4080       4084       4088       4092       4096 </DataArray>
<DataArray type="UInt8"                                    Name="types"                                                      NumberOfComponents=" 1" format="ascii">
         9          9          9          9          9          9          9          9          9          9          9          9          9          9          9          9          9          9          9          9          9          9          9          9          9          9          9          9          9          9          9          9          9          9          9          9          9          9          9          9          9          9          9          9          9          9          9          9          9          9          9          9          9          9          9          9          9          9          9          9          9          9          9          9          9          9          9          9          9          9          9          9          9          9          9          9          9          9          9          9          9          9          9          9          9          9          9          9          9          9          9          9          9          9          9          9          9          9          9          9          9          9          9          9          9          9          9          9          9          9          9          9          9          9          9          9          9          9          9          9          9          9          9          9          9          9          9          9          9          9          9          9          9          9          9          9          9          9          9          9          9          9          9          9          9          9          9          9          9          9          9          9          9          9          9          9          9          9          9          9          9          9          9          9          9          9          9          9          9          9          9          9          9          9          9          9          9          9          9          9          9          9          9          9          9          9          9          9          9          9          9          9          9          9          9          9          9          9          9          9          9          9          9          9          9          9          9          9          9          9          9          9          9          9          9          9          9          9          9          9          9          9          9          9          9          9          9          9          9          9          9          9          9          9          9          9          9          9          9          9          9          9          9          9          9          9          9          9          9          9          9          9          9          9          9          9          9          9          9          9          9          9          9          9          9          9          9          9          9          9          9          9          9          9          9          9          9          9          9          9          9          9          9          9          9          9          9          9          9          9          9          9          9          9          9          9          9          9          9          9          9          9          9          9          9          9          9          9          9          9          9          9          9          9          9          9          9          9          9          9          9          9          9          9          9          9          9          9          9          9          9          9          9          9          9          9          9          9          9          9          9          9          9          9          9          9          9          9          9          9          9          9          9          9          9          9          9          9          9          9          9          9          9          9          9          9          9          9          9          9          9          9          9          9          9          9          9          9          9          9          9          9          9          9          9          9          9          9          9          9          9          9          9          9          9          9          9          9          9          9          9          9          9          9          9          9          9          9          9          9          9          9          9          9          9          9          9          9          9          9          9          9          9          9          9          9          9          9          9          9          9          9          9          9          9          9          9          9          9          9          9          9          9          9          9          9          9          9          9          9          9          9          9          9          9          9          9          9          9          9          9          9          9          9          9          9          9          9          9          9          9          9          9          9          9          9          9          9          9          9          9          9          9          9          9          9          9          9          9          9          9          9          9          9          9          9          9          9          9          9          9          9          9          9          9          9          9          9          9          9          9          9          9          9          9          9          9          9          9          9          9          9          9          9          9          9          9          9          9          9          9          9          9          9          9          9          9          9          9          9          9          9          9          9          9          9          9          9          9          9          9          9          9          9          9          9          9          9          9          9          9          9          9          9          9          9          9          9          9          9          9          9          9          9          9          9          9          9          9          9          9          9          9          9          9          9          9          9          9          9          9          9          9          9          9          9          9          9          9          9          9          9          9          9          9          9          9          9          9          9          9          9          9          9          9          9          9          9          9          9          9          9          9          9          9          9          9          9          9          9          9          9          9          9          9          9          9          9          9          9          9          9          9          9          9          9          9          9          9          9          9          9          9          9          9          9          9          9          9          9          9          9          9          9          9          9          9          9          9          9          9          9          9          9          9          9          9          9          9          9          9          9          9          9          9          9          9          9          9          9          9          9          9          9          9          9          9          9          9          9          9          9          9          9          9          9          9          9          9          9          9          9          9          9          9          9          9          9          9          9          9          9          9          9          9          9          9          9          9          9          9          9          9          9          9          9          9          9          9          9          9          9          9          9          9          9          9          9          9          9          9          9          9          9          9          9          9          9          9          9          9          9          9          9          9          9          9          9          9          9          9          9          9          9          9          9          9          9          9          9          9          9          9          9          9          9          9          9          9          9          9          9          9          9          9          9          9          9          9          9          9          9          9          9          9          9          9          9          9          9          9          9          9          9          9          9          9          9          9          9          9          9          9          9          9          9          9          9          9          9          9          9          9          9          9          9          9          9          9          9          9          9          9          9          9          9          9          9          9          9          9          9          9          9          9          9          9          9          9          9          9          9          9          9          9          9          9          9          9          9          9          9          9          9          9          9          9          9          9          9          9          9          9          9          9          9          9          9          9          9          9          9          9          9          9          9          9          9          9          9          9          9          9          9          9          9          9          9          9          9          9          9          9          9          9          9          9          9          9          9          9          9          9          9          9          9          9          9          9          9          9          9          9          9          9          9          9          9          9          9          9          9          9          9          9          9          9          9          9          9          9          9          9          9          9          9          9          9          9          9          9          9          9          9          9          9          9          9          9          9          9          9          9          9          9          9          9          9          9          9          9          9          9          9          9          9          9          9          9          9          9          9          9          9          9          9          9          9          9          9          9          9          9          9          9          9          9          9          9          9          9          9          9          9          9          9          9          9          9          9          9          9          9          9 </DataArray>
</Cells>
<CellData>
<DataArray type="Int32"                                    Name="material"                                                      NumberOfComponents=" 1" format="ascii">
         1          1          1          1          1          1          1          1          1          1          1          1          1          1          1          1          1          1          1          1          1          1          1          1          1          1          1          1          1          1          1          1          1          1          1          1          1          1          1          1          1          1          1          1          1          1          1          1          1          1          1          1          1          1          1          1          1          1          1          1          1          1          1          1          1          1          1          1          1          1          1          1          1          1          1          1          1          1          1          1          1          1          1          1          1          1          1          1          1          1          1          1          1          1          1          1          1          1          1          1          1          1          1          1          1          1          1          1          1          1          1          1          1          1          1          1          1          1          1          1          1          1          1          1          1          1          1          1          1          1          1          1          1          1          1          1          1          1          1          1          1          1          1          1          1          1          1          1          1          1          1          1          1          1          1          1          1          1          1          1          1          1          1          1          1          1          1          1          1          1          1          1          1          1          1          1          1          1          1          1          1          1          1          1          1          1          1          1          1          1          1          1          1          1          1          1          1          1          1          1          1          1          1          1          1          1          1          1          1          1          1          1          1          1          1          1          1          1          1          1          1          1          1          1          1          1          1          1          1          1          1          1          1          1          1          1          1          1          1          1          1          1          1          1          1          1          1          1          1          1          1          1          1          1          1          1          1          1          1          1          1          1          1          1          1          1          1          1          1          1          1          1          1          1          1          1          1          1          1          1          1          1          1          1          1          1          1          1          1          1          1          1          1          1          1          1          1          1          1          1          1          1          1          1          1          1          1          1          1          1          1          1          1          1          1          1          1          1          1          1          1          1          1          1          1          1          1          1          1          1          1          1          1          1          1          1          1          1          1          1          1          1          1          1          1          1          1          1          1          1          1          1          1          1          1          1          1          1          1          1          1          1          1          1          1          1          1          1          1          1          1          1          1          1          1          1          1          1          1          1          1          1          1          1          1          1          1          1          1          1          1          1          1          1          1          1          1          1          1          1          1          1          1          1          1          1          1          1          1          1          1          1          1          1          1          1          1          1          1          1          1          1          1          1          1          1          1          1          1          1          1          1          1          1          1          1          1          1          1          1          1          1          1          1          1          1          1          1          1          1          1          1          1          1          1          1          1          1          1          1          1          1          1          1          1          1          1          1          1          1          1          1          1          1          1          1          1          1          1          1          1          1          1          1          1          1          1          1          1          1          1          1          1          1          1          1          1          1          1          1          1          1          1          1          1          1          1          1          1          1          1          1          1          1          1          1          1          1          1          1          1          1          1          1          1          1          1          1          1          1          1          1          1          1          1          1          1          1          1          1          1          1          1          1          1          1          1          1          1          1          1          1          1          1          1          1          1          1          1          1          1          1          1          1          1          1          1          1          1          1          1          1          1          1          1          1          1          1          1          1          1          1          1          1          1          1          1          1          1          1          1          1          1          1          1          1          1          1          1          1          1          1          1          1          1          1          1          1          1          1          1          1          1          1          1          1          1          1          1          1          1          1          1          1          1          1          1          1          1          1          1          1          1          1          1          1          1          1          1          1          1          1          1          1          1          1          1          1          1          1          1          1          1          1          1          1          1          1          1          1          1          1          1          1          1          1          1          1          1          1          1          1          1          1          1          1          1          1          1          1          1          1          1          1          1          1          1          1          1          1          1          1          1          1          1          1          1          1          1          1          1          1          1          1          1          1          1          1          1          1          1          1          1          1          1          1          1          1          1          1          1          1          1          1          1          1          1          1          1          1          1          1          1          1          1          1          1          1          1          1          1          1          1          1          1          1          1          1          1          1          1          1          1          1          1          1          1          1          1          1          1          1          1          1          1          1          1          1          1          1          1          1          1          1          1          1          1          1          1          1          1          1          1          1          1          1          1          1          1          1          1          1          1          1          1          1          1          1          1          1          1          1          1          1          1          1          1          1          1          1          1          1          1          1          1          1          1          1          1          1          1          1          1          1          1          1          1          1          1          1          1          1          1          1          1          1          1          1          1          1          1          1          1          1          1          1          1          1          1          1          1          1          1          1          1          1          1          1          1          1          1          1          1          1          1          1          1          1          1          1          1          1          1          1          1          1          1          1          1          1          1          1          1          1          1          1          1          1          1          1          1          1          1          1          1          1          1          1          1          1          1          1          1          1          1          1          1          1          1          1          1          1          1          1          1          1          1          1          1          1          1          1          1          1          1          1          1          1          1          1          1          1          1          1          1          1          1          1          1          1          1          1          1          1          1          1          1          1          1          1          1          1          1          1          1          1          1          1          1          1          1          1          1          1          1          1          1          1          1          1          1          1          1          1          1          1          1          1          1          1          1          1          1          1          1          1          1          1          1          1          1          1          1          1          1          1          1          1          1          1          1          1          1          1          1          1          1          1          1          1          1          1          1          1          1          1          1          1          1          1          1          1          1          1 </DataArray>
</CellData>
<PointData>
<DataArray type="Float64"                                    Name="u"                                                      NumberOfComponents=" 3" format="ascii">
              0.000000270               0.000000000               1.000000000              -0.000000095               0.000000000               1.000000000              -0.000000083               0.000000000               1.000000000              -0.000000010               0.000000000               1.000000000              -0.000000001              -0.000000000               1.000000000              -0.000000007              -0.000000000               1.000000000              -0.000000051               0.000000000               1.000000000              -0.000000166               0.000000000               1.000000000              -0.000000302              -0.000000000               1.000000000              -0.000000406              -0.000000000               1.000000000              -0.000000443              -0.000000000               1.000000000              -0.000000377              -0.000000000               1.000000000              -0.000000223              -0.000000000               1.000000000              -0.000000055              -0.000000000               1.000000000               0.000000042               0.000000000               1.000000000              -0.000000023               0.000000000               1.000000000              -0.000000321               0.000000000               1.000000000               0.000000209               0.000001173               1.000000000              -0.000000111               0.000001032               1.000000000              -0.000000070               0.000001102               1.000000000               0.000000035               0.000001359               1.000000000               0.000000026               0.000001664               1.000000000              -0.000000064               0.000001843               1.000000000              -0.000000115               0.000002095               1.000000000              -0.000000148               0.000002368               1.000000000              -0.000000184               0.000002541               1.000000000              -0.000000175               0.000002637               1.000000000              -0.000000102               0.000002630               1.000000000               0.000000005               0.000002587               1.000000000               0.000000122               0.000002593               1.000000000               0.000000196               0.000002726               1.000000000               0.000000140               0.000003054               1.000000000              -0.000000129               0.000003594               1.000000000              -0.000000702               0.000004302               1.000000000               0.000000198               0.000002403               1.000000000              -0.000000071               0.000002062               1.000000000              -0.000000054               0.000002263               1.000000000              -0.000000009               0.000002773               1.000000000              -0.000000003               0.000003456               1.000000000               0.000000010               0.000003826               1.000000000               0.000000048               0.000004401               1.000000000               0.000000092               0.000004935               1.000000000               0.000000153               0.000005334               1.000000000               0.000000241               0.000005666               1.000000000               0.000000318               0.000005912               1.000000000               0.000000299               0.000006191               1.000000000               0.000000112               0.000006609               1.000000000              -0.000000301               0.000007301               1.000000000              -0.000000992               0.000008381               1.000000000              -0.000002010               0.000009934               1.000000000              -0.000003411               0.000012037               1.000000000               0.000000214               0.000003751               1.000000000              -0.000000018               0.000003193               1.000000000               0.000000069               0.000003533               1.000000000               0.000000098               0.000004410               1.000000000               0.000000046               0.000005472               1.000000000               0.000000015               0.000006244               1.000000000              -0.000000025               0.000007190               1.000000000               0.000000018               0.000008064               1.000000000               0.000000071               0.000008881               1.000000000               0.000000057               0.000009686               1.000000000              -0.000000055               0.000010581               1.000000000              -0.000000410               0.000011685               1.000000000              -0.000001120               0.000013136               1.000000000              -0.000002227               0.000015043               1.000000000              -0.000003777               0.000017501               1.000000000              -0.000005783               0.000020610               1.000000000              -0.000008229               0.000024458               1.000000000               0.000000226               0.000005262               1.000000000               0.000000148               0.000004526               1.000000000               0.000000225               0.000005021               1.000000000               0.000000092               0.000006380               1.000000000              -0.000000014               0.000007968               1.000000000              -0.000000031               0.000009400               1.000000000              -0.000000048               0.000010873               1.000000000              -0.000000052               0.000012415               1.000000000              -0.000000189               0.000013905               1.000000000              -0.000000514               0.000015543               1.000000000              -0.000001107               0.000017455               1.000000000              -0.000002097               0.000019804               1.000000000              -0.000003559               0.000022715               1.000000000              -0.000005512               0.000026264               1.000000000              -0.000007965               0.000030515               1.000000000              -0.000010910               0.000035500               1.000000000              -0.000014315               0.000041237               1.000000000               0.000000287               0.000006958               1.000000000               0.000000371               0.000006056               1.000000000               0.000000352               0.000006867               1.000000000               0.000000187               0.000008851               1.000000000               0.000000043               0.000011256               1.000000000              -0.000000056               0.000013422               1.000000000              -0.000000142               0.000015676               1.000000000              -0.000000322               0.000018083               1.000000000              -0.000000749               0.000020559               1.000000000              -0.000001529               0.000023374               1.000000000              -0.000002722               0.000026677               1.000000000              -0.000004429               0.000030607               1.000000000              -0.000006709               0.000035246               1.000000000              -0.000009525               0.000040645               1.000000000              -0.000012863               0.000046824               1.000000000              -0.000016704               0.000053771               1.000000000              -0.000021006               0.000061487               1.000000000               0.000000345               0.000008846               1.000000000               0.000000588               0.000007762               1.000000000               0.000000559               0.000009115               1.000000000               0.000000243               0.000011821               1.000000000              -0.000000120               0.000015071               1.000000000              -0.000000272               0.000018076               1.000000000              -0.000000470               0.000021309               1.000000000              -0.000000851               0.000024792               1.000000000              -0.000001654               0.000028553               1.000000000              -0.000002921               0.000032838               1.000000000              -0.000004706               0.000037864               1.000000000              -0.000007130               0.000043657               1.000000000              -0.000010178               0.000050308               1.000000000              -0.000013793               0.000057823               1.000000000              -0.000017974               0.000066184               1.000000000              -0.000022680               0.000075392               1.000000000              -0.000027856               0.000085413               1.000000000               0.000000386               0.000010884               1.000000000               0.000000853               0.000009717               1.000000000               0.000000674               0.000011610               1.000000000               0.000000129               0.000015151               1.000000000              -0.000000296               0.000019283               1.000000000              -0.000000484               0.000023271               1.000000000              -0.000000777               0.000027668               1.000000000              -0.000001469               0.000032469               1.000000000              -0.000002701               0.000037771               1.000000000              -0.000004440               0.000043903               1.000000000              -0.000006848               0.000050940               1.000000000              -0.000009938               0.000058973               1.000000000              -0.000013666               0.000068003               1.000000000              -0.000017996               0.000078035               1.000000000              -0.000022908               0.000089034               1.000000000              -0.000028346               0.000100898               1.000000000              -0.000034244               0.000113507               1.000000000               0.000000339               0.000012885               1.000000000               0.000001079               0.000011826               1.000000000               0.000000741               0.000014306               1.000000000               0.000000039               0.000018697               1.000000000              -0.000000455               0.000023756               1.000000000              -0.000000631               0.000028999               1.000000000              -0.000001083               0.000034774               1.000000000              -0.000002152               0.000041205               1.000000000              -0.000003731               0.000048397               1.000000000              -0.000005979               0.000056712               1.000000000              -0.000008965               0.000066126               1.000000000              -0.000012636               0.000076683               1.000000000              -0.000016924               0.000088467               1.000000000              -0.000021834               0.000101364               1.000000000              -0.000027277               0.000115330               1.000000000              -0.000033200               0.000130219               1.000000000              -0.000039427               0.000145779               1.000000000               0.000000226               0.000014947               1.000000000               0.000001232               0.000013930               1.000000000               0.000001087               0.000016087               1.000000000               0.000000345               0.000020113               1.000000000              -0.000000323               0.000025211               1.000000000              -0.000000553               0.000030732               1.000000000              -0.000000807               0.000036659               1.000000000              -0.000001539               0.000043164               1.000000000              -0.000002634               0.000050257               1.000000000              -0.000004177               0.000058160               1.000000000              -0.000006271               0.000067063               1.000000000              -0.000008878               0.000076890               1.000000000              -0.000012005               0.000087761               1.000000000              -0.000015569               0.000099683               1.000000000              -0.000019592               0.000112665               1.000000000              -0.000024043               0.000126625               1.000000000              -0.000028888               0.000141608               1.000000000               0.000000165               0.000016983               1.000000000               0.000001367               0.000016068               1.000000000               0.000001302               0.000017846               1.000000000               0.000000617               0.000021551               1.000000000              -0.000000123               0.000026544               1.000000000              -0.000000511               0.000032210               1.000000000              -0.000000647               0.000038322               1.000000000              -0.000001068               0.000044945               1.000000000              -0.000001761               0.000052099               1.000000000              -0.000002774               0.000059827               1.000000000              -0.000004130               0.000068359               1.000000000              -0.000005845               0.000077745               1.000000000              -0.000007950               0.000087938               1.000000000              -0.000010407               0.000099001               1.000000000              -0.000013173               0.000111061               1.000000000              -0.000016296               0.000123969               1.000000000              -0.000019795               0.000137888               1.000000000               0.000000095               0.000018823               1.000000000               0.000001403               0.000018143               1.000000000               0.000001425               0.000019687               1.000000000               0.000000879               0.000023115               1.000000000               0.000000144               0.000027867               1.000000000              -0.000000344               0.000033530               1.000000000              -0.000000520               0.000039719               1.000000000              -0.000000683               0.000046475               1.000000000              -0.000001092               0.000053702               1.000000000              -0.000001676               0.000061450               1.000000000              -0.000002515               0.000069784               1.000000000              -0.000003577               0.000078874               1.000000000              -0.000004871               0.000088720               1.000000000              -0.000006423               0.000099241               1.000000000              -0.000008167               0.000110572               1.000000000              -0.000010091               0.000122700               1.000000000              -0.000012223               0.000135640               1.000000000               0.000000039               0.000020462               1.000000000               0.000001308               0.000020052               1.000000000               0.000001443               0.000021528               1.000000000               0.000001031               0.000024667               1.000000000               0.000000386               0.000029101               1.000000000              -0.000000130               0.000034591               1.000000000              -0.000000368               0.000040795               1.000000000              -0.000000430               0.000047637               1.000000000              -0.000000625               0.000055006               1.000000000              -0.000000931               0.000062842               1.000000000              -0.000001357               0.000071161               1.000000000              -0.000001950               0.000080089               1.000000000              -0.000002653               0.000089689               1.000000000              -0.000003497               0.000099969               1.000000000              -0.000004472               0.000110827               1.000000000              -0.000005519               0.000122441               1.000000000              -0.000006591               0.000134739               1.000000000               0.000000022               0.000021858               1.000000000               0.000001099               0.000021737               1.000000000               0.000001280               0.000023170               1.000000000               0.000001008               0.000026060               1.000000000               0.000000553               0.000030262               1.000000000               0.000000077               0.000035538               1.000000000              -0.000000185               0.000041683               1.000000000              -0.000000251               0.000048505               1.000000000              -0.000000312               0.000055930               1.000000000              -0.000000436               0.000063850               1.000000000              -0.000000609               0.000072198               1.000000000              -0.000000866               0.000081082               1.000000000              -0.000001199               0.000090536               1.000000000              -0.000001576               0.000100666               1.000000000              -0.000002020               0.000111342               1.000000000              -0.000002501               0.000122621               1.000000000              -0.000002959               0.000134519               1.000000000               0.000000003               0.000022848               1.000000000               0.000000782               0.000023024               1.000000000               0.000000953               0.000024503               1.000000000               0.000000823               0.000027250               1.000000000               0.000000517               0.000031228               1.000000000               0.000000183               0.000036291               1.000000000              -0.000000043               0.000042308               1.000000000              -0.000000099               0.000049072               1.000000000              -0.000000129               0.000056490               1.000000000              -0.000000169               0.000064457               1.000000000              -0.000000219               0.000072862               1.000000000              -0.000000290               0.000081731               1.000000000              -0.000000384               0.000091109               1.000000000              -0.000000498               0.000101084               1.000000000              -0.000000642               0.000111668               1.000000000              -0.000000817               0.000122738               1.000000000              -0.000001012               0.000134344               1.000000000              -0.000000006               0.000023462               1.000000000               0.000000411               0.000023860               1.000000000               0.000000511               0.000025386               1.000000000               0.000000467               0.000028062               1.000000000               0.000000319               0.000031924               1.000000000               0.000000149               0.000036838               1.000000000               0.000000016               0.000042703               1.000000000              -0.000000034               0.000049399               1.000000000              -0.000000052               0.000056794               1.000000000              -0.000000059               0.000064765               1.000000000              -0.000000051               0.000073218               1.000000000              -0.000000049               0.000082090               1.000000000              -0.000000051               0.000091427               1.000000000              -0.000000059               0.000101282               1.000000000              -0.000000082               0.000111747               1.000000000              -0.000000133               0.000122678               1.000000000              -0.000000222               0.000134106               1.000000000              -0.000000000               0.000023675               1.000000000              -0.000000000               0.000024149               1.000000000              -0.000000000               0.000025695               1.000000000               0.000000000               0.000028349               1.000000000               0.000000000               0.000032154               1.000000000               0.000000000               0.000037031               1.000000000              -0.000000000               0.000042868               1.000000000               0.000000000               0.000049540               1.000000000               0.000000000               0.000056910               1.000000000               0.000000000               0.000064878               1.000000000              -0.000000000               0.000073345               1.000000000              -0.000000000               0.000082204               1.000000000               0.000000000               0.000091523               1.000000000              -0.000000000               0.000101334               1.000000000              -0.000000000               0.000111736               1.000000000               0.000000000               0.000122604               1.000000000               0.000000000               0.000133968               1.000000000               0.000000270               0.000000000               1.000000000              -0.000000095               0.000000000               1.000000000              -0.000000083               0.000000000               1.000000000              -0.000000010               0.000000000               1.000000000              -0.000000001              -0.000000000               1.000000000              -0.000000007              -0.000000000               1.000000000              -0.000000051               0.000000000               1.000000000              -0.000000166               0.000000000               1.000000000              -0.000000302              -0.000000000               1.000000000              -0.000000406              -0.000000000               1.000000000              -0.000000443              -0.000000000               1.000000000              -0.000000377              -0.000000000               1.000000000              -0.000000223              -0.000000000               1.000000000              -0.000000055              -0.000000000               1.000000000               0.000000042               0.000000000               1.000000000              -0.000000023               0.000000000               1.000000000              -0.000000321               0.000000000               1.000000000               0.000000209              -0.000001173               1.000000000              -0.000000111              -0.000001032               1.000000000              -0.000000070              -0.000001102               1.000000000               0.000000035              -0.000001359               1.000000000               0.000000026              -0.000001664               1.000000000              -0.000000064              -0.000001843               1.000000000              -0.000000115              -0.000002095               1.000000000              -0.000000148              -0.000002368               1.000000000              -0.000000184              -0.000002541               1.000000000              -0.000000175              -0.000002637               1.000000000              -0.000000102              -0.000002630               1.000000000               0.000000005              -0.000002587               1.000000000               0.000000122              -0.000002593               1.000000000               0.000000196              -0.000002726               1.000000000               0.000000140              -0.000003054               1.000000000              -0.000000129              -0.000003594               1.000000000              -0.000000702              -0.000004302               1.000000000               0.000000198              -0.000002403               1.000000000              -0.000000071              -0.000002062               1.000000000              -0.000000054              -0.000002263               1.000000000              -0.000000009              -0.000002773               1.000000000              -0.000000003              -0.000003456               1.000000000               0.000000010              -0.000003826               1.000000000               0.000000048              -0.000004401               1.000000000               0.000000092              -0.000004935               1.000000000               0.000000153              -0.000005334               1.000000000               0.000000241              -0.000005666               1.000000000               0.000000318              -0.000005912               1.000000000               0.000000299              -0.000006191               1.000000000               0.000000112              -0.000006609               1.000000000              -0.000000301              -0.000007301               1.000000000              -0.000000992              -0.000008381               1.000000000              -0.000002010              -0.000009934               1.000000000              -0.000003411              -0.000012037               1.000000000               0.000000214              -0.000003751               1.000000000              -0.000000018              -0.000003193               1.000000000               0.000000069              -0.000003533               1.000000000               0.000000098              -0.000004410               1.000000000               0.000000046              -0.000005472               1.000000000               0.000000015              -0.000006244               1.000000000              -0.000000025              -0.000007190               1.000000000               0.000000018              -0.000008064               1.000000000               0.000000071              -0.000008881               1.000000000               0.000000057              -0.000009686               1.000000000              -0.000000055              -0.000010581               1.000000000              -0.000000410              -0.000011685               1.000000000              -0.000001120              -0.000013136               1.000000000              -0.000002227              -0.000015043               1.000000000              -0.000003777              -0.000017501               1.000000000              -0.000005783              -0.000020610               1.000000000              -0.000008229              -0.000024458               1.000000000               0.000000226              -0.000005262               1.000000000               0.000000148              -0.000004526               1.000000000               0.000000225              -0.000005021               1.000000000               0.000000092              -0.000006380               1.000000000              -0.000000014              -0.000007968               1.000000000              -0.000000031              -0.000009400               1.000000000              -0.000000048              -0.000010873               1.000000000              -0.000000052              -0.000012415               1.000000000              -0.000000189              -0.000013905               1.000000000              -0.000000514              -0.000015543               1.000000000              -0.000001107              -0.000017455               1.000000000              -0.000002097              -0.000019804               1.000000000              -0.000003559              -0.000022715               1.000000000              -0.000005512              -0.000026264               1.000000000              -0.000007965              -0.000030515               1.000000000              -0.000010910              -0.000035500               1.000000000              -0.000014315              -0.000041237               1.000000000               0.000000287              -0.000006958               1.000000000               0.000000371              -0.000006056               1.000000000               0.000000352              -0.000006867               1.000000000               0.000000187              -0.000008851               1.000000000               0.000000043              -0.000011256               1.000000000              -0.000000056              -0.000013422               1.000000000              -0.000000142              -0.000015676               1.000000000              -0.000000322              -0.000018083               1.000000000              -0.000000749              -0.000020559               1.000000000              -0.000001529              -0.000023374               1.000000000              -0.000002722              -0.000026677               1.000000000              -0.000004429              -0.000030607               1.000000000              -0.000006709              -0.000035246               1.000000000              -0.000009525              -0.000040645               1.000000000              -0.000012863              -0.000046824               1.000000000              -0.000016704              -0.000053771               1.000000000              -0.000021006              -0.000061487               1.000000000               0.000000345              -0.000008846               1.000000000               0.000000588              -0.000007762               1.000000000               0.000000559              -0.000009115               1.000000000               0.000000243              -0.000011821               1.000000000              -0.000000120              -0.000015071               1.000000000              -0.000000272              -0.000018076               1.000000000              -0.000000470              -0.000021309               1.000000000              -0.000000851              -0.000024792               1.000000000              -0.000001654              -0.000028553               1.000000000              -0.000002921              -0.000032838               1.000000000              -0.000004706              -0.000037864               1.000000000              -0.000007130              -0.000043657               1.000000000              -0.000010178              -0.000050308               1.000000000              -0.000013793              -0.000057823               1.000000000              -0.000017974              -0.000066184               1.000000000              -0.000022680              -0.000075392               1.000000000              -0.000027856              -0.000085413               1.000000000               0.000000386              -0.000010884               1.000000000               0.000000853              -0.000009717               1.000000000               0.000000674              -0.000011610               1.000000000               0.000000129              -0.000015151               1.000000000              -0.000000296              -0.000019283               1.000000000              -0.000000484              -0.000023271               1.000000000              -0.000000777              -0.000027668               1.000000000              -0.000001469              -0.000032469               1.000000000              -0.000002701              -0.000037771               1.000000000              -0.000004440              -0.000043903               1.000000000              -0.000006848              -0.000050940               1.000000000              -0.000009938              -0.000058973               1.000000000              -0.000013666              -0.000068003               1.000000000              -0.000017996              -0.000078035               1.000000000              -0.000022908              -0.000089034               1.000000000              -0.000028346              -0.000100898               1.000000000              -0.000034244              -0.000113507               1.000000000               0.000000339              -0.000012885               1.000000000               0.000001079              -0.000011826               1.000000000               0.000000741              -0.000014306               1.000000000               0.000000039              -0.000018697               1.000000000              -0.000000455              -0.000023756               1.000000000              -0.000000631              -0.000028999               1.000000000              -0.000001083              -0.000034774               1.000000000              -0.000002152              -0.000041205               1.000000000              -0.000003731              -0.000048397               1.000000000              -0.000005979              -0.000056712               1.000000000              -0.000008965              -0.000066126               1.000000000              -0.000012636              -0.000076683               1.000000000              -0.000016924              -0.000088467               1.000000000              -0.000021834              -0.000101364               1.000000000              -0.000027277              -0.000115330               1.000000000              -0.000033200              -0.000130219               1.000000000              -0.000039427              -0.000145779               1.000000000               0.000000226              -0.000014947               1.000000000               0.000001232              -0.000013930               1.000000000               0.000001087              -0.000016087               1.000000000               0.000000345              -0.000020113               1.000000000              -0.000000323              -0.000025211               1.000000000              -0.000000553              -0.000030732               1.000000000              -0.000000807              -0.000036659               1.000000000              -0.000001539              -0.000043164               1.000000000              -0.000002634              -0.000050257               1.000000000              -0.000004177              -0.000058160               1.000000000              -0.000006271              -0.000067063               1.000000000              -0.000008878              -0.000076890               1.000000000              -0.000012005              -0.000087761               1.000000000              -0.000015569              -0.000099683               1.000000000              -0.000019592              -0.000112665               1.000000000              -0.000024043              -0.000126625               1.000000000              -0.000028888              -0.000141608               1.000000000               0.000000165              -0.000016983               1.000000000               0.000001367              -0.000016068               1.000000000               0.000001302              -0.000017846               1.000000000               0.000000617              -0.000021551               1.000000000              -0.000000123              -0.000026544               1.000000000              -0.000000511              -0.000032210               1.000000000              -0.000000647              -0.000038322               1.000000000              -0.000001068              -0.000044945               1.000000000              -0.000001761              -0.000052099               1.000000000              -0.000002774              -0.000059827               1.000000000              -0.000004130              -0.000068359               1.000000000              -0.000005845              -0.000077745               1.000000000              -0.000007950              -0.000087938               1.000000000              -0.000010407              -0.000099001               1.000000000              -0.000013173              -0.000111061               1.000000000              -0.000016296              -0.000123969               1.000000000              -0.000019795              -0.000137888               1.000000000               0.000000095              -0.000018823               1.000000000               0.000001403              -0.000018143               1.000000000               0.000001425              -0.000019687               1.000000000               0.000000879              -0.000023115               1.000000000               0.000000144              -0.000027867               1.000000000              -0.000000344              -0.000033530               1.000000000              -0.000000520              -0.000039719               1.000000000              -0.000000683              -0.000046475               1.000000000              -0.000001092              -0.000053702               1.000000000              -0.000001676              -0.000061450               1.000000000              -0.000002515              -0.000069784               1.000000000              -0.000003577              -0.000078874               1.000000000              -0.000004871              -0.000088720               1.000000000              -0.000006423              -0.000099241               1.000000000              -0.000008167              -0.000110572               1.000000000              -0.000010091              -0.000122700               1.000000000              -0.000012223              -0.000135640               1.000000000               0.000000039              -0.000020462               1.000000000               0.000001308              -0.000020052               1.000000000               0.000001443              -0.000021528               1.000000000               0.000001031              -0.000024667               1.000000000               0.000000386              -0.000029101               1.000000000              -0.000000130              -0.000034591               1.000000000              -0.000000368              -0.000040795               1.000000000              -0.000000430              -0.000047637               1.000000000              -0.000000625              -0.000055006               1.000000000              -0.000000931              -0.000062842               1.000000000              -0.000001357              -0.000071161               1.000000000              -0.000001950              -0.000080089               1.000000000              -0.000002653              -0.000089689               1.000000000              -0.000003497              -0.000099969               1.000000000              -0.000004472              -0.000110827               1.000000000              -0.000005519              -0.000122441               1.000000000              -0.000006591              -0.000134739               1.000000000               0.000000022              -0.000021858               1.000000000               0.000001099              -0.000021737               1.000000000               0.000001280              -0.000023170               1.000000000               0.000001008              -0.000026060               1.000000000               0.000000553              -0.000030262               1.000000000               0.000000077              -0.000035538               1.000000000              -0.000000185              -0.000041683               1.000000000              -0.000000251              -0.000048505               1.000000000              -0.000000312              -0.000055930               1.000000000              -0.000000436              -0.000063850               1.000000000              -0.000000609              -0.000072198               1.000000000              -0.000000866              -0.000081082               1.000000000              -0.000001199              -0.000090536               1.000000000              -0.000001576              -0.000100666               1.000000000              -0.000002020              -0.000111342               1.000000000              -0.000002501              -0.000122621               1.000000000              -0.000002959              -0.000134519               1.000000000               0.000000003              -0.000022848               1.000000000               0.000000782              -0.000023024               1.000000000               0.000000953              -0.000024503               1.000000000               0.000000823              -0.000027250               1.000000000               0.000000517              -0.000031228               1.000000000               0.000000183              -0.000036291               1.000000000              -0.000000043              -0.000042308               1.000000000              -0.000000099              -0.000049072               1.000000000              -0.000000129              -0.000056490               1.000000000              -0.000000169              -0.000064457               1.000000000              -0.000000219              -0.000072862               1.000000000              -0.000000290              -0.000081731               1.000000000              -0.000000384              -0.000091109               1.000000000              -0.000000498              -0.000101084               1.000000000              -0.000000642              -0.000111668               1.000000000              -0.000000817              -0.000122738               1.000000000              -0.000001012              -0.000134344               1.000000000              -0.000000006              -0.000023462               1.000000000               0.000000411              -0.000023860               1.000000000               0.000000511              -0.000025386               1.000000000               0.000000467              -0.000028062               1.000000000               0.000000319              -0.000031924               1.000000000               0.000000149              -0.000036838               1.000000000               0.000000016              -0.000042703               1.000000000              -0.000000034              -0.000049399               1.000000000              -0.000000052              -0.000056794               1.000000000              -0.000000059              -0.000064765               1.000000000              -0.000000051              -0.000073218               1.000000000              -0.000000049              -0.000082090               1.000000000              -0.000000051              -0.000091427               1.000000000              -0.000000059              -0.000101282               1.000000000              -0.000000082              -0.000111747               1.000000000              -0.000000133              -0.000122678               1.000000000              -0.000000222              -0.000134106               1.000000000              -0.000000000              -0.000023675               1.000000000              -0.000000000              -0.000024149               1.000000000               0.000000000              -0.000025695               1.000000000               0.000000000              -0.000028349               1.000000000              -0.000000000              -0.000032154               1.000000000              -0.000000000              -0.000037031               1.000000000              -0.000000000              -0.000042868               1.000000000              -0.000000000              -0.000049540               1.000000000              -0.000000000              -0.000056910               1.000000000               0.000000000              -0.000064878               1.000000000               0.000000000              -0.000073345               1.000000000               0.000000000              -0.000082204               1.000000000              -0.000000000              -0.000091523               1.000000000              -0.000000000              -0.000101334               1.000000000              -0.000000000              -0.000111736               1.000000000               0.000000000              -0.000122604               1.000000000               0.000000000              -0.000133968               1.000000000              -0.000000270               0.000000000               1.000000000               0.000000095               0.000000000               1.000000000               0.000000083               0.000000000               1.000000000               0.000000010               0.000000000               1.000000000               0.000000001               0.000000000               1.000000000               0.000000007               0.000000000               1.000000000               0.000000051              -0.000000000               1.000000000               0.000000166              -0.000000000               1.000000000               0.000000302              -0.000000000               1.000000000               0.000000406               0.000000000               1.000000000               0.000000443               0.000000000               1.000000000               0.000000377              -0.000000000               1.000000000               0.000000223               0.000000000               1.000000000               0.000000055               0.000000000               1.000000000              -0.000000042               0.000000000               1.000000000               0.000000023               0.000000000               1.000000000               0.000000321               0.000000000               1.000000000              -0.000000209              -0.000001173               1.000000000               0.000000111              -0.000001032               1.000000000               0.000000070              -0.000001102               1.000000000              -0.000000035              -0.000001359               1.000000000              -0.000000026              -0.000001664               1.000000000               0.000000064              -0.000001843               1.000000000               0.000000115              -0.000002095               1.000000000               0.000000148              -0.000002368               1.000000000               0.000000184              -0.000002541               1.000000000               0.000000175              -0.000002637               1.000000000               0.000000102              -0.000002630               1.000000000              -0.000000005              -0.000002587               1.000000000              -0.000000122              -0.000002593               1.000000000              -0.000000196              -0.000002726               1.000000000              -0.000000140              -0.000003054               1.000000000               0.000000129              -0.000003594               1.000000000               0.000000702              -0.000004302               1.000000000              -0.000000198              -0.000002403               1.000000000               0.000000071              -0.000002062               1.000000000               0.000000054              -0.000002263               1.000000000               0.000000009              -0.000002773               1.000000000               0.000000003              -0.000003456               1.000000000              -0.000000010              -0.000003826               1.000000000              -0.000000048              -0.000004401               1.000000000              -0.000000092              -0.000004935               1.000000000              -0.000000153              -0.000005334               1.000000000              -0.000000241              -0.000005666               1.000000000              -0.000000318              -0.000005912               1.000000000              -0.000000299              -0.000006191               1.000000000              -0.000000112              -0.000006609               1.000000000               0.000000301              -0.000007301               1.000000000               0.000000992              -0.000008381               1.000000000               0.000002010              -0.000009934               1.000000000               0.000003411              -0.000012037               1.000000000              -0.000000214              -0.000003751               1.000000000               0.000000018              -0.000003193               1.000000000              -0.000000069              -0.000003533               1.000000000              -0.000000098              -0.000004410               1.000000000              -0.000000046              -0.000005472               1.000000000              -0.000000015              -0.000006244               1.000000000               0.000000025              -0.000007190               1.000000000              -0.000000018              -0.000008064               1.000000000              -0.000000071              -0.000008881               1.000000000              -0.000000057              -0.000009686               1.000000000               0.000000055              -0.000010581               1.000000000               0.000000410              -0.000011685               1.000000000               0.000001120              -0.000013136               1.000000000               0.000002227              -0.000015043               1.000000000               0.000003777              -0.000017501               1.000000000               0.000005783              -0.000020610               1.000000000               0.000008229              -0.000024458               1.000000000              -0.000000226              -0.000005262               1.000000000              -0.000000148              -0.000004526               1.000000000              -0.000000225              -0.000005021               1.000000000              -0.000000092              -0.000006380               1.000000000               0.000000014              -0.000007968               1.000000000               0.000000031              -0.000009400               1.000000000               0.000000048              -0.000010873               1.000000000               0.000000052              -0.000012415               1.000000000               0.000000189              -0.000013905               1.000000000               0.000000514              -0.000015543               1.000000000               0.000001107              -0.000017455               1.000000000               0.000002097              -0.000019804               1.000000000               0.000003559              -0.000022715               1.000000000               0.000005512              -0.000026264               1.000000000               0.000007965              -0.000030515               1.000000000               0.000010910              -0.000035500               1.000000000               0.000014315              -0.000041237               1.000000000              -0.000000287              -0.000006958               1.000000000              -0.000000371              -0.000006056               1.000000000              -0.000000352              -0.000006867               1.000000000              -0.000000187              -0.000008851               1.000000000              -0.000000043              -0.000011256               1.000000000               0.000000056              -0.000013422               1.000000000               0.000000142              -0.000015676               1.000000000               0.000000322              -0.000018083               1.000000000               0.000000749              -0.000020559               1.000000000               0.000001529              -0.000023374               1.000000000               0.000002722              -0.000026677               1.000000000               0.000004429              -0.000030607               1.000000000               0.000006709              -0.000035246               1.000000000               0.000009525              -0.000040645               1.000000000               0.000012863              -0.000046824               1.000000000               0.000016704              -0.000053771               1.000000000               0.000021006              -0.000061487               1.000000000              -0.000000345              -0.000008846               1.000000000              -0.000000588              -0.000007762               1.000000000              -0.000000559              -0.000009115               1.000000000              -0.000000243              -0.000011821               1.000000000               0.000000120              -0.000015071               1.000000000               0.000000272              -0.000018076               1.000000000               0.000000470              -0.000021309               1.000000000               0.000000851              -0.000024792               1.000000000               0.000001654              -0.000028553               1.000000000               0.000002921              -0.000032838               1.000000000               0.000004706              -0.000037864               1.000000000               0.000007130              -0.000043657               1.000000000               0.000010178              -0.000050308               1.000000000               0.000013793              -0.000057823               1.000000000               0.000017974              -0.000066184               1.000000000               0.000022680              -0.000075392               1.000000000               0.000027856              -0.000085413               1.000000000              -0.000000386              -0.000010884               1.000000000              -0.000000853              -0.000009717               1.000000000              -0.000000674              -0.000011610               1.000000000              -0.000000129              -0.000015151               1.000000000               0.000000296              -0.000019283               1.000000000               0.000000484              -0.000023271               1.000000000               0.000000777              -0.000027668               1.000000000               0.000001469              -0.000032469               1.000000000               0.000002701              -0.000037771               1.000000000               0.000004440              -0.000043903               1.000000000               0.000006848              -0.000050940               1.000000000               0.000009938              -0.000058973               1.000000000               0.000013666              -0.000068003               1.000000000               0.000017996              -0.000078035               1.000000000               0.000022908              -0.000089034               1.000000000               0.000028346              -0.000100898               1.000000000               0.000034244              -0.000113507               1.000000000              -0.000000339              -0.000012885               1.000000000              -0.000001079              -0.000011826               1.000000000              -0.000000741              -0.000014306               1.000000000              -0.000000039              -0.000018697               1.000000000               0.000000455              -0.000023756               1.000000000               0.000000631              -0.000028999               1.000000000               0.000001083              -0.000034774               1.000000000               0.000002152              -0.000041205               1.000000000               0.000003731              -0.000048397               1.000000000               0.000005979              -0.000056712               1.000000000               0.000008965              -0.000066126               1.000000000               0.000012636              -0.000076683               1.000000000               0.000016924              -0.000088467               1.000000000               0.000021834              -0.000101364               1.000000000               0.000027277              -0.000115330               1.000000000               0.000033200              -0.000130219               1.000000000               0.000039427              -0.000145779               1.000000000              -0.000000226              -0.000014947               1.000000000              -0.000001232              -0.000013930               1.000000000              -0.000001087              -0.000016087               1.000000000              -0.000000345              -0.000020113               1.000000000               0.000000323              -0.000025211               1.000000000               0.000000553              -0.000030732               1.000000000               0.000000807              -0.000036659               1.000000000               0.000001539              -0.000043164               1.000000000               0.000002634              -0.000050257               1.000000000               0.000004177              -0.000058160               1.000000000               0.000006271              -0.000067063               1.000000000               0.000008878              -0.000076890               1.000000000               0.000012005              -0.000087761               1.000000000               0.000015569              -0.000099683               1.000000000               0.000019592              -0.000112665               1.000000000               0.000024043              -0.000126625               1.000000000               0.000028888              -0.000141608               1.000000000              -0.000000165              -0.000016983               1.000000000              -0.000001367              -0.000016068               1.000000000              -0.000001302              -0.000017846               1.000000000              -0.000000617              -0.000021551               1.000000000               0.000000123              -0.000026544               1.000000000               0.000000511              -0.000032210               1.000000000               0.000000647              -0.000038322               1.000000000               0.000001068              -0.000044945               1.000000000               0.000001761              -0.000052099               1.000000000               0.000002774              -0.000059827               1.000000000               0.000004130              -0.000068359               1.000000000               0.000005845              -0.000077745               1.000000000               0.000007950              -0.000087938               1.000000000               0.000010407              -0.000099001               1.000000000               0.000013173              -0.000111061               1.000000000               0.000016296              -0.000123969               1.000000000               0.000019795              -0.000137888               1.000000000              -0.000000095              -0.000018823               1.000000000              -0.000001403              -0.000018143               1.000000000              -0.000001425              -0.000019687               1.000000000              -0.000000879              -0.000023115               1.000000000              -0.000000144              -0.000027867               1.000000000               0.000000344              -0.000033530               1.000000000               0.000000520              -0.000039719               1.000000000               0.000000683              -0.000046475               1.000000000               0.000001092              -0.000053702               1.000000000               0.000001676              -0.000061450               1.000000000               0.000002515              -0.000069784               1.000000000               0.000003577              -0.000078874               1.000000000               0.000004871              -0.000088720               1.000000000               0.000006423              -0.000099241               1.000000000               0.000008167              -0.000110572               1.000000000               0.000010091              -0.000122700               1.000000000               0.000012223              -0.000135640               1.000000000              -0.000000039              -0.000020462               1.000000000              -0.000001308              -0.000020052               1.000000000              -0.000001443              -0.000021528               1.000000000              -0.000001031              -0.000024667               1.000000000              -0.000000386              -0.000029101               1.000000000               0.000000130              -0.000034591               1.000000000               0.000000368              -0.000040795               1.000000000               0.000000430              -0.000047637               1.000000000               0.000000625              -0.000055006               1.000000000               0.000000931              -0.000062842               1.000000000               0.000001357              -0.000071161               1.000000000               0.000001950              -0.000080089               1.000000000               0.000002653              -0.000089689               1.000000000               0.000003497              -0.000099969               1.000000000               0.000004472              -0.000110827               1.000000000               0.000005519              -0.000122441               1.000000000               0.000006591              -0.000134739               1.000000000              -0.000000022              -0.000021858               1.000000000              -0.000001099              -0.000021737               1.000000000              -0.000001280              -0.000023170               1.000000000              -0.000001008              -0.000026060               1.000000000              -0.000000553              -0.000030262               1.000000000              -0.000000077              -0.000035538               1.000000000               0.000000185              -0.000041683               1.000000000               0.000000251              -0.000048505               1.000000000               0.000000312              -0.000055930               1.000000000               0.000000436              -0.000063850               1.000000000               0.000000609              -0.000072198               1.000000000               0.000000866              -0.000081082               1.000000000               0.000001199              -0.000090536               1.000000000               0.000001576              -0.000100666               1.000000000               0.000002020              -0.000111342               1.000000000               0.000002501              -0.000122621               1.000000000               0.000002959              -0.000134519               1.000000000              -0.000000003              -0.000022848               1.000000000              -0.000000782              -0.000023024               1.000000000              -0.000000953              -0.000024503               1.000000000              -0.000000823              -0.000027250               1.000000000              -0.000000517              -0.000031228               1.000000000              -0.000000183              -0.000036291               1.000000000               0.000000043              -0.000042308               1.000000000               0.000000099              -0.000049072               1.000000000               0.000000129              -0.000056490               1.000000000               0.000000169              -0.000064457               1.000000000               0.000000219              -0.000072862               1.000000000               0.000000290              -0.000081731               1.000000000               0.000000384              -0.000091109               1.000000000               0.000000498              -0.000101084               1.000000000               0.000000642              -0.000111668               1.000000000               0.000000817              -0.000122738               1.000000000               0.000001012              -0.000134344               1.000000000               0.000000006              -0.000023462               1.000000000              -0.000000411              -0.000023860               1.000000000              -0.000000511              -0.000025386               1.000000000              -0.000000467              -0.000028062               1.000000000              -0.000000319              -0.000031924               1.000000000              -0.000000149              -0.000036838               1.000000000              -0.000000016              -0.000042703               1.000000000               0.000000034              -0.000049399               1.000000000               0.000000052              -0.000056794               1.000000000               0.000000059              -0.000064765               1.000000000               0.000000051              -0.000073218               1.000000000               0.000000049              -0.000082090               1.000000000               0.000000051              -0.000091427               1.000000000               0.000000059              -0.000101282               1.000000000               0.000000082              -0.000111747               1.000000000               0.000000133              -0.000122678               1.000000000               0.000000222              -0.000134106               1.000000000              -0.000000000              -0.000023675               1.000000000              -0.000000000              -0.000024149               1.000000000               0.000000000              -0.000025695               1.000000000               0.000000000              -0.000028349               1.000000000              -0.000000000              -0.000032154               1.000000000              -0.000000000              -0.000037031               1.000000000              -0.000000000              -0.000042868               1.000000000              -0.000000000              -0.000049540               1.000000000              -0.000000000              -0.000056910               1.000000000               0.000000000              -0.000064878               1.000000000               0.000000000              -0.000073345               1.000000000               0.000000000              -0.000082204               1.000000000              -0.000000000              -0.000091523               1.000000000              -0.000000000              -0.000101334               1.000000000              -0.000000000              -0.000111736               1.000000000               0.000000000              -0.000122604               1.000000000               0.000000000              -0.000133968               1.000000000              -0.000000270               0.000000000               1.000000000               0.000000095               0.000000000               1.000000000               0.000000083               0.000000000               1.000000000               0.000000010               0.000000000               1.000000000               0.000000001               0.000000000               1.000000000               0.000000007               0.000000000               1.000000000               0.000000051              -0.000000000               1.000000000               0.000000166              -0.000000000               1.000000000               0.000000302              -0.000000000               1.000000000               0.000000406               0.000000000               1.000000000               0.000000443               0.000000000               1.000000000               0.000000377              -0.000000000               1.000000000               0.000000223               0.000000000               1.000000000               0.000000055               0.000000000               1.000000000              -0.000000042               0.000000000               1.000000000               0.000000023               0.000000000               1.000000000               0.000000321               0.000000000               1.000000000              -0.000000209               0.000001173               1.000000000               0.000000111               0.000001032               1.000000000               0.000000070               0.000001102               1.000000000              -0.000000035               0.000001359               1.000000000              -0.000000026               0.000001664               1.000000000               0.000000064               0.000001843               1.000000000               0.000000115               0.000002095               1.000000000               0.000000148               0.000002368               1.000000000               0.000000184               0.000002541               1.000000000               0.000000175               0.000002637               1.000000000               0.000000102               0.000002630               1.000000000              -0.000000005               0.000002587               1.000000000              -0.000000122               0.000002593               1.000000000              -0.000000196               0.000002726               1.000000000              -0.000000140               0.000003054               1.000000000               0.000000129               0.000003594               1.000000000               0.000000702               0.000004302               1.000000000              -0.000000198               0.000002403               1.000000000               0.000000071               0.000002062               1.000000000               0.000000054               0.000002263               1.000000000               0.000000009               0.000002773               1.000000000               0.000000003               0.000003456               1.000000000              -0.000000010               0.000003826               1.000000000              -0.000000048               0.000004401               1.000000000              -0.000000092               0.000004935               1.000000000              -0.000000153               0.000005334               1.000000000              -0.000000241               0.000005666               1.000000000              -0.000000318               0.000005912               1.000000000              -0.000000299               0.000006191               1.000000000              -0.000000112               0.000006609               1.000000000               0.000000301               0.000007301               1.000000000               0.000000992               0.000008381               1.000000000               0.000002010               0.000009934               1.000000000               0.000003411               0.000012037               1.000000000              -0.000000214               0.000003751               1.000000000               0.000000018               0.000003193               1.000000000              -0.000000069               0.000003533               1.000000000              -0.000000098               0.000004410               1.000000000              -0.000000046               0.000005472               1.000000000              -0.000000015               0.000006244               1.000000000               0.000000025               0.000007190               1.000000000              -0.000000018               0.000008064               1.000000000              -0.000000071               0.000008881               1.000000000              -0.000000057               0.000009686               1.000000000               0.000000055               0.000010581               1.000000000               0.000000410               0.000011685               1.000000000               0.000001120               0.000013136               1.000000000               0.000002227               0.000015043               1.000000000               0.000003777               0.000017501               1.000000000               0.000005783               0.000020610               1.000000000               0.000008229               0.000024458               1.000000000              -0.000000226               0.000005262               1.000000000              -0.000000148               0.000004526               1.000000000              -0.000000225               0.000005021               1.000000000              -0.000000092               0.000006380               1.000000000               0.000000014               0.000007968               1.000000000               0.000000031               0.000009400               1.000000000               0.000000048               0.000010873               1.000000000               0.000000052               0.000012415               1.000000000               0.000000189               0.000013905               1.000000000               0.000000514               0.000015543               1.000000000               0.000001107               0.000017455               1.000000000               0.000002097               0.000019804               1.000000000               0.000003559               0.000022715               1.000000000               0.000005512               0.000026264               1.000000000               0.000007965               0.000030515               1.000000000               0.000010910               0.000035500               1.000000000               0.000014315               0.000041237               1.000000000              -0.000000287               0.000006958               1.000000000              -0.000000371               0.000006056               1.000000000              -0.000000352               0.000006867               1.000000000              -0.000000187               0.000008851               1.000000000              -0.000000043               0.000011256               1.000000000               0.000000056               0.000013422               1.000000000               0.000000142               0.000015676               1.000000000               0.000000322               0.000018083               1.000000000               0.000000749               0.000020559               1.000000000               0.000001529               0.000023374               1.000000000               0.000002722               0.000026677               1.000000000               0.000004429               0.000030607               1.000000000               0.000006709               0.000035246               1.000000000               0.000009525               0.000040645               1.000000000               0.000012863               0.000046824               1.000000000               0.000016704               0.000053771               1.000000000               0.000021006               0.000061487               1.000000000              -0.000000345               0.000008846               1.000000000              -0.000000588               0.000007762               1.000000000              -0.000000559               0.000009115               1.000000000              -0.000000243               0.000011821               1.000000000               0.000000120               0.000015071               1.000000000               0.000000272               0.000018076               1.000000000               0.000000470               0.000021309               1.000000000               0.000000851               0.000024792               1.000000000               0.000001654               0.000028553               1.000000000               0.000002921               0.000032838               1.000000000               0.000004706               0.000037864               1.000000000               0.000007130               0.000043657               1.000000000               0.000010178               0.000050308               1.000000000               0.000013793               0.000057823               1.000000000               0.000017974               0.000066184               1.000000000               0.000022680               0.000075392               1.000000000               0.000027856               0.000085413               1.000000000              -0.000000386               0.000010884               1.000000000              -0.000000853               0.000009717               1.000000000              -0.000000674               0.000011610               1.000000000              -0.000000129               0.000015151               1.000000000               0.000000296               0.000019283               1.000000000               0.000000484               0.000023271               1.000000000               0.000000777               0.000027668               1.000000000               0.000001469               0.000032469               1.000000000               0.000002701               0.000037771               1.000000000               0.000004440               0.000043903               1.000000000               0.000006848               0.000050940               1.000000000               0.000009938               0.000058973               1.000000000               0.000013666               0.000068003               1.000000000               0.000017996               0.000078035               1.000000000               0.000022908               0.000089034               1.000000000               0.000028346               0.000100898               1.000000000               0.000034244               0.000113507               1.000000000              -0.000000339               0.000012885               1.000000000              -0.000001079               0.000011826               1.000000000              -0.000000741               0.000014306               1.000000000              -0.000000039               0.000018697               1.000000000               0.000000455               0.000023756               1.000000000               0.000000631               0.000028999               1.000000000               0.000001083               0.000034774               1.000000000               0.000002152               0.000041205               1.000000000               0.000003731               0.000048397               1.000000000               0.000005979               0.000056712               1.000000000               0.000008965               0.000066126               1.000000000               0.000012636               0.000076683               1.000000000               0.000016924               0.000088467               1.000000000               0.000021834               0.000101364               1.000000000               0.000027277               0.000115330               1.000000000               0.000033200               0.000130219               1.000000000               0.000039427               0.000145779               1.000000000              -0.000000226               0.000014947               1.000000000              -0.000001232               0.000013930               1.000000000              -0.000001087               0.000016087               1.000000000              -0.000000345               0.000020113               1.000000000               0.000000323               0.000025211               1.000000000               0.000000553               0.000030732               1.000000000               0.000000807               0.000036659               1.000000000               0.000001539               0.000043164               1.000000000               0.000002634               0.000050257               1.000000000               0.000004177               0.000058160               1.000000000               0.000006271               0.000067063               1.000000000               0.000008878               0.000076890               1.000000000               0.000012005               0.000087761               1.000000000               0.000015569               0.000099683               1.000000000               0.000019592               0.000112665               1.000000000               0.000024043               0.000126625               1.000000000               0.000028888               0.000141608               1.000000000              -0.000000165               0.000016983               1.000000000              -0.000001367               0.000016068               1.000000000              -0.000001302               0.000017846               1.000000000              -0.000000617               0.000021551               1.000000000               0.000000123               0.000026544               1.000000000               0.000000511               0.000032210               1.000000000               0.000000647               0.000038322               1.000000000               0.000001068               0.000044945               1.000000000               0.000001761               0.000052099               1.000000000               0.000002774               0.000059827               1.000000000               0.000004130               0.000068359               1.000000000               0.000005845               0.000077745               1.000000000               0.000007950               0.000087938               1.000000000               0.000010407               0.000099001               1.000000000               0.000013173               0.000111061               1.000000000               0.000016296               0.000123969               1.000000000               0.000019795               0.000137888               1.000000000              -0.000000095               0.000018823               1.000000000              -0.000001403               0.000018143               1.000000000              -0.000001425               0.000019687               1.000000000              -0.000000879               0.000023115               1.000000000              -0.000000144               0.000027867               1.000000000               0.000000344               0.000033530               1.000000000               0.000000520               0.000039719               1.000000000               0.000000683               0.000046475               1.000000000               0.000001092               0.000053702               1.000000000               0.000001676               0.000061450               1.000000000               0.000002515               0.000069784               1.000000000               0.000003577               0.000078874               1.000000000               0.000004871               0.000088720               1.000000000               0.000006423               0.000099241               1.000000000               0.000008167               0.000110572               1.000000000               0.000010091               0.000122700               1.000000000               0.000012223               0.000135640               1.000000000              -0.000000039               0.000020462               1.000000000              -0.000001308               0.000020052               1.000000000              -0.000001443               0.000021528               1.000000000              -0.000001031               0.000024667               1.000000000              -0.000000386               0.000029101               1.000000000               0.000000130               0.000034591               1.000000000               0.000000368               0.000040795               1.000000000               0.000000430               0.000047637               1.000000000               0.000000625               0.000055006               1.000000000               0.000000931               0.000062842               1.000000000               0.000001357               0.000071161               1.000000000               0.000001950               0.000080089               1.000000000               0.000002653               0.000089689               1.000000000               0.000003497               0.000099969               1.000000000               0.000004472               0.000110827               1.000000000               0.000005519               0.000122441               1.000000000               0.000006591               0.000134739               1.000000000              -0.000000022               0.000021858               1.000000000              -0.000001099               0.000021737               1.000000000              -0.000001280               0.000023170               1.000000000              -0.000001008               0.000026060               1.000000000              -0.000000553               0.000030262               1.000000000              -0.000000077               0.000035538               1.000000000               0.000000185               0.000041683               1.000000000               0.000000251               0.000048505               1.000000000               0.000000312               0.000055930               1.000000000               0.000000436               0.000063850               1.000000000               0.000000609               0.000072198               1.000000000               0.000000866               0.000081082               1.000000000               0.000001199               0.000090536               1.000000000               0.000001576               0.000100666               1.000000000               0.000002020               0.000111342               1.000000000               0.000002501               0.000122621               1.000000000               0.000002959               0.000134519               1.000000000              -0.000000003               0.000022848               1.000000000              -0.000000782               0.000023024               1.000000000              -0.000000953               0.000024503               1.000000000              -0.000000823               0.000027250               1.000000000              -0.000000517               0.000031228               1.000000000              -0.000000183               0.000036291               1.000000000               0.000000043               0.000042308               1.000000000               0.000000099               0.000049072               1.000000000               0.000000129               0.000056490               1.000000000               0.000000169               0.000064457               1.000000000               0.000000219               0.000072862               1.000000000               0.000000290               0.000081731               1.000000000               0.000000384               0.000091109               1.000000000               0.000000498               0.000101084               1.000000000               0.000000642               0.000111668               1.000000000               0.000000817               0.000122738               1.000000000               0.000001012               0.000134344               1.000000000               0.000000006               0.000023462               1.000000000              -0.000000411               0.000023860               1.000000000              -0.000000511               0.000025386               1.000000000              -0.000000467               0.000028062               1.000000000              -0.000000319               0.000031924               1.000000000              -0.000000149               0.000036838               1.000000000              -0.000000016               0.000042703               1.000000000               0.000000034               0.000049399               1.000000000               0.000000052               0.000056794               1.000000000               0.000000059               0.000064765               1.000000000               0.000000051               0.000073218               1.000000000               0.000000049               0.000082090               1.000000000               0.000000051               0.000091427               1.000000000               0.000000059               0.000101282               1.000000000               0.000000082               0.000111747               1.000000000               0.000000133               0.000122678               1.000000000               0.000000222               0.000134106               1.000000000              -0.000000000               0.000023675               1.000000000              -0.000000000               0.000024149               1.000000000              -0.000000000               0.000025695               1.000000000               0.000000000               0.000028349               1.000000000               0.000000000               0.000032154               1.000000000               0.000000000               0.000037031               1.000000000              -0.000000000               0.000042868               1.000000000               0.000000000               0.000049540               1.000000000               0.000000000               0.000056910               1.000000000               0.000000000               0.000064878               1.000000000              -0.000000000               0.000073345               1.000000000              -0.000000000               0.000082204               1.000000000               0.000000000               0.000091523               1.000000000              -0.000000000               0.000101334               1.000000000              -0.000000000               0.000111736               1.000000000               0.000000000               0.000122604               1.000000000               0.000000000               0.000133968               1.000000000 </DataArray>
<DataArray type="Float64"                                    Name="defo"                                                      NumberOfComponents=" 3" format="ascii">
              0.000000270               0.000000000               1.000000000              -0.000000095               0.000000000               1.000000000              -0.000000083               0.000000000               1.000000000              -0.000000010               0.000000000               1.000000000              -0.000000001              -0.000000000               1.000000000              -0.000000007              -0.000000000               1.000000000              -0.000000051               0.000000000               1.000000000              -0.000000166               0.000000000               1.000000000              -0.000000302              -0.000000000               1.000000000              -0.000000406              -0.000000000               1.000000000              -0.000000443              -0.000000000               1.000000000              -0.000000377              -0.000000000               1.000000000              -0.000000223              -0.000000000               1.000000000              -0.000000055              -0.000000000               1.000000000               0.000000042               0.000000000               1.000000000              -0.000000023               0.000000000               1.000000000              -0.000000321               0.000000000               1.000000000               0.000000209               0.000001173               1.000000000              -0.000000111               0.000001032               1.000000000              -0.000000070               0.000001102               1.000000000               0.000000035               0.000001359               1.000000000               0.000000026               0.000001664               1.000000000              -0.000000064               0.000001843               1.000000000              -0.000000115               0.000002095               1.000000000              -0.000000148               0.000002368               1.000000000              -0.000000184               0.000002541               1.000000000              -0.000000175               0.000002637               1.000000000              -0.000000102               0.000002630               1.000000000               0.000000005               0.000002587               1.000000000               0.000000122               0.000002593               1.000000000               0.000000196               0.000002726               1.000000000               0.000000140               0.000003054               1.000000000              -0.000000129               0.000003594               1.000000000              -0.000000702               0.000004302               1.000000000               0.000000198               0.000002403               1.000000000              -0.000000071               0.000002062               1.000000000              -0.000000054               0.000002263               1.000000000              -0.000000009               0.000002773               1.000000000              -0.000000003               0.000003456               1.000000000               0.000000010               0.000003826               1.000000000               0.000000048               0.000004401               1.000000000               0.000000092               0.000004935               1.000000000               0.000000153               0.000005334               1.000000000               0.000000241               0.000005666               1.000000000               0.000000318               0.000005912               1.000000000               0.000000299               0.000006191               1.000000000               0.000000112               0.000006609               1.000000000              -0.000000301               0.000007301               1.000000000              -0.000000992               0.000008381               1.000000000              -0.000002010               0.000009934               1.000000000              -0.000003411               0.000012037               1.000000000               0.000000214               0.000003751               1.000000000              -0.000000018               0.000003193               1.000000000               0.000000069               0.000003533               1.000000000               0.000000098               0.000004410               1.000000000               0.000000046               0.000005472               1.000000000               0.000000015               0.000006244               1.000000000              -0.000000025               0.000007190               1.000000000               0.000000018               0.000008064               1.000000000               0.000000071               0.000008881               1.000000000               0.000000057               0.000009686               1.000000000              -0.000000055               0.000010581               1.000000000              -0.000000410               0.000011685               1.000000000              -0.000001120               0.000013136               1.000000000              -0.000002227               0.000015043               1.000000000              -0.000003777               0.000017501               1.000000000              -0.000005783               0.000020610               1.000000000              -0.000008229               0.000024458               1.000000000               0.000000226               0.000005262               1.000000000               0.000000148               0.000004526               1.000000000               0.000000225               0.000005021               1.000000000               0.000000092               0.000006380               1.000000000              -0.000000014               0.000007968               1.000000000              -0.000000031               0.000009400               1.000000000              -0.000000048               0.000010873               1.000000000              -0.000000052               0.000012415               1.000000000              -0.000000189               0.000013905               1.000000000              -0.000000514               0.000015543               1.000000000              -0.000001107               0.000017455               1.000000000              -0.000002097               0.000019804               1.000000000              -0.000003559               0.000022715               1.000000000              -0.000005512               0.000026264               1.000000000              -0.000007965               0.000030515               1.000000000              -0.000010910               0.000035500               1.000000000              -0.000014315               0.000041237               1.000000000               0.000000287               0.000006958               1.000000000               0.000000371               0.000006056               1.000000000               0.000000352               0.000006867               1.000000000               0.000000187               0.000008851               1.000000000               0.000000043               0.000011256               1.000000000              -0.000000056               0.000013422               1.000000000              -0.000000142               0.000015676               1.000000000              -0.000000322               0.000018083               1.000000000              -0.000000749               0.000020559               1.000000000              -0.000001529               0.000023374               1.000000000              -0.000002722               0.000026677               1.000000000              -0.000004429               0.000030607               1.000000000              -0.000006709               0.000035246               1.000000000              -0.000009525               0.000040645               1.000000000              -0.000012863               0.000046824               1.000000000              -0.000016704               0.000053771               1.000000000              -0.000021006               0.000061487               1.000000000               0.000000345               0.000008846               1.000000000               0.000000588               0.000007762               1.000000000               0.000000559               0.000009115               1.000000000               0.000000243               0.000011821               1.000000000              -0.000000120               0.000015071               1.000000000              -0.000000272               0.000018076               1.000000000              -0.000000470               0.000021309               1.000000000              -0.000000851               0.000024792               1.000000000              -0.000001654               0.000028553               1.000000000              -0.000002921               0.000032838               1.000000000              -0.000004706               0.000037864               1.000000000              -0.000007130               0.000043657               1.000000000              -0.000010178               0.000050308               1.000000000              -0.000013793               0.000057823               1.000000000              -0.000017974               0.000066184               1.000000000              -0.000022680               0.000075392               1.000000000              -0.000027856               0.000085413               1.000000000               0.000000386               0.000010884               1.000000000               0.000000853               0.000009717               1.000000000               0.000000674               0.000011610               1.000000000               0.000000129               0.000015151               1.000000000              -0.000000296               0.000019283               1.000000000              -0.000000484               0.000023271               1.000000000              -0.000000777               0.000027668               1.000000000              -0.000001469               0.000032469               1.000000000              -0.000002701               0.000037771               1.000000000              -0.000004440               0.000043903               1.000000000              -0.000006848               0.000050940               1.000000000              -0.000009938               0.000058973               1.000000000              -0.000013666               0.000068003               1.000000000              -0.000017996               0.000078035               1.000000000              -0.000022908               0.000089034               1.000000000              -0.000028346               0.000100898               1.000000000              -0.000034244               0.000113507               1.000000000               0.000000339               0.000012885               1.000000000               0.000001079               0.000011826               1.000000000               0.000000741               0.000014306               1.000000000               0.000000039               0.000018697               1.000000000              -0.000000455               0.000023756               1.000000000              -0.000000631               0.000028999               1.000000000              -0.000001083               0.000034774               1.000000000              -0.000002152               0.000041205               1.000000000              -0.000003731               0.000048397               1.000000000              -0.000005979               0.000056712               1.000000000              -0.000008965               0.000066126               1.000000000              -0.000012636               0.000076683               1.000000000              -0.000016924               0.000088467               1.000000000              -0.000021834               0.000101364               1.000000000              -0.000027277               0.000115330               1.000000000              -0.000033200               0.000130219               1.000000000              -0.000039427               0.000145779               1.000000000               0.000000226               0.000014947               1.000000000               0.000001232               0.000013930               1.000000000               0.000001087               0.000016087               1.000000000               0.000000345               0.000020113               1.000000000              -0.000000323               0.000025211               1.000000000              -0.000000553               0.000030732               1.000000000              -0.000000807               0.000036659               1.000000000              -0.000001539               0.000043164               1.000000000              -0.000002634               0.000050257               1.000000000              -0.000004177               0.000058160               1.000000000              -0.000006271               0.000067063               1.000000000              -0.000008878               0.000076890               1.000000000              -0.000012005               0.000087761               1.000000000              -0.000015569               0.000099683               1.000000000              -0.000019592               0.000112665               1.000000000              -0.000024043               0.000126625               1.000000000              -0.000028888               0.000141608               1.000000000               0.000000165               0.000016983               1.000000000               0.000001367               0.000016068               1.000000000               0.000001302               0.000017846               1.000000000               0.000000617               0.000021551               1.000000000              -0.000000123               0.000026544               1.000000000              -0.000000511               0.000032210               1.000000000              -0.000000647               0.000038322               1.000000000              -0.000001068               0.000044945               1.000000000              -0.000001761               0.000052099               1.000000000              -0.000002774               0.000059827               1.000000000              -0.000004130               0.000068359               1.000000000              -0.000005845               0.000077745               1.000000000              -0.000007950               0.000087938               1.000000000              -0.000010407               0.000099001               1.000000000              -0.000013173               0.000111061               1.000000000              -0.000016296               0.000123969               1.000000000              -0.000019795               0.000137888               1.000000000               0.000000095               0.000018823               1.000000000               0.000001403               0.000018143               1.000000000               0.000001425               0.000019687               1.000000000               0.000000879               0.000023115               1.000000000               0.000000144               0.000027867               1.000000000              -0.000000344               0.000033530               1.000000000              -0.000000520               0.000039719               1.000000000              -0.000000683               0.000046475               1.000000000              -0.000001092               0.000053702               1.000000000              -0.000001676               0.000061450               1.000000000              -0.000002515               0.000069784               1.000000000              -0.000003577               0.000078874               1.000000000              -0.000004871               0.000088720               1.000000000              -0.000006423               0.000099241               1.000000000              -0.000008167               0.000110572               1.000000000              -0.000010091               0.000122700               1.000000000              -0.000012223               0.000135640               1.000000000               0.000000039               0.000020462               1.000000000               0.000001308               0.000020052               1.000000000               0.000001443               0.000021528               1.000000000               0.000001031               0.000024667               1.000000000               0.000000386               0.000029101               1.000000000              -0.000000130               0.000034591               1.000000000              -0.000000368               0.000040795               1.000000000              -0.000000430               0.000047637               1.000000000              -0.000000625               0.000055006               1.000000000              -0.000000931               0.000062842               1.000000000              -0.000001357               0.000071161               1.000000000              -0.000001950               0.000080089               1.000000000              -0.000002653               0.000089689               1.000000000              -0.000003497               0.000099969               1.000000000              -0.000004472               0.000110827               1.000000000              -0.000005519               0.000122441               1.000000000              -0.000006591               0.000134739               1.000000000               0.000000022               0.000021858               1.000000000               0.000001099               0.000021737               1.000000000               0.000001280               0.000023170               1.000000000               0.000001008               0.000026060               1.000000000               0.000000553               0.000030262               1.000000000               0.000000077               0.000035538               1.000000000              -0.000000185               0.000041683               1.000000000              -0.000000251               0.000048505               1.000000000              -0.000000312               0.000055930               1.000000000              -0.000000436               0.000063850               1.000000000              -0.000000609               0.000072198               1.000000000              -0.000000866               0.000081082               1.000000000              -0.000001199               0.000090536               1.000000000              -0.000001576               0.000100666               1.000000000              -0.000002020               0.000111342               1.000000000              -0.000002501               0.000122621               1.000000000              -0.000002959               0.000134519               1.000000000               0.000000003               0.000022848               1.000000000               0.000000782               0.000023024               1.000000000               0.000000953               0.000024503               1.000000000               0.000000823               0.000027250               1.000000000               0.000000517               0.000031228               1.000000000               0.000000183               0.000036291               1.000000000              -0.000000043               0.000042308               1.000000000              -0.000000099               0.000049072               1.000000000              -0.000000129               0.000056490               1.000000000              -0.000000169               0.000064457               1.000000000              -0.000000219               0.000072862               1.000000000              -0.000000290               0.000081731               1.000000000              -0.000000384               0.000091109               1.000000000              -0.000000498               0.000101084               1.000000000              -0.000000642               0.000111668               1.000000000              -0.000000817               0.000122738               1.000000000              -0.000001012               0.000134344               1.000000000              -0.000000006               0.000023462               1.000000000               0.000000411               0.000023860               1.000000000               0.000000511               0.000025386               1.000000000               0.000000467               0.000028062               1.000000000               0.000000319               0.000031924               1.000000000               0.000000149               0.000036838               1.000000000               0.000000016               0.000042703               1.000000000              -0.000000034               0.000049399               1.000000000              -0.000000052               0.000056794               1.000000000              -0.000000059               0.000064765               1.000000000              -0.000000051               0.000073218               1.000000000              -0.000000049               0.000082090               1.000000000              -0.000000051               0.000091427               1.000000000              -0.000000059               0.000101282               1.000000000              -0.000000082               0.000111747               1.000000000              -0.000000133               0.000122678               1.000000000              -0.000000222               0.000134106               1.000000000              -0.000000000               0.000023675               1.000000000              -0.000000000               0.000024149               1.000000000              -0.000000000               0.000025695               1.000000000               0.000000000               0.000028349               1.000000000               0.000000000               0.000032154               1.000000000               0.000000000               0.000037031               1.000000000              -0.000000000               0.000042868               1.000000000               0.000000000               0.000049540               1.000000000               0.000000000               0.000056910               1.000000000               0.000000000               0.000064878               1.000000000              -0.000000000               0.000073345               1.000000000              -0.000000000               0.000082204               1.000000000               0.000000000               0.000091523               1.000000000              -0.000000000               0.000101334               1.000000000              -0.000000000               0.000111736               1.000000000               0.000000000               0.000122604               1.000000000               0.000000000               0.000133968               1.000000000               0.000000270               0.000000000               1.000000000              -0.000000095               0.000000000               1.000000000              -0.000000083               0.000000000               1.000000000              -0.000000010               0.000000000               1.000000000              -0.000000001              -0.000000000               1.000000000              -0.000000007              -0.000000000               1.000000000              -0.000000051               0.000000000               1.000000000              -0.000000166               0.000000000               1.000000000              -0.000000302              -0.000000000               1.000000000              -0.000000406              -0.000000000               1.000000000              -0.000000443              -0.000000000               1.000000000              -0.000000377              -0.000000000               1.000000000              -0.000000223              -0.000000000               1.000000000              -0.000000055              -0.000000000               1.000000000               0.000000042               0.000000000               1.000000000              -0.000000023               0.000000000               1.000000000              -0.000000321               0.000000000               1.000000000               0.000000209              -0.000001173               1.000000000              -0.000000111              -0.000001032               1.000000000              -0.000000070              -0.000001102               1.000000000               0.000000035              -0.000001359               1.000000000               0.000000026              -0.000001664               1.000000000              -0.000000064              -0.000001843               1.000000000              -0.000000115              -0.000002095               1.000000000              -0.000000148              -0.000002368               1.000000000              -0.000000184              -0.000002541               1.000000000              -0.000000175              -0.000002637               1.000000000              -0.000000102              -0.000002630               1.000000000               0.000000005              -0.000002587               1.000000000               0.000000122              -0.000002593               1.000000000               0.000000196              -0.000002726               1.000000000               0.000000140              -0.000003054               1.000000000              -0.000000129              -0.000003594               1.000000000              -0.000000702              -0.000004302               1.000000000               0.000000198              -0.000002403               1.000000000              -0.000000071              -0.000002062               1.000000000              -0.000000054              -0.000002263               1.000000000              -0.000000009              -0.000002773               1.000000000              -0.000000003              -0.000003456               1.000000000               0.000000010              -0.000003826               1.000000000               0.000000048              -0.000004401               1.000000000               0.000000092              -0.000004935               1.000000000               0.000000153              -0.000005334               1.000000000               0.000000241              -0.000005666               1.000000000               0.000000318              -0.000005912               1.000000000               0.000000299              -0.000006191               1.000000000               0.000000112              -0.000006609               1.000000000              -0.000000301              -0.000007301               1.000000000              -0.000000992              -0.000008381               1.000000000              -0.000002010              -0.000009934               1.000000000              -0.000003411              -0.000012037               1.000000000               0.000000214              -0.000003751               1.000000000              -0.000000018              -0.000003193               1.000000000               0.000000069              -0.000003533               1.000000000               0.000000098              -0.000004410               1.000000000               0.000000046              -0.000005472               1.000000000               0.000000015              -0.000006244               1.000000000              -0.000000025              -0.000007190               1.000000000               0.000000018              -0.000008064               1.000000000               0.000000071              -0.000008881               1.000000000               0.000000057              -0.000009686               1.000000000              -0.000000055              -0.000010581               1.000000000              -0.000000410              -0.000011685               1.000000000              -0.000001120              -0.000013136               1.000000000              -0.000002227              -0.000015043               1.000000000              -0.000003777              -0.000017501               1.000000000              -0.000005783              -0.000020610               1.000000000              -0.000008229              -0.000024458               1.000000000               0.000000226              -0.000005262               1.000000000               0.000000148              -0.000004526               1.000000000               0.000000225              -0.000005021               1.000000000               0.000000092              -0.000006380               1.000000000              -0.000000014              -0.000007968               1.000000000              -0.000000031              -0.000009400               1.000000000              -0.000000048              -0.000010873               1.000000000              -0.000000052              -0.000012415               1.000000000              -0.000000189              -0.000013905               1.000000000              -0.000000514              -0.000015543               1.000000000              -0.000001107              -0.000017455               1.000000000              -0.000002097              -0.000019804               1.000000000              -0.000003559              -0.000022715               1.000000000              -0.000005512              -0.000026264               1.000000000              -0.000007965              -0.000030515               1.000000000              -0.000010910              -0.000035500               1.000000000              -0.000014315              -0.000041237               1.000000000               0.000000287              -0.000006958               1.000000000               0.000000371              -0.000006056               1.000000000               0.000000352              -0.000006867               1.000000000               0.000000187              -0.000008851               1.000000000               0.000000043              -0.000011256               1.000000000              -0.000000056              -0.000013422               1.000000000              -0.000000142              -0.000015676               1.000000000              -0.000000322              -0.000018083               1.000000000              -0.000000749              -0.000020559               1.000000000              -0.000001529              -0.000023374               1.000000000              -0.000002722              -0.000026677               1.000000000              -0.000004429              -0.000030607               1.000000000              -0.000006709              -0.000035246               1.000000000              -0.000009525              -0.000040645               1.000000000              -0.000012863              -0.000046824               1.000000000              -0.000016704              -0.000053771               1.000000000              -0.000021006              -0.000061487               1.000000000               0.000000345              -0.000008846               1.000000000               0.000000588              -0.000007762               1.000000000               0.000000559              -0.000009115               1.000000000               0.000000243              -0.000011821               1.000000000              -0.000000120              -0.000015071               1.000000000              -0.000000272              -0.000018076               1.000000000              -0.000000470              -0.000021309               1.000000000              -0.000000851              -0.000024792               1.000000000              -0.000001654              -0.000028553               1.000000000              -0.000002921              -0.000032838               1.000000000              -0.000004706              -0.000037864               1.000000000              -0.000007130              -0.000043657               1.000000000              -0.000010178              -0.000050308               1.000000000              -0.000013793              -0.000057823               1.000000000              -0.000017974              -0.000066184               1.000000000              -0.000022680              -0.000075392               1.000000000              -0.000027856              -0.000085413               1.000000000               0.000000386              -0.000010884               1.000000000               0.000000853              -0.000009717               1.000000000               0.000000674              -0.000011610               1.000000000               0.000000129              -0.000015151               1.000000000              -0.000000296              -0.000019283               1.000000000              -0.000000484              -0.000023271               1.000000000              -0.000000777              -0.000027668               1.000000000              -0.000001469              -0.000032469               1.000000000              -0.000002701              -0.000037771               1.000000000              -0.000004440              -0.000043903               1.000000000              -0.000006848              -0.000050940               1.000000000              -0.000009938              -0.000058973               1.000000000              -0.000013666              -0.000068003               1.000000000              -0.000017996              -0.000078035               1.000000000              -0.000022908              -0.000089034               1.000000000              -0.000028346              -0.000100898               1.000000000              -0.000034244              -0.000113507               1.000000000               0.000000339              -0.000012885               1.000000000               0.000001079              -0.000011826               1.000000000               0.000000741              -0.000014306               1.000000000               0.000000039              -0.000018697               1.000000000              -0.000000455              -0.000023756               1.000000000              -0.000000631              -0.000028999               1.000000000              -0.000001083              -0.000034774               1.000000000              -0.000002152              -0.000041205               1.000000000              -0.000003731              -0.000048397               1.000000000              -0.000005979              -0.000056712               1.000000000              -0.000008965              -0.000066126               1.000000000              -0.000012636              -0.000076683               1.000000000              -0.000016924              -0.000088467               1.000000000              -0.000021834              -0.000101364               1.000000000              -0.000027277              -0.000115330               1.000000000              -0.000033200              -0.000130219               1.000000000              -0.000039427              -0.000145779               1.000000000               0.000000226              -0.000014947               1.000000000               0.000001232              -0.000013930               1.000000000               0.000001087              -0.000016087               1.000000000               0.000000345              -0.000020113               1.000000000              -0.000000323              -0.000025211               1.000000000              -0.000000553              -0.000030732               1.000000000              -0.000000807              -0.000036659               1.000000000              -0.000001539              -0.000043164               1.000000000              -0.000002634              -0.000050257               1.000000000              -0.000004177              -0.000058160               1.000000000              -0.000006271              -0.000067063               1.000000000              -0.000008878              -0.000076890               1.000000000              -0.000012005              -0.000087761               1.000000000              -0.000015569              -0.000099683               1.000000000              -0.000019592              -0.000112665               1.000000000              -0.000024043              -0.000126625               1.000000000              -0.000028888              -0.000141608               1.000000000               0.000000165              -0.000016983               1.000000000               0.000001367              -0.000016068               1.000000000               0.000001302              -0.000017846               1.000000000               0.000000617              -0.000021551               1.000000000              -0.000000123              -0.000026544               1.000000000              -0.000000511              -0.000032210               1.000000000              -0.000000647              -0.000038322               1.000000000              -0.000001068              -0.000044945               1.000000000              -0.000001761              -0.000052099               1.000000000              -0.000002774              -0.000059827               1.000000000              -0.000004130              -0.000068359               1.000000000              -0.000005845              -0.000077745               1.000000000              -0.000007950              -0.000087938               1.000000000              -0.000010407              -0.000099001               1.000000000              -0.000013173              -0.000111061               1.000000000              -0.000016296              -0.000123969               1.000000000              -0.000019795              -0.000137888               1.000000000               0.000000095              -0.000018823               1.000000000               0.000001403              -0.000018143               1.000000000               0.000001425              -0.000019687               1.000000000               0.000000879              -0.000023115               1.000000000               0.000000144              -0.000027867               1.000000000              -0.000000344              -0.000033530               1.000000000              -0.000000520              -0.000039719               1.000000000              -0.000000683              -0.000046475               1.000000000              -0.000001092              -0.000053702               1.000000000              -0.000001676              -0.000061450               1.000000000              -0.000002515              -0.000069784               1.000000000              -0.000003577              -0.000078874               1.000000000              -0.000004871              -0.000088720               1.000000000              -0.000006423              -0.000099241               1.000000000              -0.000008167              -0.000110572               1.000000000              -0.000010091              -0.000122700               1.000000000              -0.000012223              -0.000135640               1.000000000               0.000000039              -0.000020462               1.000000000               0.000001308              -0.000020052               1.000000000               0.000001443              -0.000021528               1.000000000               0.000001031              -0.000024667               1.000000000               0.000000386              -0.000029101               1.000000000              -0.000000130              -0.000034591               1.000000000              -0.000000368              -0.000040795               1.000000000              -0.000000430              -0.000047637               1.000000000              -0.000000625              -0.000055006               1.000000000              -0.000000931              -0.000062842               1.000000000              -0.000001357              -0.000071161               1.000000000              -0.000001950              -0.000080089               1.000000000              -0.000002653              -0.000089689               1.000000000              -0.000003497              -0.000099969               1.000000000              -0.000004472              -0.000110827               1.000000000              -0.000005519              -0.000122441               1.000000000              -0.000006591              -0.000134739               1.000000000               0.000000022              -0.000021858               1.000000000               0.000001099              -0.000021737               1.000000000               0.000001280              -0.000023170               1.000000000               0.000001008              -0.000026060               1.000000000               0.000000553              -0.000030262               1.000000000               0.000000077              -0.000035538               1.000000000              -0.000000185              -0.000041683               1.000000000              -0.000000251              -0.000048505               1.000000000              -0.000000312              -0.000055930               1.000000000              -0.000000436              -0.000063850               1.000000000              -0.000000609              -0.000072198               1.000000000              -0.000000866              -0.000081082               1.000000000              -0.000001199              -0.000090536               1.000000000              -0.000001576              -0.000100666               1.000000000              -0.000002020              -0.000111342               1.000000000              -0.000002501              -0.000122621               1.000000000              -0.000002959              -0.000134519               1.000000000               0.000000003              -0.000022848               1.000000000               0.000000782              -0.000023024               1.000000000               0.000000953              -0.000024503               1.000000000               0.000000823              -0.000027250               1.000000000               0.000000517              -0.000031228               1.000000000               0.000000183              -0.000036291               1.000000000              -0.000000043              -0.000042308               1.000000000              -0.000000099              -0.000049072               1.000000000              -0.000000129              -0.000056490               1.000000000              -0.000000169              -0.000064457               1.000000000              -0.000000219              -0.000072862               1.000000000              -0.000000290              -0.000081731               1.000000000              -0.000000384              -0.000091109               1.000000000              -0.000000498              -0.000101084               1.000000000              -0.000000642              -0.000111668               1.000000000              -0.000000817              -0.000122738               1.000000000              -0.000001012              -0.000134344               1.000000000              -0.000000006              -0.000023462               1.000000000               0.000000411              -0.000023860               1.000000000               0.000000511              -0.000025386               1.000000000               0.000000467              -0.000028062               1.000000000               0.000000319              -0.000031924               1.000000000               0.000000149              -0.000036838               1.000000000               0.000000016              -0.000042703               1.000000000              -0.000000034              -0.000049399               1.000000000              -0.000000052              -0.000056794               1.000000000              -0.000000059              -0.000064765               1.000000000              -0.000000051              -0.000073218               1.000000000              -0.000000049              -0.000082090               1.000000000              -0.000000051              -0.000091427               1.000000000              -0.000000059              -0.000101282               1.000000000              -0.000000082              -0.000111747               1.000000000              -0.000000133              -0.000122678               1.000000000              -0.000000222              -0.000134106               1.000000000              -0.000000000              -0.000023675               1.000000000              -0.000000000              -0.000024149               1.000000000               0.000000000              -0.000025695               1.000000000               0.000000000              -0.000028349               1.000000000              -0.000000000              -0.000032154               1.000000000              -0.000000000              -0.000037031               1.000000000              -0.000000000              -0.000042868               1.000000000              -0.000000000              -0.000049540               1.000000000              -0.000000000              -0.000056910               1.000000000               0.000000000              -0.000064878               1.000000000               0.000000000              -0.000073345               1.000000000               0.000000000              -0.000082204               1.000000000              -0.000000000              -0.000091523               1.000000000              -0.000000000              -0.000101334               1.000000000              -0.000000000              -0.000111736               1.000000000               0.000000000              -0.000122604               1.000000000               0.000000000              -0.000133968               1.000000000              -0.000000270               0.000000000               1.000000000               0.000000095               0.000000000               1.000000000               0.000000083               0.000000000               1.000000000               0.000000010               0.000000000               1.000000000               0.000000001               0.000000000               1.000000000               0.000000007               0.000000000               1.000000000               0.000000051              -0.000000000               1.000000000               0.000000166              -0.000000000               1.000000000               0.000000302              -0.000000000               1.000000000               0.000000406               0.000000000               1.000000000               0.000000443               0.000000000               1.000000000               0.000000377              -0.000000000               1.000000000               0.000000223               0.000000000               1.000000000               0.000000055               0.000000000               1.000000000              -0.000000042               0.000000000               1.000000000               0.000000023               0.000000000               1.000000000               0.000000321               0.000000000               1.000000000              -0.000000209              -0.000001173               1.000000000               0.000000111              -0.000001032               1.000000000               0.000000070              -0.000001102               1.000000000              -0.000000035              -0.000001359               1.000000000              -0.000000026              -0.000001664               1.000000000               0.000000064              -0.000001843               1.000000000               0.000000115              -0.000002095               1.000000000               0.000000148              -0.000002368               1.000000000               0.000000184              -0.000002541               1.000000000               0.000000175              -0.000002637               1.000000000               0.000000102              -0.000002630               1.000000000              -0.000000005              -0.000002587               1.000000000              -0.000000122              -0.000002593               1.000000000              -0.000000196              -0.000002726               1.000000000              -0.000000140              -0.000003054               1.000000000               0.000000129              -0.000003594               1.000000000               0.000000702              -0.000004302               1.000000000              -0.000000198              -0.000002403               1.000000000               0.000000071              -0.000002062               1.000000000               0.000000054              -0.000002263               1.000000000               0.000000009              -0.000002773               1.000000000               0.000000003              -0.000003456               1.000000000              -0.000000010              -0.000003826               1.000000000              -0.000000048              -0.000004401               1.000000000              -0.000000092              -0.000004935               1.000000000              -0.000000153              -0.000005334               1.000000000              -0.000000241              -0.000005666               1.000000000              -0.000000318              -0.000005912               1.000000000              -0.000000299              -0.000006191               1.000000000              -0.000000112              -0.000006609               1.000000000               0.000000301              -0.000007301               1.000000000               0.000000992              -0.000008381               1.000000000               0.000002010              -0.000009934               1.000000000               0.000003411              -0.000012037               1.000000000              -0.000000214              -0.000003751               1.000000000               0.000000018              -0.000003193               1.000000000              -0.000000069              -0.000003533               1.000000000              -0.000000098              -0.000004410               1.000000000              -0.000000046              -0.000005472               1.000000000              -0.000000015              -0.000006244               1.000000000               0.000000025              -0.000007190               1.000000000              -0.000000018              -0.000008064               1.000000000              -0.000000071              -0.000008881               1.000000000              -0.000000057              -0.000009686               1.000000000               0.000000055              -0.000010581               1.000000000               0.000000410              -0.000011685               1.000000000               0.000001120              -0.000013136               1.000000000               0.000002227              -0.000015043               1.000000000               0.000003777              -0.000017501               1.000000000               0.000005783              -0.000020610               1.000000000               0.000008229              -0.000024458               1.000000000              -0.000000226              -0.000005262               1.000000000              -0.000000148              -0.000004526               1.000000000              -0.000000225              -0.000005021               1.000000000              -0.000000092              -0.000006380               1.000000000               0.000000014              -0.000007968               1.000000000               0.000000031              -0.000009400               1.000000000               0.000000048              -0.000010873               1.000000000               0.000000052              -0.000012415               1.000000000               0.000000189              -0.000013905               1.000000000               0.000000514              -0.000015543               1.000000000               0.000001107              -0.000017455               1.000000000               0.000002097              -0.000019804               1.000000000               0.000003559              -0.000022715               1.000000000               0.000005512              -0.000026264               1.000000000               0.000007965              -0.000030515               1.000000000               0.000010910              -0.000035500               1.000000000               0.000014315              -0.000041237               1.000000000              -0.000000287              -0.000006958               1.000000000              -0.000000371              -0.000006056               1.000000000              -0.000000352              -0.000006867               1.000000000              -0.000000187              -0.000008851               1.000000000              -0.000000043              -0.000011256               1.000000000               0.000000056              -0.000013422               1.000000000               0.000000142              -0.000015676               1.000000000               0.000000322              -0.000018083               1.000000000               0.000000749              -0.000020559               1.000000000               0.000001529              -0.000023374               1.000000000               0.000002722              -0.000026677               1.000000000               0.000004429              -0.000030607               1.000000000               0.000006709              -0.000035246               1.000000000               0.000009525              -0.000040645               1.000000000               0.000012863              -0.000046824               1.000000000               0.000016704              -0.000053771               1.000000000               0.000021006              -0.000061487               1.000000000              -0.000000345              -0.000008846               1.000000000              -0.000000588              -0.000007762               1.000000000              -0.000000559              -0.000009115               1.000000000              -0.000000243              -0.000011821               1.000000000               0.000000120              -0.000015071               1.000000000               0.000000272              -0.000018076               1.000000000               0.000000470              -0.000021309               1.000000000               0.000000851              -0.000024792               1.000000000               0.000001654              -0.000028553               1.000000000               0.000002921              -0.000032838               1.000000000               0.000004706              -0.000037864               1.000000000               0.000007130              -0.000043657               1.000000000               0.000010178              -0.000050308               1.000000000               0.000013793              -0.000057823               1.000000000               0.000017974              -0.000066184               1.000000000               0.000022680              -0.000075392               1.000000000               0.000027856              -0.000085413               1.000000000              -0.000000386              -0.000010884               1.000000000              -0.000000853              -0.000009717               1.000000000              -0.000000674              -0.000011610               1.000000000              -0.000000129              -0.000015151               1.000000000               0.000000296              -0.000019283               1.000000000               0.000000484              -0.000023271               1.000000000               0.000000777              -0.000027668               1.000000000               0.000001469              -0.000032469               1.000000000               0.000002701              -0.000037771               1.000000000               0.000004440              -0.000043903               1.000000000               0.000006848              -0.000050940               1.000000000               0.000009938              -0.000058973               1.000000000               0.000013666              -0.000068003               1.000000000               0.000017996              -0.000078035               1.000000000               0.000022908              -0.000089034               1.000000000               0.000028346              -0.000100898               1.000000000               0.000034244              -0.000113507               1.000000000              -0.000000339              -0.000012885               1.000000000              -0.000001079              -0.000011826               1.000000000              -0.000000741              -0.000014306               1.000000000              -0.000000039              -0.000018697               1.000000000               0.000000455              -0.000023756               1.000000000               0.000000631              -0.000028999               1.000000000               0.000001083              -0.000034774               1.000000000               0.000002152              -0.000041205               1.000000000               0.000003731              -0.000048397               1.000000000               0.000005979              -0.000056712               1.000000000               0.000008965              -0.000066126               1.000000000               0.000012636              -0.000076683               1.000000000               0.000016924              -0.000088467               1.000000000               0.000021834              -0.000101364               1.000000000               0.000027277              -0.000115330               1.000000000               0.000033200              -0.000130219               1.000000000               0.000039427              -0.000145779               1.000000000              -0.000000226              -0.000014947               1.000000000              -0.000001232              -0.000013930               1.000000000              -0.000001087              -0.000016087               1.000000000              -0.000000345              -0.000020113               1.000000000               0.000000323              -0.000025211               1.000000000               0.000000553              -0.000030732               1.000000000               0.000000807              -0.000036659               1.000000000               0.000001539              -0.000043164               1.000000000               0.000002634              -0.000050257               1.000000000               0.000004177              -0.000058160               1.000000000               0.000006271              -0.000067063               1.000000000               0.000008878              -0.000076890               1.000000000               0.000012005              -0.000087761               1.000000000               0.000015569              -0.000099683               1.000000000               0.000019592              -0.000112665               1.000000000               0.000024043              -0.000126625               1.000000000               0.000028888              -0.000141608               1.000000000              -0.000000165              -0.000016983               1.000000000              -0.000001367              -0.000016068               1.000000000              -0.000001302              -0.000017846               1.000000000              -0.000000617              -0.000021551               1.000000000               0.000000123              -0.000026544               1.000000000               0.000000511              -0.000032210               1.000000000               0.000000647              -0.000038322               1.000000000               0.000001068              -0.000044945               1.000000000               0.000001761              -0.000052099               1.000000000               0.000002774              -0.000059827               1.000000000               0.000004130              -0.000068359               1.000000000               0.000005845              -0.000077745               1.000000000               0.000007950              -0.000087938               1.000000000               0.000010407              -0.000099001               1.000000000               0.000013173              -0.000111061               1.000000000               0.000016296              -0.000123969               1.000000000               0.000019795              -0.000137888               1.000000000              -0.000000095              -0.000018823               1.000000000              -0.000001403              -0.000018143               1.000000000              -0.000001425              -0.000019687               1.000000000              -0.000000879              -0.000023115               1.000000000              -0.000000144              -0.000027867               1.000000000               0.000000344              -0.000033530               1.000000000               0.000000520              -0.000039719               1.000000000               0.000000683              -0.000046475               1.000000000               0.000001092              -0.000053702               1.000000000               0.000001676              -0.000061450               1.000000000               0.000002515              -0.000069784               1.000000000               0.000003577              -0.000078874               1.000000000               0.000004871              -0.000088720               1.000000000               0.000006423              -0.000099241               1.000000000               0.000008167              -0.000110572               1.000000000               0.000010091              -0.000122700               1.000000000               0.000012223              -0.000135640               1.000000000              -0.000000039              -0.000020462               1.000000000              -0.000001308              -0.000020052               1.000000000              -0.000001443              -0.000021528               1.000000000              -0.000001031              -0.000024667               1.000000000              -0.000000386              -0.000029101               1.000000000               0.000000130              -0.000034591               1.000000000               0.000000368              -0.000040795               1.000000000               0.000000430              -0.000047637               1.000000000               0.000000625              -0.000055006               1.000000000               0.000000931              -0.000062842               1.000000000               0.000001357              -0.000071161               1.000000000               0.000001950              -0.000080089               1.000000000               0.000002653              -0.000089689               1.000000000               0.000003497              -0.000099969               1.000000000               0.000004472              -0.000110827               1.000000000               0.000005519              -0.000122441               1.000000000               0.000006591              -0.000134739               1.000000000              -0.000000022              -0.000021858               1.000000000              -0.000001099              -0.000021737               1.000000000              -0.000001280              -0.000023170               1.000000000              -0.000001008              -0.000026060               1.000000000              -0.000000553              -0.000030262               1.000000000              -0.000000077              -0.000035538               1.000000000               0.000000185              -0.000041683               1.000000000               0.000000251              -0.000048505               1.000000000               0.000000312              -0.000055930               1.000000000               0.000000436              -0.000063850               1.000000000               0.000000609              -0.000072198               1.000000000               0.000000866              -0.000081082               1.000000000               0.000001199              -0.000090536               1.000000000               0.000001576              -0.000100666               1.000000000               0.000002020              -0.000111342               1.000000000               0.000002501              -0.000122621               1.000000000               0.000002959              -0.000134519               1.000000000              -0.000000003              -0.000022848               1.000000000              -0.000000782              -0.000023024               1.000000000              -0.000000953              -0.000024503               1.000000000              -0.000000823              -0.000027250               1.000000000              -0.000000517              -0.000031228               1.000000000              -0.000000183              -0.000036291               1.000000000               0.000000043              -0.000042308               1.000000000               0.000000099              -0.000049072               1.000000000               0.000000129              -0.000056490               1.000000000               0.000000169              -0.000064457               1.000000000               0.000000219              -0.000072862               1.000000000               0.000000290              -0.000081731               1.000000000               0.000000384              -0.000091109               1.000000000               0.000000498              -0.000101084               1.000000000               0.000000642              -0.000111668               1.000000000               0.000000817              -0.000122738               1.000000000               0.000001012              -0.000134344               1.000000000               0.000000006              -0.000023462               1.000000000              -0.000000411              -0.000023860               1.000000000              -0.000000511              -0.000025386               1.000000000              -0.000000467              -0.000028062               1.000000000              -0.000000319              -0.000031924               1.000000000              -0.000000149              -0.000036838               1.000000000              -0.000000016              -0.000042703               1.000000000               0.000000034              -0.000049399               1.000000000               0.000000052              -0.000056794               1.000000000               0.000000059              -0.000064765               1.000000000               0.000000051              -0.000073218               1.000000000               0.000000049              -0.000082090               1.000000000               0.000000051              -0.000091427               1.000000000               0.000000059              -0.000101282               1.000000000               0.000000082              -0.000111747               1.000000000               0.000000133              -0.000122678               1.000000000               0.000000222              -0.000134106               1.000000000              -0.000000000              -0.000023675               1.000000000              -0.000000000              -0.000024149               1.000000000               0.000000000              -0.000025695               1.000000000               0.000000000              -0.000028349               1.000000000              -0.000000000              -0.000032154               1.000000000              -0.000000000              -0.000037031               1.000000000              -0.000000000              -0.000042868               1.000000000              -0.000000000              -0.000049540               1.000000000              -0.000000000              -0.000056910               1.000000000               0.000000000              -0.000064878               1.000000000               0.000000000              -0.000073345               1.000000000               0.000000000              -0.000082204               1.000000000              -0.000000000              -0.000091523               1.000000000              -0.000000000              -0.000101334               1.000000000              -0.000000000              -0.000111736               1.000000000               0.000000000              -0.000122604               1.000000000               0.000000000              -0.000133968               1.000000000              -0.000000270               0.000000000               1.000000000               0.000000095               0.000000000               1.000000000               0.000000083               0.000000000               1.000000000               0.000000010               0.000000000               1.000000000               0.000000001               0.000000000               1.000000000               0.000000007               0.000000000               1.000000000               0.000000051              -0.000000000               1.000000000               0.000000166              -0.000000000               1.000000000               0.000000302              -0.000000000               1.000000000               0.000000406               0.000000000               1.000000000               0.000000443               0.000000000               1.000000000               0.000000377              -0.000000000               1.000000000               0.000000223               0.000000000               1.000000000               0.000000055               0.000000000               1.000000000              -0.000000042               0.000000000               1.000000000               0.000000023               0.000000000               1.000000000               0.000000321               0.000000000               1.000000000              -0.000000209               0.000001173               1.000000000               0.000000111               0.000001032               1.000000000               0.000000070               0.000001102               1.000000000              -0.000000035               0.000001359               1.000000000              -0.000000026               0.000001664               1.000000000               0.000000064               0.000001843               1.000000000               0.000000115               0.000002095               1.000000000               0.000000148               0.000002368               1.000000000               0.000000184               0.000002541               1.000000000               0.000000175               0.000002637               1.000000000               0.000000102               0.000002630               1.000000000              -0.000000005               0.000002587               1.000000000              -0.000000122               0.000002593               1.000000000              -0.000000196               0.000002726               1.000000000              -0.000000140               0.000003054               1.000000000               0.000000129               0.000003594               1.000000000               0.000000702               0.000004302               1.000000000              -0.000000198               0.000002403               1.000000000               0.000000071               0.000002062               1.000000000               0.000000054               0.000002263               1.000000000               0.000000009               0.000002773               1.000000000               0.000000003               0.000003456               1.000000000              -0.000000010               0.000003826               1.000000000              -0.000000048               0.000004401               1.000000000              -0.000000092               0.000004935               1.000000000              -0.000000153               0.000005334               1.000000000              -0.000000241               0.000005666               1.000000000              -0.000000318               0.000005912               1.000000000              -0.000000299               0.000006191               1.000000000              -0.000000112               0.000006609               1.000000000               0.000000301               0.000007301               1.000000000               0.000000992               0.000008381               1.000000000               0.000002010               0.000009934               1.000000000               0.000003411               0.000012037               1.000000000              -0.000000214               0.000003751               1.000000000               0.000000018               0.000003193               1.000000000              -0.000000069               0.000003533               1.000000000              -0.000000098               0.000004410               1.000000000              -0.000000046               0.000005472               1.000000000              -0.000000015               0.000006244               1.000000000               0.000000025               0.000007190               1.000000000              -0.000000018               0.000008064               1.000000000              -0.000000071               0.000008881               1.000000000              -0.000000057               0.000009686               1.000000000               0.000000055               0.000010581               1.000000000               0.000000410               0.000011685               1.000000000               0.000001120               0.000013136               1.000000000               0.000002227               0.000015043               1.000000000               0.000003777               0.000017501               1.000000000               0.000005783               0.000020610               1.000000000               0.000008229               0.000024458               1.000000000              -0.000000226               0.000005262               1.000000000              -0.000000148               0.000004526               1.000000000              -0.000000225               0.000005021               1.000000000              -0.000000092               0.000006380               1.000000000               0.000000014               0.000007968               1.000000000               0.000000031               0.000009400               1.000000000               0.000000048               0.000010873               1.000000000               0.000000052               0.000012415               1.000000000               0.000000189               0.000013905               1.000000000               0.000000514               0.000015543               1.000000000               0.000001107               0.000017455               1.000000000               0.000002097               0.000019804               1.000000000               0.000003559               0.000022715               1.000000000               0.000005512               0.000026264               1.000000000               0.000007965               0.000030515               1.000000000               0.000010910               0.000035500               1.000000000               0.000014315               0.000041237               1.000000000              -0.000000287               0.000006958               1.000000000              -0.000000371               0.000006056               1.000000000              -0.000000352               0.000006867               1.000000000              -0.000000187               0.000008851               1.000000000              -0.000000043               0.000011256               1.000000000               0.000000056               0.000013422               1.000000000               0.000000142               0.000015676               1.000000000               0.000000322               0.000018083               1.000000000               0.000000749               0.000020559               1.000000000               0.000001529               0.000023374               1.000000000               0.000002722               0.000026677               1.000000000               0.000004429               0.000030607               1.000000000               0.000006709               0.000035246               1.000000000               0.000009525               0.000040645               1.000000000               0.000012863               0.000046824               1.000000000               0.000016704               0.000053771               1.000000000               0.000021006               0.000061487               1.000000000              -0.000000345               0.000008846               1.000000000              -0.000000588               0.000007762               1.000000000              -0.000000559               0.000009115               1.000000000              -0.000000243               0.000011821               1.000000000               0.000000120               0.000015071               1.000000000               0.000000272               0.000018076               1.000000000               0.000000470               0.000021309               1.000000000               0.000000851               0.000024792               1.000000000               0.000001654               0.000028553               1.000000000               0.000002921               0.000032838               1.000000000               0.000004706               0.000037864               1.000000000               0.000007130               0.000043657               1.000000000               0.000010178               0.000050308               1.000000000               0.000013793               0.000057823               1.000000000               0.000017974               0.000066184               1.000000000               0.000022680               0.000075392               1.000000000               0.000027856               0.000085413               1.000000000              -0.000000386               0.000010884               1.000000000              -0.000000853               0.000009717               1.000000000              -0.000000674               0.000011610               1.000000000              -0.000000129               0.000015151               1.000000000               0.000000296               0.000019283               1.000000000               0.000000484               0.000023271               1.000000000               0.000000777               0.000027668               1.000000000               0.000001469               0.000032469               1.000000000               0.000002701               0.000037771               1.000000000               0.000004440               0.000043903               1.000000000               0.000006848               0.000050940               1.000000000               0.000009938               0.000058973               1.000000000               0.000013666               0.000068003               1.000000000               0.000017996               0.000078035               1.000000000               0.000022908               0.000089034               1.000000000               0.000028346               0.000100898               1.000000000               0.000034244               0.000113507               1.000000000              -0.000000339               0.000012885               1.000000000              -0.000001079               0.000011826               1.000000000              -0.000000741               0.000014306               1.000000000              -0.000000039               0.000018697               1.000000000               0.000000455               0.000023756               1.000000000               0.000000631               0.000028999               1.000000000               0.000001083               0.000034774               1.000000000               0.000002152               0.000041205               1.000000000               0.000003731               0.000048397               1.000000000               0.000005979               0.000056712               1.000000000               0.000008965               0.000066126               1.000000000               0.000012636               0.000076683               1.000000000               0.000016924               0.000088467               1.000000000               0.000021834               0.000101364               1.000000000               0.000027277               0.000115330               1.000000000               0.000033200               0.000130219               1.000000000               0.000039427               0.000145779               1.000000000              -0.000000226               0.000014947               1.000000000              -0.000001232               0.000013930               1.000000000              -0.000001087               0.000016087               1.000000000              -0.000000345               0.000020113               1.000000000               0.000000323               0.000025211               1.000000000               0.000000553               0.000030732               1.000000000               0.000000807               0.000036659               1.000000000               0.000001539               0.000043164               1.000000000               0.000002634               0.000050257               1.000000000               0.000004177               0.000058160               1.000000000               0.000006271               0.000067063               1.000000000               0.000008878               0.000076890               1.000000000               0.000012005               0.000087761               1.000000000               0.000015569               0.000099683               1.000000000               0.000019592               0.000112665               1.000000000               0.000024043               0.000126625               1.000000000               0.000028888               0.000141608               1.000000000              -0.000000165               0.000016983               1.000000000              -0.000001367               0.000016068               1.000000000              -0.000001302               0.000017846               1.000000000              -0.000000617               0.000021551               1.000000000               0.000000123               0.000026544               1.000000000               0.000000511               0.000032210               1.000000000               0.000000647               0.000038322               1.000000000               0.000001068               0.000044945               1.000000000               0.000001761               0.000052099               1.000000000               0.000002774               0.000059827               1.000000000               0.000004130               0.000068359               1.000000000               0.000005845               0.000077745               1.000000000               0.000007950               0.000087938               1.000000000               0.000010407               0.000099001               1.000000000               0.000013173               0.000111061               1.000000000               0.000016296               0.000123969               1.000000000               0.000019795               0.000137888               1.000000000              -0.000000095               0.000018823               1.000000000              -0.000001403               0.000018143               1.000000000              -0.000001425               0.000019687               1.000000000              -0.000000879               0.000023115               1.000000000              -0.000000144               0.000027867               1.000000000               0.000000344               0.000033530               1.000000000               0.000000520               0.000039719               1.000000000               0.000000683               0.000046475               1.000000000               0.000001092               0.000053702               1.000000000               0.000001676               0.000061450               1.000000000               0.000002515               0.000069784               1.000000000               0.000003577               0.000078874               1.000000000               0.000004871               0.000088720               1.000000000               0.000006423               0.000099241               1.000000000               0.000008167               0.000110572               1.000000000               0.000010091               0.000122700               1.000000000               0.000012223               0.000135640               1.000000000              -0.000000039               0.000020462               1.000000000              -0.000001308               0.000020052               1.000000000              -0.000001443               0.000021528               1.000000000              -0.000001031               0.000024667               1.000000000              -0.000000386               0.000029101               1.000000000               0.000000130               0.000034591               1.000000000               0.000000368               0.000040795               1.000000000               0.000000430               0.000047637               1.000000000               0.000000625               0.000055006               1.000000000               0.000000931               0.000062842               1.000000000               0.000001357               0.000071161               1.000000000               0.000001950               0.000080089               1.000000000               0.000002653               0.000089689               1.000000000               0.000003497               0.000099969               1.000000000               0.000004472               0.000110827               1.000000000               0.000005519               0.000122441               1.000000000               0.000006591               0.000134739               1.000000000              -0.000000022               0.000021858               1.000000000              -0.000001099               0.000021737               1.000000000              -0.000001280               0.000023170               1.000000000              -0.000001008               0.000026060               1.000000000              -0.000000553               0.000030262               1.000000000              -0.000000077               0.000035538               1.000000000               0.000000185               0.000041683               1.000000000               0.000000251               0.000048505               1.000000000               0.000000312               0.000055930               1.000000000               0.000000436               0.000063850               1.000000000               0.000000609               0.000072198               1.000000000               0.000000866               0.000081082               1.000000000               0.000001199               0.000090536               1.000000000               0.000001576               0.000100666               1.000000000               0.000002020               0.000111342               1.000000000               0.000002501               0.000122621               1.000000000               0.000002959               0.000134519               1.000000000              -0.000000003               0.000022848               1.000000000              -0.000000782               0.000023024               1.000000000              -0.000000953               0.000024503               1.000000000              -0.000000823               0.000027250               1.000000000              -0.000000517               0.000031228               1.000000000              -0.000000183               0.000036291               1.000000000               0.000000043               0.000042308               1.000000000               0.000000099               0.000049072               1.000000000               0.000000129               0.000056490               1.000000000               0.000000169               0.000064457               1.000000000               0.000000219               0.000072862               1.000000000               0.000000290               0.000081731               1.000000000               0.000000384               0.000091109               1.000000000               0.000000498               0.000101084               1.000000000               0.000000642               0.000111668               1.000000000               0.000000817               0.000122738               1.000000000               0.000001012               0.000134344               1.000000000               0.000000006               0.000023462               1.000000000              -0.000000411               0.000023860               1.000000000              -0.000000511               0.000025386               1.000000000              -0.000000467               0.000028062               1.000000000              -0.000000319               0.000031924               1.000000000              -0.000000149               0.000036838               1.000000000              -0.000000016               0.000042703               1.000000000               0.000000034               0.000049399               1.000000000               0.000000052               0.000056794               1.000000000               0.000000059               0.000064765               1.000000000               0.000000051               0.000073218               1.000000000               0.000000049               0.000082090               1.000000000               0.000000051               0.000091427               1.000000000               0.000000059               0.000101282               1.000000000               0.000000082               0.000111747               1.000000000               0.000000133               0.000122678               1.000000000               0.000000222               0.000134106               1.000000000              -0.000000000               0.000023675               1.000000000              -0.000000000               0.000024149               1.000000000              -0.000000000               0.000025695               1.000000000               0.000000000               0.000028349               1.000000000               0.000000000               0.000032154               1.000000000               0.000000000               0.000037031               1.000000000              -0.000000000               0.000042868               1.000000000               0.000000000               0.000049540               1.000000000               0.000000000               0.000056910               1.000000000               0.000000000               0.000064878               1.000000000              -0.000000000               0.000073345               1.000000000              -0.000000000               0.000082204               1.000000000               0.000000000               0.000091523               1.000000000              -0.000000000               0.000101334               1.000000000              -0.000000000               0.000111736               1.000000000               0.000000000               0.000122604               1.000000000               0.000000000               0.000133968               1.000000000 </DataArray>
<DataArray type="Float64"                                    Name="stress"                                                      NumberOfComponents="10" format="ascii">
              0.000034631               0.000224354               0.000000000              -0.000015058               0.000079803               0.000064746               0.000000000               0.000000000               0.000000000               0.000000000               0.000046308               0.000191541              -0.000000000              -0.000006577               0.000066039               0.000059462               0.000000000               0.000000000               0.000000000               0.000000000               0.000065957               0.000179204              -0.000000000               0.000002333               0.000058956               0.000061290               0.000000000               0.000000000               0.000000000               0.000000000               0.000066517               0.000185627              -0.000000000               0.000001741               0.000061295               0.000063035               0.000000000               0.000000000               0.000000000               0.000000000               0.000062479               0.000193355               0.000000000              -0.000000740               0.000064698               0.000063958               0.000000000               0.000000000               0.000000000               0.000000000               0.000060010               0.000193658               0.000000000              -0.000001704               0.000065120               0.000063416               0.000000000               0.000000000               0.000000000               0.000000000               0.000057831               0.000196506               0.000000000              -0.000002877               0.000066460               0.000063583               0.000000000               0.000000000               0.000000000               0.000000000               0.000055299               0.000199263              -0.000000000              -0.000004171               0.000067811               0.000063640               0.000000000               0.000000000               0.000000000               0.000000000               0.000055519               0.000196967              -0.000000000              -0.000003801               0.000066922               0.000063121               0.000000000               0.000000000               0.000000000               0.000000000               0.000059063               0.000190616              -0.000000000              -0.000001678               0.000064097               0.000062419               0.000000000               0.000000000               0.000000000               0.000000000               0.000063973               0.000180473              -0.000000000               0.000001431               0.000059680               0.000061111               0.000000000               0.000000000               0.000000000               0.000000000               0.000068670               0.000169973              -0.000000000               0.000004504               0.000055156               0.000059660               0.000000000               0.000000000               0.000000000               0.000000000               0.000069413               0.000162165               0.000000000               0.000005759               0.000052135               0.000057894               0.000000000               0.000000000               0.000000000               0.000000000               0.000063013               0.000159200               0.000000000               0.000003730               0.000051823               0.000055553               0.000000000               0.000000000               0.000000000               0.000000000               0.000048722               0.000162545               0.000000000              -0.000002047               0.000054863               0.000052816               0.000000000               0.000000000               0.000000000               0.000000000               0.000026809               0.000171544               0.000000000              -0.000011390               0.000060977               0.000049588               0.000000000               0.000000000               0.000000000               0.000000000               0.000015887               0.000181706              -0.000000000              -0.000016756               0.000066153               0.000049398               0.000000000               0.000000000               0.000000000               0.000000000               0.000039180               0.000226164              -0.000019962              -0.000013578               0.000079913               0.000066335               0.000000000               0.000000000               0.000000000               0.000000000               0.000048691               0.000192384              -0.000010316              -0.000005789               0.000066057               0.000060268               0.000000000               0.000000000               0.000000000               0.000000000               0.000068179               0.000183618               0.000000103               0.000002615               0.000060334               0.000062948               0.000000000               0.000000000               0.000000000               0.000000000               0.000068624               0.000191277               0.000004161               0.000001824               0.000063150               0.000064975               0.000000000               0.000000000               0.000000000               0.000000000               0.000063083               0.000200246               0.000001550              -0.000001374               0.000067206               0.000065832               0.000000000               0.000000000               0.000000000               0.000000000               0.000061340               0.000201418               0.000000915              -0.000002175               0.000067863               0.000065689               0.000000000               0.000000000               0.000000000               0.000000000               0.000064079               0.000207285               0.000003861              -0.000001881               0.000069722               0.000067840               0.000000000               0.000000000               0.000000000               0.000000000               0.000064400               0.000210594               0.000003885              -0.000002174               0.000070922               0.000068748               0.000000000               0.000000000               0.000000000               0.000000000               0.000065592               0.000209805               0.000002871              -0.000001629               0.000070477               0.000068849               0.000000000               0.000000000               0.000000000               0.000000000               0.000069581               0.000207530               0.000001592               0.000000152               0.000069125               0.000069277               0.000000000               0.000000000               0.000000000               0.000000000               0.000072604               0.000203605               0.000000088               0.000001776               0.000067276               0.000069052               0.000000000               0.000000000               0.000000000               0.000000000               0.000073355               0.000200527              -0.000000608               0.000002442               0.000066028               0.000068470               0.000000000               0.000000000               0.000000000               0.000000000               0.000070915               0.000200670              -0.000000548               0.000001509               0.000066386               0.000067896               0.000000000               0.000000000               0.000000000               0.000000000               0.000062761               0.000205580               0.000000436              -0.000002162               0.000069247               0.000067085               0.000000000               0.000000000               0.000000000               0.000000000               0.000047815               0.000216420               0.000001743              -0.000009122               0.000075180               0.000066058               0.000000000               0.000000000               0.000000000               0.000000000               0.000026087               0.000233877               0.000002040              -0.000019452               0.000084442               0.000064990               0.000000000               0.000000000               0.000000000               0.000000000               0.000016806               0.000251614               0.000000021              -0.000025149               0.000092254               0.000067104               0.000000000               0.000000000               0.000000000               0.000000000               0.000046705               0.000232445              -0.000037654              -0.000011541               0.000081328               0.000069787               0.000000000               0.000000000               0.000000000               0.000000000               0.000052389               0.000199394              -0.000018913              -0.000005278               0.000068223               0.000062945               0.000000000               0.000000000               0.000000000               0.000000000               0.000067976               0.000196813               0.000001765               0.000000889               0.000065307               0.000066197               0.000000000               0.000000000               0.000000000               0.000000000               0.000071396               0.000211174               0.000008911               0.000000377               0.000070265               0.000070642               0.000000000               0.000000000               0.000000000               0.000000000               0.000073372               0.000225200               0.000003589              -0.000000635               0.000075278               0.000074642               0.000000000               0.000000000               0.000000000               0.000000000               0.000077206               0.000233853               0.000001517              -0.000000280               0.000078044               0.000077764               0.000000000               0.000000000               0.000000000               0.000000000               0.000082843               0.000243554               0.000004006               0.000000622               0.000080977               0.000081599               0.000000000               0.000000000               0.000000000               0.000000000               0.000086022               0.000248825               0.000001053               0.000001155               0.000082556               0.000083711               0.000000000               0.000000000               0.000000000               0.000000000               0.000089052               0.000254268              -0.000002526               0.000001611               0.000084218               0.000085829               0.000000000               0.000000000               0.000000000               0.000000000               0.000092266               0.000261958              -0.000006485               0.000001855               0.000086700               0.000088555               0.000000000               0.000000000               0.000000000               0.000000000               0.000091410               0.000273022              -0.000010469               0.000000151               0.000090956               0.000091107               0.000000000               0.000000000               0.000000000               0.000000000               0.000084646               0.000287782              -0.000012964              -0.000004231               0.000097336               0.000093106               0.000000000               0.000000000               0.000000000               0.000000000               0.000074235               0.000307156              -0.000013930              -0.000010557               0.000105903               0.000095347               0.000000000               0.000000000               0.000000000               0.000000000               0.000060595               0.000331014              -0.000012916              -0.000018654               0.000116555               0.000097901               0.000000000               0.000000000               0.000000000               0.000000000               0.000043273               0.000359011              -0.000010106              -0.000028649               0.000129219               0.000100570               0.000000000               0.000000000               0.000000000               0.000000000               0.000022515               0.000392160              -0.000005673              -0.000040577               0.000144244               0.000103667               0.000000000               0.000000000               0.000000000               0.000000000               0.000016474               0.000420375              -0.000006041              -0.000046369               0.000155580               0.000109211               0.000000000               0.000000000               0.000000000               0.000000000               0.000056370               0.000245042              -0.000056903              -0.000009491               0.000084844               0.000075352               0.000000000               0.000000000               0.000000000               0.000000000               0.000060354               0.000219172              -0.000028221              -0.000004764               0.000074645               0.000069881               0.000000000               0.000000000               0.000000000               0.000000000               0.000072752               0.000225500               0.000002990              -0.000000905               0.000075468               0.000074562               0.000000000               0.000000000               0.000000000               0.000000000               0.000078419               0.000250339               0.000011043              -0.000001885               0.000084074               0.000082189               0.000000000               0.000000000               0.000000000               0.000000000               0.000087265               0.000272922               0.000003466              -0.000001391               0.000091437               0.000090046               0.000000000               0.000000000               0.000000000               0.000000000               0.000096938               0.000295380              -0.000002358              -0.000000571               0.000098649               0.000098078               0.000000000               0.000000000               0.000000000               0.000000000               0.000106515               0.000312636              -0.000002866               0.000000864               0.000103923               0.000104787               0.000000000               0.000000000               0.000000000               0.000000000               0.000115331               0.000328623              -0.000008237               0.000002171               0.000108816               0.000110987               0.000000000               0.000000000               0.000000000               0.000000000               0.000118949               0.000344861              -0.000014557               0.000001498               0.000114453               0.000115951               0.000000000               0.000000000               0.000000000               0.000000000               0.000120878               0.000365751              -0.000020483              -0.000000390               0.000122046               0.000121656               0.000000000               0.000000000               0.000000000               0.000000000               0.000117291               0.000392680              -0.000025313              -0.000005101               0.000132592               0.000127491               0.000000000               0.000000000               0.000000000               0.000000000               0.000104499               0.000424408              -0.000028079              -0.000013864               0.000146089               0.000132225               0.000000000               0.000000000               0.000000000               0.000000000               0.000087200               0.000461103              -0.000028434              -0.000024938               0.000162012               0.000137074               0.000000000               0.000000000               0.000000000               0.000000000               0.000067344               0.000500963              -0.000026164              -0.000037366               0.000179441               0.000142075               0.000000000               0.000000000               0.000000000               0.000000000               0.000045062               0.000542024              -0.000020851              -0.000050854               0.000197624               0.000146770               0.000000000               0.000000000               0.000000000               0.000000000               0.000022181               0.000583255              -0.000011967              -0.000064589               0.000215946               0.000151357               0.000000000               0.000000000               0.000000000               0.000000000               0.000016309               0.000613237              -0.000009818              -0.000070539               0.000227923               0.000157384               0.000000000               0.000000000               0.000000000               0.000000000               0.000071306               0.000260441              -0.000073419              -0.000005815               0.000088751               0.000082936               0.000000000               0.000000000               0.000000000               0.000000000               0.000068796               0.000245464              -0.000038357              -0.000004885               0.000083449               0.000078564               0.000000000               0.000000000               0.000000000               0.000000000               0.000078247               0.000270857              -0.000001324              -0.000004515               0.000091790               0.000087275               0.000000000               0.000000000               0.000000000               0.000000000               0.000089647               0.000312090               0.000009322              -0.000005394               0.000105827               0.000100433               0.000000000               0.000000000               0.000000000               0.000000000               0.000109991               0.000351552               0.000001808              -0.000002697               0.000118082               0.000115384               0.000000000               0.000000000               0.000000000               0.000000000               0.000126206               0.000384225              -0.000006900              -0.000000701               0.000128307               0.000127607               0.000000000               0.000000000               0.000000000               0.000000000               0.000137297               0.000411279              -0.000009925               0.000000076               0.000137066               0.000137143               0.000000000               0.000000000               0.000000000               0.000000000               0.000144111               0.000438334              -0.000017708              -0.000000750               0.000146360               0.000145610               0.000000000               0.000000000               0.000000000               0.000000000               0.000143803               0.000465645              -0.000026838              -0.000004279               0.000156640               0.000152360               0.000000000               0.000000000               0.000000000               0.000000000               0.000141712               0.000499589              -0.000033446              -0.000009307               0.000169630               0.000160323               0.000000000               0.000000000               0.000000000               0.000000000               0.000133376               0.000538897              -0.000037853              -0.000017346               0.000185412               0.000168067               0.000000000               0.000000000               0.000000000               0.000000000               0.000116458               0.000581371              -0.000039086              -0.000028999               0.000203455               0.000174455               0.000000000               0.000000000               0.000000000               0.000000000               0.000095798               0.000626031              -0.000037284              -0.000042330               0.000222785               0.000180455               0.000000000               0.000000000               0.000000000               0.000000000               0.000073342               0.000671166              -0.000032370              -0.000056392               0.000242517               0.000186125               0.000000000               0.000000000               0.000000000               0.000000000               0.000048872               0.000714575              -0.000024322              -0.000070995               0.000261854               0.000190859               0.000000000               0.000000000               0.000000000               0.000000000               0.000023925               0.000754539              -0.000013269              -0.000085345               0.000279959               0.000194614               0.000000000               0.000000000               0.000000000               0.000000000               0.000016853               0.000781857              -0.000010032              -0.000091412               0.000291087               0.000199675               0.000000000               0.000000000               0.000000000               0.000000000               0.000085635               0.000271758              -0.000089328              -0.000001857               0.000091204               0.000089347               0.000000000               0.000000000               0.000000000               0.000000000               0.000076524               0.000272229              -0.000049306              -0.000005332               0.000092519               0.000087187               0.000000000               0.000000000               0.000000000               0.000000000               0.000087336               0.000329331              -0.000006734              -0.000008415               0.000112581               0.000104165               0.000000000               0.000000000               0.000000000               0.000000000               0.000107100               0.000387609               0.000007170              -0.000008288               0.000131964               0.000123676               0.000000000               0.000000000               0.000000000               0.000000000               0.000135178               0.000435472              -0.000002764              -0.000003742               0.000146403               0.000142661               0.000000000               0.000000000               0.000000000               0.000000000               0.000155274               0.000471405              -0.000014408              -0.000000698               0.000157366               0.000156668               0.000000000               0.000000000               0.000000000               0.000000000               0.000167222               0.000507818              -0.000019845              -0.000000769               0.000169527               0.000168758               0.000000000               0.000000000               0.000000000               0.000000000               0.000168742               0.000542732              -0.000028867              -0.000004563               0.000182430               0.000177867               0.000000000               0.000000000               0.000000000               0.000000000               0.000162626               0.000581102              -0.000038329              -0.000011653               0.000197583               0.000185930               0.000000000               0.000000000               0.000000000               0.000000000               0.000154044               0.000626236              -0.000043146              -0.000020513               0.000215581               0.000195068               0.000000000               0.000000000               0.000000000               0.000000000               0.000139705               0.000675931              -0.000045074              -0.000032102               0.000236009               0.000203907               0.000000000               0.000000000               0.000000000               0.000000000               0.000117885               0.000725587              -0.000043888              -0.000046491               0.000257357               0.000210865               0.000000000               0.000000000               0.000000000               0.000000000               0.000094499               0.000774847              -0.000039583              -0.000061419               0.000278753               0.000217334               0.000000000               0.000000000               0.000000000               0.000000000               0.000071130               0.000822359              -0.000032516              -0.000076121               0.000299491               0.000223370               0.000000000               0.000000000               0.000000000               0.000000000               0.000046616               0.000866202              -0.000023307              -0.000090794               0.000318996               0.000228202               0.000000000               0.000000000               0.000000000               0.000000000               0.000022631               0.000906420              -0.000012267              -0.000104816               0.000337076               0.000232260               0.000000000               0.000000000               0.000000000               0.000000000               0.000016471               0.000934200              -0.000009447              -0.000110598               0.000348263               0.000237665               0.000000000               0.000000000               0.000000000               0.000000000               0.000098354               0.000278883              -0.000104533               0.000002022               0.000092286               0.000094308               0.000000000               0.000000000               0.000000000               0.000000000               0.000086653               0.000301517              -0.000059314              -0.000005195               0.000102236               0.000097041               0.000000000               0.000000000               0.000000000               0.000000000               0.000098798               0.000386128              -0.000013570              -0.000011217               0.000132447               0.000121230               0.000000000               0.000000000               0.000000000               0.000000000               0.000123846               0.000454797              -0.000001102              -0.000010407               0.000155066               0.000144659               0.000000000               0.000000000               0.000000000               0.000000000               0.000156926               0.000503195              -0.000009646              -0.000004052               0.000169081               0.000165029               0.000000000               0.000000000               0.000000000               0.000000000               0.000179726               0.000544058              -0.000019790              -0.000000610               0.000181554               0.000180944               0.000000000               0.000000000               0.000000000               0.000000000               0.000187744               0.000588749              -0.000025313              -0.000003190               0.000197311               0.000194121               0.000000000               0.000000000               0.000000000               0.000000000               0.000183631               0.000633074              -0.000034865              -0.000010273               0.000214447               0.000204174               0.000000000               0.000000000               0.000000000               0.000000000               0.000173380               0.000683325              -0.000043343              -0.000020398               0.000234572               0.000214174               0.000000000               0.000000000               0.000000000               0.000000000               0.000160936               0.000741169              -0.000045877              -0.000032295               0.000257819               0.000225524               0.000000000               0.000000000               0.000000000               0.000000000               0.000141431               0.000800584              -0.000045632              -0.000047036               0.000282538               0.000235501               0.000000000               0.000000000               0.000000000               0.000000000               0.000116645               0.000859205              -0.000043005              -0.000063659               0.000307618               0.000243960               0.000000000               0.000000000               0.000000000               0.000000000               0.000092634               0.000916793              -0.000037230              -0.000079861               0.000332215               0.000252354               0.000000000               0.000000000               0.000000000               0.000000000               0.000068752               0.000971787              -0.000029721              -0.000095691               0.000355823               0.000260132               0.000000000               0.000000000               0.000000000               0.000000000               0.000044417               0.001022960              -0.000020961              -0.000111213               0.000378054               0.000266841               0.000000000               0.000000000               0.000000000               0.000000000               0.000021739               0.001069577              -0.000010984              -0.000125545               0.000398370               0.000272826               0.000000000               0.000000000               0.000000000               0.000000000               0.000016299               0.001100439              -0.000009034              -0.000131442               0.000410624               0.000279181               0.000000000               0.000000000               0.000000000               0.000000000               0.000113213               0.000277549              -0.000112818               0.000007761               0.000089929               0.000097689               0.000000000               0.000000000               0.000000000               0.000000000               0.000096496               0.000326282              -0.000068746              -0.000004599               0.000110293               0.000105693               0.000000000               0.000000000               0.000000000               0.000000000               0.000107186               0.000432519              -0.000022393              -0.000013870               0.000148795               0.000134925               0.000000000               0.000000000               0.000000000               0.000000000               0.000137558               0.000508325              -0.000007472              -0.000011956               0.000173425               0.000161469               0.000000000               0.000000000               0.000000000               0.000000000               0.000173977               0.000560039              -0.000011349              -0.000004763               0.000188266               0.000183502               0.000000000               0.000000000               0.000000000               0.000000000               0.000196902               0.000612217              -0.000019958              -0.000002689               0.000204967               0.000202278               0.000000000               0.000000000               0.000000000               0.000000000               0.000198625               0.000667176              -0.000026657              -0.000008913               0.000225361               0.000216448               0.000000000               0.000000000               0.000000000               0.000000000               0.000191265               0.000724807              -0.000037624              -0.000018876               0.000247892               0.000229016               0.000000000               0.000000000               0.000000000               0.000000000               0.000180846               0.000790185              -0.000043734              -0.000030956               0.000273711               0.000242755               0.000000000               0.000000000               0.000000000               0.000000000               0.000166501               0.000862155              -0.000045053              -0.000045332               0.000302493               0.000257161               0.000000000               0.000000000               0.000000000               0.000000000               0.000144650               0.000932309              -0.000043900              -0.000062295               0.000331531               0.000269237               0.000000000               0.000000000               0.000000000               0.000000000               0.000120730               0.001001111              -0.000039285              -0.000079865               0.000360322               0.000280457               0.000000000               0.000000000               0.000000000               0.000000000               0.000096675               0.001068425              -0.000032339              -0.000097300               0.000388571               0.000291272               0.000000000               0.000000000               0.000000000               0.000000000               0.000072010               0.001132080              -0.000024086              -0.000114506               0.000415525               0.000301019               0.000000000               0.000000000               0.000000000               0.000000000               0.000046956               0.001191188              -0.000015557              -0.000131290               0.000440822               0.000309532               0.000000000               0.000000000               0.000000000               0.000000000               0.000023591               0.001244128              -0.000007732              -0.000146669               0.000463595               0.000316926               0.000000000               0.000000000               0.000000000               0.000000000               0.000016028               0.001277230              -0.000006835              -0.000153643               0.000476953               0.000323310               0.000000000               0.000000000               0.000000000               0.000000000               0.000127171               0.000267692              -0.000112044               0.000014227               0.000084487               0.000098715               0.000000000               0.000000000               0.000000000               0.000000000               0.000105113               0.000338609              -0.000074135              -0.000002909               0.000113838               0.000110929               0.000000000               0.000000000               0.000000000               0.000000000               0.000107954               0.000464347              -0.000029842              -0.000017561               0.000160634               0.000143074               0.000000000               0.000000000               0.000000000               0.000000000               0.000140291               0.000545286              -0.000011124              -0.000015551               0.000186944               0.000171392               0.000000000               0.000000000               0.000000000               0.000000000               0.000184013               0.000606739              -0.000009684              -0.000006838               0.000204524               0.000197686               0.000000000               0.000000000               0.000000000               0.000000000               0.000210154               0.000671152              -0.000016751              -0.000005086               0.000225410               0.000220324               0.000000000               0.000000000               0.000000000               0.000000000               0.000210553               0.000736433              -0.000026677              -0.000013097               0.000249841               0.000236744               0.000000000               0.000000000               0.000000000               0.000000000               0.000204517               0.000804563              -0.000037249              -0.000023876               0.000276144               0.000252267               0.000000000               0.000000000               0.000000000               0.000000000               0.000195562               0.000880598              -0.000041515              -0.000036739               0.000305776               0.000269037               0.000000000               0.000000000               0.000000000               0.000000000               0.000180316               0.000960530              -0.000042126              -0.000052448               0.000337656               0.000285208               0.000000000               0.000000000               0.000000000               0.000000000               0.000159899               0.001038010              -0.000040609              -0.000069789               0.000369263               0.000299474               0.000000000               0.000000000               0.000000000               0.000000000               0.000138311               0.001114129              -0.000034460              -0.000087399               0.000400506               0.000313106               0.000000000               0.000000000               0.000000000               0.000000000               0.000115820               0.001188641              -0.000026305              -0.000105147               0.000431259               0.000326112               0.000000000               0.000000000               0.000000000               0.000000000               0.000091748               0.001259140              -0.000017407              -0.000122987               0.000460705               0.000337718               0.000000000               0.000000000               0.000000000               0.000000000               0.000068225               0.001325733              -0.000008788              -0.000140132               0.000488617               0.000348485               0.000000000               0.000000000               0.000000000               0.000000000               0.000047593               0.001386925              -0.000002028              -0.000155518               0.000514143               0.000358625               0.000000000               0.000000000               0.000000000               0.000000000               0.000037250               0.001420324               0.000000085              -0.000163571               0.000527960               0.000364389               0.000000000               0.000000000               0.000000000               0.000000000               0.000129957               0.000245014              -0.000106762               0.000018107               0.000075635               0.000093742               0.000000000               0.000000000               0.000000000               0.000000000               0.000109116               0.000325619              -0.000077442               0.000000216               0.000108467               0.000108683               0.000000000               0.000000000               0.000000000               0.000000000               0.000109231               0.000462075              -0.000041282              -0.000016798               0.000159623               0.000142825               0.000000000               0.000000000               0.000000000               0.000000000               0.000140051               0.000560230              -0.000021679              -0.000017509               0.000192578               0.000175068               0.000000000               0.000000000               0.000000000               0.000000000               0.000187305               0.000640415              -0.000013165              -0.000009812               0.000216740               0.000206928               0.000000000               0.000000000               0.000000000               0.000000000               0.000223190               0.000710968              -0.000015053              -0.000005175               0.000238712               0.000233537               0.000000000               0.000000000               0.000000000               0.000000000               0.000232527               0.000779051              -0.000025039              -0.000010184               0.000263075               0.000252892               0.000000000               0.000000000               0.000000000               0.000000000               0.000229197               0.000845890              -0.000035181              -0.000019787               0.000288556               0.000268769               0.000000000               0.000000000               0.000000000               0.000000000               0.000222940               0.000916654              -0.000040376              -0.000030979               0.000315875               0.000284895               0.000000000               0.000000000               0.000000000               0.000000000               0.000212637               0.000994232              -0.000041930              -0.000044540               0.000346254               0.000301714               0.000000000               0.000000000               0.000000000               0.000000000               0.000196645               0.001071266              -0.000040449              -0.000060166               0.000377140               0.000316974               0.000000000               0.000000000               0.000000000               0.000000000               0.000177464               0.001146710              -0.000036030              -0.000076790               0.000407829               0.000331040               0.000000000               0.000000000               0.000000000               0.000000000               0.000157939               0.001222334              -0.000028485              -0.000093564               0.000438629               0.000345064               0.000000000               0.000000000               0.000000000               0.000000000               0.000138028               0.001298394              -0.000019204              -0.000110538               0.000469640               0.000359101               0.000000000               0.000000000               0.000000000               0.000000000               0.000117808               0.001372416              -0.000010599              -0.000127374               0.000499926               0.000372552               0.000000000               0.000000000               0.000000000               0.000000000               0.000100469               0.001447050              -0.000003205              -0.000143205               0.000530080               0.000386875               0.000000000               0.000000000               0.000000000               0.000000000               0.000087218               0.001483221               0.000002224              -0.000152696               0.000545300               0.000392605               0.000000000               0.000000000               0.000000000               0.000000000               0.000125606               0.000211681              -0.000096739               0.000020642               0.000063679               0.000084321               0.000000000               0.000000000               0.000000000               0.000000000               0.000110959               0.000297755              -0.000080243               0.000004390               0.000097787               0.000102177               0.000000000               0.000000000               0.000000000               0.000000000               0.000116693               0.000445924              -0.000055242              -0.000011981               0.000152633               0.000140653               0.000000000               0.000000000               0.000000000               0.000000000               0.000144208               0.000564664              -0.000034906              -0.000016505               0.000193721               0.000177216               0.000000000               0.000000000               0.000000000               0.000000000               0.000186847               0.000658102              -0.000019727              -0.000012195               0.000223430               0.000211235               0.000000000               0.000000000               0.000000000               0.000000000               0.000228298               0.000733579              -0.000013180              -0.000006086               0.000246553               0.000240467               0.000000000               0.000000000               0.000000000               0.000000000               0.000248258               0.000801572              -0.000017196              -0.000007100               0.000269555               0.000262455               0.000000000               0.000000000               0.000000000               0.000000000               0.000250038               0.000866782              -0.000025822              -0.000014584               0.000293786               0.000279202               0.000000000               0.000000000               0.000000000               0.000000000               0.000247963               0.000931213              -0.000032718              -0.000023415               0.000318206               0.000294791               0.000000000               0.000000000               0.000000000               0.000000000               0.000243935               0.001002707              -0.000036574              -0.000033863               0.000345520               0.000311657               0.000000000               0.000000000               0.000000000               0.000000000               0.000237240               0.001079610              -0.000036649              -0.000045986               0.000375195               0.000329209               0.000000000               0.000000000               0.000000000               0.000000000               0.000226497               0.001154772              -0.000035028              -0.000059410               0.000404723               0.000345313               0.000000000               0.000000000               0.000000000               0.000000000               0.000212410               0.001226795              -0.000031058              -0.000073696               0.000433493               0.000359797               0.000000000               0.000000000               0.000000000               0.000000000               0.000199416               0.001303236              -0.000023778              -0.000088123               0.000463782               0.000375659               0.000000000               0.000000000               0.000000000               0.000000000               0.000184176               0.001376995              -0.000015179              -0.000103058               0.000493346               0.000390288               0.000000000               0.000000000               0.000000000               0.000000000               0.000167921               0.001450711              -0.000007007              -0.000118368               0.000523022               0.000404653               0.000000000               0.000000000               0.000000000               0.000000000               0.000151952               0.001483708               0.000000705              -0.000128481               0.000537391               0.000408910               0.000000000               0.000000000               0.000000000               0.000000000               0.000119023               0.000175684              -0.000082044               0.000022673               0.000051003               0.000073676               0.000000000               0.000000000               0.000000000               0.000000000               0.000114851               0.000267170              -0.000078996               0.000009673               0.000085831               0.000095504               0.000000000               0.000000000               0.000000000               0.000000000               0.000125720               0.000427439              -0.000066132              -0.000006285               0.000144573               0.000138288               0.000000000               0.000000000               0.000000000               0.000000000               0.000150563               0.000558420              -0.000046934              -0.000013341               0.000190585               0.000177244               0.000000000               0.000000000               0.000000000               0.000000000               0.000186176               0.000661683              -0.000027848              -0.000012894               0.000224857               0.000211962               0.000000000               0.000000000               0.000000000               0.000000000               0.000226052               0.000744543              -0.000013785              -0.000008298               0.000250945               0.000242646               0.000000000               0.000000000               0.000000000               0.000000000               0.000255875               0.000817822              -0.000010023              -0.000006275               0.000274696               0.000268422               0.000000000               0.000000000               0.000000000               0.000000000               0.000267500               0.000885747              -0.000015387              -0.000010406               0.000298715               0.000288309               0.000000000               0.000000000               0.000000000               0.000000000               0.000271589               0.000948639              -0.000022993              -0.000016734               0.000321788               0.000305054               0.000000000               0.000000000               0.000000000               0.000000000               0.000272945               0.001014146              -0.000028395              -0.000024414               0.000346183               0.000321769               0.000000000               0.000000000               0.000000000               0.000000000               0.000273164               0.001086597              -0.000030880              -0.000033388               0.000373325               0.000339937               0.000000000               0.000000000               0.000000000               0.000000000               0.000272249               0.001163169              -0.000030567              -0.000043302               0.000402153               0.000358851               0.000000000               0.000000000               0.000000000               0.000000000               0.000266431               0.001234727              -0.000029162              -0.000054429               0.000429714               0.000375285               0.000000000               0.000000000               0.000000000               0.000000000               0.000259039               0.001306706              -0.000025436              -0.000066199               0.000457630               0.000391432               0.000000000               0.000000000               0.000000000               0.000000000               0.000251026               0.001380117              -0.000018191              -0.000078380               0.000486161               0.000407781               0.000000000               0.000000000               0.000000000               0.000000000               0.000240128               0.001453096              -0.000009973              -0.000091589               0.000514890               0.000423301               0.000000000               0.000000000               0.000000000               0.000000000               0.000225018               0.001483130              -0.000002318              -0.000101009               0.000528041               0.000427032               0.000000000               0.000000000               0.000000000               0.000000000               0.000103860               0.000141730              -0.000066670               0.000021231               0.000040166               0.000061397               0.000000000               0.000000000               0.000000000               0.000000000               0.000117850               0.000237113              -0.000072675               0.000014554               0.000074186               0.000088740               0.000000000               0.000000000               0.000000000               0.000000000               0.000137861               0.000399475              -0.000069339               0.000001764               0.000132569               0.000134333               0.000000000               0.000000000               0.000000000               0.000000000               0.000160807               0.000534845              -0.000053269              -0.000006553               0.000180464               0.000173911               0.000000000               0.000000000               0.000000000               0.000000000               0.000188990               0.000648947              -0.000034358              -0.000010247               0.000219729               0.000209482               0.000000000               0.000000000               0.000000000               0.000000000               0.000225312               0.000745149              -0.000017053              -0.000008652               0.000251265               0.000242613               0.000000000               0.000000000               0.000000000               0.000000000               0.000259774               0.000829279              -0.000007245              -0.000006245               0.000278505               0.000272261               0.000000000               0.000000000               0.000000000               0.000000000               0.000282278               0.000904041              -0.000007533              -0.000007151               0.000303728               0.000296577               0.000000000               0.000000000               0.000000000               0.000000000               0.000293365               0.000968905              -0.000013403              -0.000011101               0.000326666               0.000315564               0.000000000               0.000000000               0.000000000               0.000000000               0.000299965               0.001029622              -0.000018400              -0.000016216               0.000348609               0.000332393               0.000000000               0.000000000               0.000000000               0.000000000               0.000304732               0.001095204              -0.000021924              -0.000022626               0.000372606               0.000349980               0.000000000               0.000000000               0.000000000               0.000000000               0.000309950               0.001167918              -0.000022848              -0.000029758               0.000399222               0.000369463               0.000000000               0.000000000               0.000000000               0.000000000               0.000313753               0.001241798              -0.000021906              -0.000037567               0.000426451               0.000388884               0.000000000               0.000000000               0.000000000               0.000000000               0.000313743               0.001310968              -0.000020581              -0.000046217               0.000452391               0.000406174               0.000000000               0.000000000               0.000000000               0.000000000               0.000313530               0.001381692              -0.000016533              -0.000055137               0.000478938               0.000423801               0.000000000               0.000000000               0.000000000               0.000000000               0.000313451               0.001455574              -0.000009466              -0.000064402               0.000506654               0.000442251               0.000000000               0.000000000               0.000000000               0.000000000               0.000306418               0.001486675              -0.000003335              -0.000070927               0.000519196               0.000448268               0.000000000               0.000000000               0.000000000               0.000000000               0.000084331               0.000109080              -0.000049135               0.000017989               0.000030364               0.000048352               0.000000000               0.000000000               0.000000000               0.000000000               0.000117857               0.000205589              -0.000060709               0.000018497               0.000062363               0.000080861               0.000000000               0.000000000               0.000000000               0.000000000               0.000150523               0.000365008              -0.000063956               0.000010820               0.000118061               0.000128881               0.000000000               0.000000000               0.000000000               0.000000000               0.000174429               0.000506054              -0.000052020               0.000002154               0.000167965               0.000170119               0.000000000               0.000000000               0.000000000               0.000000000               0.000199136               0.000631020              -0.000036656              -0.000004201               0.000211738               0.000207537               0.000000000               0.000000000               0.000000000               0.000000000               0.000229776               0.000739532              -0.000020531              -0.000006276               0.000248600               0.000242324               0.000000000               0.000000000               0.000000000               0.000000000               0.000263009               0.000833353              -0.000007799              -0.000005541               0.000279628               0.000274088               0.000000000               0.000000000               0.000000000               0.000000000               0.000290802               0.000914529              -0.000003179              -0.000005265               0.000306595               0.000301330               0.000000000               0.000000000               0.000000000               0.000000000               0.000309697               0.000984667              -0.000005230              -0.000006947               0.000330535               0.000323588               0.000000000               0.000000000               0.000000000               0.000000000               0.000322219               0.001044701              -0.000008716              -0.000009755               0.000351482               0.000341726               0.000000000               0.000000000               0.000000000               0.000000000               0.000332685               0.001105738              -0.000011830              -0.000013461               0.000373063               0.000359602               0.000000000               0.000000000               0.000000000               0.000000000               0.000342816               0.001172881              -0.000013502              -0.000018054               0.000396975               0.000378921               0.000000000               0.000000000               0.000000000               0.000000000               0.000353943               0.001246310              -0.000013041              -0.000023060               0.000423119               0.000400059               0.000000000               0.000000000               0.000000000               0.000000000               0.000363177               0.001317749              -0.000012026              -0.000028527               0.000448754               0.000420227               0.000000000               0.000000000               0.000000000               0.000000000               0.000370631               0.001385620              -0.000010654              -0.000034216               0.000473274               0.000439058               0.000000000               0.000000000               0.000000000               0.000000000               0.000379363               0.001455477              -0.000006305              -0.000039673               0.000498379               0.000458705               0.000000000               0.000000000               0.000000000               0.000000000               0.000381223               0.001488187              -0.000002393              -0.000043064               0.000510412               0.000467348               0.000000000               0.000000000               0.000000000               0.000000000               0.000067145               0.000085869              -0.000030868               0.000014446               0.000023808               0.000038253               0.000000000               0.000000000               0.000000000               0.000000000               0.000115771               0.000180213              -0.000043307               0.000020887               0.000053108               0.000073995               0.000000000               0.000000000               0.000000000               0.000000000               0.000160496               0.000334919              -0.000049499               0.000018321               0.000105531               0.000123852               0.000000000               0.000000000               0.000000000               0.000000000               0.000187857               0.000477875              -0.000042866               0.000010712               0.000155720               0.000166431               0.000000000               0.000000000               0.000000000               0.000000000               0.000212442               0.000609411              -0.000032240               0.000003489               0.000201972               0.000205461               0.000000000               0.000000000               0.000000000               0.000000000               0.000238324               0.000726915              -0.000019488              -0.000001493               0.000242800               0.000241307               0.000000000               0.000000000               0.000000000               0.000000000               0.000268135               0.000829725              -0.000007517              -0.000003165               0.000277627               0.000274462               0.000000000               0.000000000               0.000000000               0.000000000               0.000297565               0.000918688              -0.000001495              -0.000003249               0.000307309               0.000304060               0.000000000               0.000000000               0.000000000               0.000000000               0.000322185               0.000995715              -0.000001181              -0.000003645               0.000333117               0.000329472               0.000000000               0.000000000               0.000000000               0.000000000               0.000340384               0.001059519              -0.000002694              -0.000004796               0.000354768               0.000349972               0.000000000               0.000000000               0.000000000               0.000000000               0.000355281               0.001118280              -0.000004683              -0.000006555               0.000374941               0.000368386               0.000000000               0.000000000               0.000000000               0.000000000               0.000369661               0.001180023              -0.000005840              -0.000008880               0.000396297               0.000387417               0.000000000               0.000000000               0.000000000               0.000000000               0.000385438               0.001248937              -0.000005600              -0.000011578               0.000420167               0.000408589               0.000000000               0.000000000               0.000000000               0.000000000               0.000402488               0.001322569              -0.000004585              -0.000014388               0.000445648               0.000431260               0.000000000               0.000000000               0.000000000               0.000000000               0.000417308               0.001390078              -0.000004032              -0.000017269               0.000469111               0.000451842               0.000000000               0.000000000               0.000000000               0.000000000               0.000431613               0.001453869              -0.000002537              -0.000019879               0.000491245               0.000471366               0.000000000               0.000000000               0.000000000               0.000000000               0.000438497               0.001485794              -0.000000927              -0.000021288               0.000502356               0.000481068               0.000000000               0.000000000               0.000000000               0.000000000               0.000054276               0.000074452              -0.000015053               0.000011047               0.000021135               0.000032182               0.000000000               0.000000000               0.000000000               0.000000000               0.000113146               0.000164493              -0.000022885               0.000021868               0.000047541               0.000069409               0.000000000               0.000000000               0.000000000               0.000000000               0.000166901               0.000313479              -0.000027161               0.000023403               0.000096691               0.000120094               0.000000000               0.000000000               0.000000000               0.000000000               0.000198902               0.000457030              -0.000024343               0.000017459               0.000146522               0.000163981               0.000000000               0.000000000               0.000000000               0.000000000               0.000223329               0.000592063              -0.000019078               0.000009740               0.000194106               0.000203846               0.000000000               0.000000000               0.000000000               0.000000000               0.000246750               0.000713968              -0.000012470               0.000003285               0.000236892               0.000240177               0.000000000               0.000000000               0.000000000               0.000000000               0.000273669               0.000823715              -0.000005703              -0.000000339               0.000274682               0.000274343               0.000000000               0.000000000               0.000000000               0.000000000               0.000302938               0.000919932              -0.000001584              -0.000001390               0.000307104               0.000305714               0.000000000               0.000000000               0.000000000               0.000000000               0.000329250               0.001001664              -0.000000377              -0.000001739               0.000334464               0.000332725               0.000000000               0.000000000               0.000000000               0.000000000               0.000351073               0.001069976              -0.000000395              -0.000002095               0.000357353               0.000355259               0.000000000               0.000000000               0.000000000               0.000000000               0.000369393               0.001128492              -0.000001157              -0.000002539               0.000377007               0.000374468               0.000000000               0.000000000               0.000000000               0.000000000               0.000387105               0.001186371              -0.000001671              -0.000003132               0.000396497               0.000393365               0.000000000               0.000000000               0.000000000               0.000000000               0.000406572               0.001250711              -0.000001559              -0.000003874               0.000418191               0.000414317               0.000000000               0.000000000               0.000000000               0.000000000               0.000428523               0.001323429              -0.000000923              -0.000004732               0.000442716               0.000437984               0.000000000               0.000000000               0.000000000               0.000000000               0.000448633               0.001391930              -0.000000536              -0.000005754               0.000465890               0.000460136               0.000000000               0.000000000               0.000000000               0.000000000               0.000466143               0.001453733              -0.000000413              -0.000006913               0.000486877               0.000479964               0.000000000               0.000000000               0.000000000               0.000000000               0.000474379               0.001484803              -0.000000114              -0.000007708               0.000497499               0.000489791               0.000000000               0.000000000               0.000000000               0.000000000               0.000049493               0.000070603              -0.000000000               0.000009735               0.000020289               0.000030024               0.000000000               0.000000000               0.000000000               0.000000000               0.000112536               0.000158917              -0.000000000               0.000022336               0.000045527               0.000067863               0.000000000               0.000000000               0.000000000               0.000000000               0.000169404               0.000305566              -0.000000000               0.000025331               0.000093411               0.000118741               0.000000000               0.000000000               0.000000000               0.000000000               0.000203210               0.000448772               0.000000000               0.000020107               0.000142887               0.000162994               0.000000000               0.000000000               0.000000000               0.000000000               0.000228057               0.000585359               0.000000000               0.000012351               0.000191001               0.000203352               0.000000000               0.000000000               0.000000000               0.000000000               0.000251001               0.000709737               0.000000000               0.000005408               0.000234774               0.000240182               0.000000000               0.000000000               0.000000000               0.000000000               0.000276360               0.000821677               0.000000000               0.000000925               0.000273581               0.000274507               0.000000000               0.000000000               0.000000000               0.000000000               0.000304246               0.000919450              -0.000000000              -0.000000839               0.000306760               0.000305921               0.000000000               0.000000000               0.000000000               0.000000000               0.000330713               0.001002790              -0.000000000              -0.000001331               0.000334704               0.000333373               0.000000000               0.000000000               0.000000000               0.000000000               0.000354126               0.001073423              -0.000000000              -0.000001381               0.000358264               0.000356884               0.000000000               0.000000000               0.000000000               0.000000000               0.000374151               0.001131927              -0.000000000              -0.000001184               0.000377700               0.000376516               0.000000000               0.000000000               0.000000000               0.000000000               0.000393328               0.001188418              -0.000000000              -0.000001054               0.000396487               0.000395433               0.000000000               0.000000000               0.000000000               0.000000000               0.000414345               0.001251331              -0.000000000              -0.000001037               0.000417452               0.000416415               0.000000000               0.000000000               0.000000000               0.000000000               0.000437903               0.001322987              -0.000000000              -0.000001160               0.000441378               0.000440218               0.000000000               0.000000000               0.000000000               0.000000000               0.000459836               0.001391830               0.000000000              -0.000001540               0.000464452               0.000462912               0.000000000               0.000000000               0.000000000               0.000000000               0.000478346               0.001453832               0.000000000              -0.000002349               0.000485389               0.000483040               0.000000000               0.000000000               0.000000000               0.000000000               0.000486602               0.001484829               0.000000000              -0.000003128               0.000495981               0.000492853               0.000000000               0.000000000               0.000000000               0.000000000               0.000000000               0.000000000               0.000000000               0.000000000               0.000000000               0.000000000               0.000000000               0.000000000               0.000000000               0.000000000               0.000000000               0.000000000               0.000000000               0.000000000               0.000000000               0.000000000               0.000000000               0.000000000               0.000000000               0.000000000               0.000000000               0.000000000               0.000000000               0.000000000               0.000000000               0.000000000               0.000000000               0.000000000               0.000000000               0.000000000               0.000000000               0.000000000               0.000000000               0.000000000               0.000000000               0.000000000               0.000000000               0.000000000               0.000000000               0.000000000               0.000000000               0.000000000               0.000000000               0.000000000               0.000000000               0.000000000               0.000000000               0.000000000               0.000000000               0.000000000               0.000000000               0.000000000               0.000000000               0.000000000               0.000000000               0.000000000               0.000000000               0.000000000               0.000000000               0.000000000               0.000000000               0.000000000               0.000000000               0.000000000               0.000000000               0.000000000               0.000000000               0.000000000               0.000000000               0.000000000               0.000000000               0.000000000               0.000000000               0.000000000               0.000000000               0.000000000               0.000000000               0.000000000               0.000000000               0.000000000               0.000000000               0.000000000               0.000000000               0.000000000               0.000000000               0.000000000               0.000000000               0.000000000               0.000000000               0.000000000               0.000000000               0.000000000               0.000000000               0.000000000               0.000000000               0.000000000               0.000000000               0.000000000               0.000000000               0.000000000               0.000000000               0.000000000               0.000000000               0.000000000               0.000000000               0.000000000               0.000000000               0.000000000               0.000000000               0.000000000               0.000000000               0.000000000               0.000000000               0.000000000               0.000000000               0.000000000               0.000000000               0.000000000               0.000000000               0.000000000               0.000000000               0.000000000               0.000000000               0.000000000               0.000000000               0.000000000               0.000000000               0.000000000               0.000000000               0.000000000               0.000000000               0.000000000               0.000000000               0.000000000               0.000000000               0.000000000               0.000000000               0.000000000               0.000000000               0.000000000               0.000000000               0.000000000               0.000000000               0.000000000               0.000000000               0.000000000               0.000000000               0.000000000               0.000000000               0.000000000               0.000000000               0.000000000               0.000000000               0.000000000               0.000000000               0.000000000               0.000000000               0.000000000               0.000000000               0.000000000               0.000000000               0.000000000               0.000000000               0.000000000               0.000000000               0.000000000               0.000000000               0.000000000               0.000000000               0.000000000               0.000039180               0.000226164               0.000019962              -0.000013578               0.000079913               0.000066335               0.000000000               0.000000000               0.000000000               0.000000000               0.000048691               0.000192384               0.000010316              -0.000005789               0.000066057               0.000060268               0.000000000               0.000000000               0.000000000               0.000000000               0.000068179               0.000183618              -0.000000103               0.000002615               0.000060334               0.000062948               0.000000000               0.000000000               0.000000000               0.000000000               0.000068624               0.000191277              -0.000004161               0.000001824               0.000063150               0.000064975               0.000000000               0.000000000               0.000000000               0.000000000               0.000063083               0.000200246              -0.000001550              -0.000001374               0.000067206               0.000065832               0.000000000               0.000000000               0.000000000               0.000000000               0.000061340               0.000201418              -0.000000915              -0.000002175               0.000067863               0.000065689               0.000000000               0.000000000               0.000000000               0.000000000               0.000064079               0.000207285              -0.000003861              -0.000001881               0.000069722               0.000067840               0.000000000               0.000000000               0.000000000               0.000000000               0.000064400               0.000210594              -0.000003885              -0.000002174               0.000070922               0.000068748               0.000000000               0.000000000               0.000000000               0.000000000               0.000065592               0.000209805              -0.000002871              -0.000001629               0.000070477               0.000068849               0.000000000               0.000000000               0.000000000               0.000000000               0.000069581               0.000207530              -0.000001592               0.000000152               0.000069125               0.000069277               0.000000000               0.000000000               0.000000000               0.000000000               0.000072604               0.000203605              -0.000000088               0.000001776               0.000067276               0.000069052               0.000000000               0.000000000               0.000000000               0.000000000               0.000073355               0.000200527               0.000000608               0.000002442               0.000066028               0.000068470               0.000000000               0.000000000               0.000000000               0.000000000               0.000070915               0.000200670               0.000000548               0.000001509               0.000066386               0.000067896               0.000000000               0.000000000               0.000000000               0.000000000               0.000062761               0.000205580              -0.000000436              -0.000002162               0.000069247               0.000067085               0.000000000               0.000000000               0.000000000               0.000000000               0.000047815               0.000216420              -0.000001743              -0.000009122               0.000075180               0.000066058               0.000000000               0.000000000               0.000000000               0.000000000               0.000026087               0.000233877              -0.000002040              -0.000019452               0.000084442               0.000064990               0.000000000               0.000000000               0.000000000               0.000000000               0.000016806               0.000251614              -0.000000021              -0.000025149               0.000092254               0.000067104               0.000000000               0.000000000               0.000000000               0.000000000               0.000046705               0.000232445               0.000037654              -0.000011541               0.000081328               0.000069787               0.000000000               0.000000000               0.000000000               0.000000000               0.000052389               0.000199394               0.000018913              -0.000005278               0.000068223               0.000062945               0.000000000               0.000000000               0.000000000               0.000000000               0.000067976               0.000196813              -0.000001765               0.000000889               0.000065307               0.000066197               0.000000000               0.000000000               0.000000000               0.000000000               0.000071396               0.000211174              -0.000008911               0.000000377               0.000070265               0.000070642               0.000000000               0.000000000               0.000000000               0.000000000               0.000073372               0.000225200              -0.000003589              -0.000000635               0.000075278               0.000074642               0.000000000               0.000000000               0.000000000               0.000000000               0.000077206               0.000233853              -0.000001517              -0.000000280               0.000078044               0.000077764               0.000000000               0.000000000               0.000000000               0.000000000               0.000082843               0.000243554              -0.000004006               0.000000622               0.000080977               0.000081599               0.000000000               0.000000000               0.000000000               0.000000000               0.000086022               0.000248825              -0.000001053               0.000001155               0.000082556               0.000083711               0.000000000               0.000000000               0.000000000               0.000000000               0.000089052               0.000254268               0.000002526               0.000001611               0.000084218               0.000085829               0.000000000               0.000000000               0.000000000               0.000000000               0.000092266               0.000261958               0.000006485               0.000001855               0.000086700               0.000088555               0.000000000               0.000000000               0.000000000               0.000000000               0.000091410               0.000273022               0.000010469               0.000000151               0.000090956               0.000091107               0.000000000               0.000000000               0.000000000               0.000000000               0.000084646               0.000287782               0.000012964              -0.000004231               0.000097336               0.000093106               0.000000000               0.000000000               0.000000000               0.000000000               0.000074235               0.000307156               0.000013930              -0.000010557               0.000105903               0.000095347               0.000000000               0.000000000               0.000000000               0.000000000               0.000060595               0.000331014               0.000012916              -0.000018654               0.000116555               0.000097901               0.000000000               0.000000000               0.000000000               0.000000000               0.000043273               0.000359011               0.000010106              -0.000028649               0.000129219               0.000100570               0.000000000               0.000000000               0.000000000               0.000000000               0.000022515               0.000392160               0.000005673              -0.000040577               0.000144244               0.000103667               0.000000000               0.000000000               0.000000000               0.000000000               0.000016474               0.000420375               0.000006041              -0.000046369               0.000155580               0.000109211               0.000000000               0.000000000               0.000000000               0.000000000               0.000056370               0.000245042               0.000056903              -0.000009491               0.000084844               0.000075352               0.000000000               0.000000000               0.000000000               0.000000000               0.000060354               0.000219172               0.000028221              -0.000004764               0.000074645               0.000069881               0.000000000               0.000000000               0.000000000               0.000000000               0.000072752               0.000225500              -0.000002990              -0.000000905               0.000075468               0.000074562               0.000000000               0.000000000               0.000000000               0.000000000               0.000078419               0.000250339              -0.000011043              -0.000001885               0.000084074               0.000082189               0.000000000               0.000000000               0.000000000               0.000000000               0.000087265               0.000272922              -0.000003466              -0.000001391               0.000091437               0.000090046               0.000000000               0.000000000               0.000000000               0.000000000               0.000096938               0.000295380               0.000002358              -0.000000571               0.000098649               0.000098078               0.000000000               0.000000000               0.000000000               0.000000000               0.000106515               0.000312636               0.000002866               0.000000864               0.000103923               0.000104787               0.000000000               0.000000000               0.000000000               0.000000000               0.000115331               0.000328623               0.000008237               0.000002171               0.000108816               0.000110987               0.000000000               0.000000000               0.000000000               0.000000000               0.000118949               0.000344861               0.000014557               0.000001498               0.000114453               0.000115951               0.000000000               0.000000000               0.000000000               0.000000000               0.000120878               0.000365751               0.000020483              -0.000000390               0.000122046               0.000121656               0.000000000               0.000000000               0.000000000               0.000000000               0.000117291               0.000392680               0.000025313              -0.000005101               0.000132592               0.000127491               0.000000000               0.000000000               0.000000000               0.000000000               0.000104499               0.000424408               0.000028079              -0.000013864               0.000146089               0.000132225               0.000000000               0.000000000               0.000000000               0.000000000               0.000087200               0.000461103               0.000028434              -0.000024938               0.000162012               0.000137074               0.000000000               0.000000000               0.000000000               0.000000000               0.000067344               0.000500963               0.000026164              -0.000037366               0.000179441               0.000142075               0.000000000               0.000000000               0.000000000               0.000000000               0.000045062               0.000542024               0.000020851              -0.000050854               0.000197624               0.000146770               0.000000000               0.000000000               0.000000000               0.000000000               0.000022181               0.000583255               0.000011967              -0.000064589               0.000215946               0.000151357               0.000000000               0.000000000               0.000000000               0.000000000               0.000016309               0.000613237               0.000009818              -0.000070539               0.000227923               0.000157384               0.000000000               0.000000000               0.000000000               0.000000000               0.000071306               0.000260441               0.000073419              -0.000005815               0.000088751               0.000082936               0.000000000               0.000000000               0.000000000               0.000000000               0.000068796               0.000245464               0.000038357              -0.000004885               0.000083449               0.000078564               0.000000000               0.000000000               0.000000000               0.000000000               0.000078247               0.000270857               0.000001324              -0.000004515               0.000091790               0.000087275               0.000000000               0.000000000               0.000000000               0.000000000               0.000089647               0.000312090              -0.000009322              -0.000005394               0.000105827               0.000100433               0.000000000               0.000000000               0.000000000               0.000000000               0.000109991               0.000351552              -0.000001808              -0.000002697               0.000118082               0.000115384               0.000000000               0.000000000               0.000000000               0.000000000               0.000126206               0.000384225               0.000006900              -0.000000701               0.000128307               0.000127607               0.000000000               0.000000000               0.000000000               0.000000000               0.000137297               0.000411279               0.000009925               0.000000076               0.000137066               0.000137143               0.000000000               0.000000000               0.000000000               0.000000000               0.000144111               0.000438334               0.000017708              -0.000000750               0.000146360               0.000145610               0.000000000               0.000000000               0.000000000               0.000000000               0.000143803               0.000465645               0.000026838              -0.000004279               0.000156640               0.000152360               0.000000000               0.000000000               0.000000000               0.000000000               0.000141712               0.000499589               0.000033446              -0.000009307               0.000169630               0.000160323               0.000000000               0.000000000               0.000000000               0.000000000               0.000133376               0.000538897               0.000037853              -0.000017346               0.000185412               0.000168067               0.000000000               0.000000000               0.000000000               0.000000000               0.000116458               0.000581371               0.000039086              -0.000028999               0.000203455               0.000174455               0.000000000               0.000000000               0.000000000               0.000000000               0.000095798               0.000626031               0.000037284              -0.000042330               0.000222785               0.000180455               0.000000000               0.000000000               0.000000000               0.000000000               0.000073342               0.000671166               0.000032370              -0.000056392               0.000242517               0.000186125               0.000000000               0.000000000               0.000000000               0.000000000               0.000048872               0.000714575               0.000024322              -0.000070995               0.000261854               0.000190859               0.000000000               0.000000000               0.000000000               0.000000000               0.000023925               0.000754539               0.000013269              -0.000085345               0.000279959               0.000194614               0.000000000               0.000000000               0.000000000               0.000000000               0.000016853               0.000781857               0.000010032              -0.000091412               0.000291087               0.000199675               0.000000000               0.000000000               0.000000000               0.000000000               0.000085635               0.000271758               0.000089328              -0.000001857               0.000091204               0.000089347               0.000000000               0.000000000               0.000000000               0.000000000               0.000076524               0.000272229               0.000049306              -0.000005332               0.000092519               0.000087187               0.000000000               0.000000000               0.000000000               0.000000000               0.000087336               0.000329331               0.000006734              -0.000008415               0.000112581               0.000104165               0.000000000               0.000000000               0.000000000               0.000000000               0.000107100               0.000387609              -0.000007170              -0.000008288               0.000131964               0.000123676               0.000000000               0.000000000               0.000000000               0.000000000               0.000135178               0.000435472               0.000002764              -0.000003742               0.000146403               0.000142661               0.000000000               0.000000000               0.000000000               0.000000000               0.000155274               0.000471405               0.000014408              -0.000000698               0.000157366               0.000156668               0.000000000               0.000000000               0.000000000               0.000000000               0.000167222               0.000507818               0.000019845              -0.000000769               0.000169527               0.000168758               0.000000000               0.000000000               0.000000000               0.000000000               0.000168742               0.000542732               0.000028867              -0.000004563               0.000182430               0.000177867               0.000000000               0.000000000               0.000000000               0.000000000               0.000162626               0.000581102               0.000038329              -0.000011653               0.000197583               0.000185930               0.000000000               0.000000000               0.000000000               0.000000000               0.000154044               0.000626236               0.000043146              -0.000020513               0.000215581               0.000195068               0.000000000               0.000000000               0.000000000               0.000000000               0.000139705               0.000675931               0.000045074              -0.000032102               0.000236009               0.000203907               0.000000000               0.000000000               0.000000000               0.000000000               0.000117885               0.000725587               0.000043888              -0.000046491               0.000257357               0.000210865               0.000000000               0.000000000               0.000000000               0.000000000               0.000094499               0.000774847               0.000039583              -0.000061419               0.000278753               0.000217334               0.000000000               0.000000000               0.000000000               0.000000000               0.000071130               0.000822359               0.000032516              -0.000076121               0.000299491               0.000223370               0.000000000               0.000000000               0.000000000               0.000000000               0.000046616               0.000866202               0.000023307              -0.000090794               0.000318996               0.000228202               0.000000000               0.000000000               0.000000000               0.000000000               0.000022631               0.000906420               0.000012267              -0.000104816               0.000337076               0.000232260               0.000000000               0.000000000               0.000000000               0.000000000               0.000016471               0.000934200               0.000009447              -0.000110598               0.000348263               0.000237665               0.000000000               0.000000000               0.000000000               0.000000000               0.000098354               0.000278883               0.000104533               0.000002022               0.000092286               0.000094308               0.000000000               0.000000000               0.000000000               0.000000000               0.000086653               0.000301517               0.000059314              -0.000005195               0.000102236               0.000097041               0.000000000               0.000000000               0.000000000               0.000000000               0.000098798               0.000386128               0.000013570              -0.000011217               0.000132447               0.000121230               0.000000000               0.000000000               0.000000000               0.000000000               0.000123846               0.000454797               0.000001102              -0.000010407               0.000155066               0.000144659               0.000000000               0.000000000               0.000000000               0.000000000               0.000156926               0.000503195               0.000009646              -0.000004052               0.000169081               0.000165029               0.000000000               0.000000000               0.000000000               0.000000000               0.000179726               0.000544058               0.000019790              -0.000000610               0.000181554               0.000180944               0.000000000               0.000000000               0.000000000               0.000000000               0.000187744               0.000588749               0.000025313              -0.000003190               0.000197311               0.000194121               0.000000000               0.000000000               0.000000000               0.000000000               0.000183631               0.000633074               0.000034865              -0.000010273               0.000214447               0.000204174               0.000000000               0.000000000               0.000000000               0.000000000               0.000173380               0.000683325               0.000043343              -0.000020398               0.000234572               0.000214174               0.000000000               0.000000000               0.000000000               0.000000000               0.000160936               0.000741169               0.000045877              -0.000032295               0.000257819               0.000225524               0.000000000               0.000000000               0.000000000               0.000000000               0.000141431               0.000800584               0.000045632              -0.000047036               0.000282538               0.000235501               0.000000000               0.000000000               0.000000000               0.000000000               0.000116645               0.000859205               0.000043005              -0.000063659               0.000307618               0.000243960               0.000000000               0.000000000               0.000000000               0.000000000               0.000092634               0.000916793               0.000037230              -0.000079861               0.000332215               0.000252354               0.000000000               0.000000000               0.000000000               0.000000000               0.000068752               0.000971787               0.000029721              -0.000095691               0.000355823               0.000260132               0.000000000               0.000000000               0.000000000               0.000000000               0.000044417               0.001022960               0.000020961              -0.000111213               0.000378054               0.000266841               0.000000000               0.000000000               0.000000000               0.000000000               0.000021739               0.001069577               0.000010984              -0.000125545               0.000398370               0.000272826               0.000000000               0.000000000               0.000000000               0.000000000               0.000016299               0.001100439               0.000009034              -0.000131442               0.000410624               0.000279181               0.000000000               0.000000000               0.000000000               0.000000000               0.000113213               0.000277549               0.000112818               0.000007761               0.000089929               0.000097689               0.000000000               0.000000000               0.000000000               0.000000000               0.000096496               0.000326282               0.000068746              -0.000004599               0.000110293               0.000105693               0.000000000               0.000000000               0.000000000               0.000000000               0.000107186               0.000432519               0.000022393              -0.000013870               0.000148795               0.000134925               0.000000000               0.000000000               0.000000000               0.000000000               0.000137558               0.000508325               0.000007472              -0.000011956               0.000173425               0.000161469               0.000000000               0.000000000               0.000000000               0.000000000               0.000173977               0.000560039               0.000011349              -0.000004763               0.000188266               0.000183502               0.000000000               0.000000000               0.000000000               0.000000000               0.000196902               0.000612217               0.000019958              -0.000002689               0.000204967               0.000202278               0.000000000               0.000000000               0.000000000               0.000000000               0.000198625               0.000667176               0.000026657              -0.000008913               0.000225361               0.000216448               0.000000000               0.000000000               0.000000000               0.000000000               0.000191265               0.000724807               0.000037624              -0.000018876               0.000247892               0.000229016               0.000000000               0.000000000               0.000000000               0.000000000               0.000180846               0.000790185               0.000043734              -0.000030956               0.000273711               0.000242755               0.000000000               0.000000000               0.000000000               0.000000000               0.000166501               0.000862155               0.000045053              -0.000045332               0.000302493               0.000257161               0.000000000               0.000000000               0.000000000               0.000000000               0.000144650               0.000932309               0.000043900              -0.000062295               0.000331531               0.000269237               0.000000000               0.000000000               0.000000000               0.000000000               0.000120730               0.001001111               0.000039285              -0.000079865               0.000360322               0.000280457               0.000000000               0.000000000               0.000000000               0.000000000               0.000096675               0.001068425               0.000032339              -0.000097300               0.000388571               0.000291272               0.000000000               0.000000000               0.000000000               0.000000000               0.000072010               0.001132080               0.000024086              -0.000114506               0.000415525               0.000301019               0.000000000               0.000000000               0.000000000               0.000000000               0.000046956               0.001191188               0.000015557              -0.000131290               0.000440822               0.000309532               0.000000000               0.000000000               0.000000000               0.000000000               0.000023591               0.001244128               0.000007732              -0.000146669               0.000463595               0.000316926               0.000000000               0.000000000               0.000000000               0.000000000               0.000016028               0.001277230               0.000006835              -0.000153643               0.000476953               0.000323310               0.000000000               0.000000000               0.000000000               0.000000000               0.000127171               0.000267692               0.000112044               0.000014227               0.000084487               0.000098715               0.000000000               0.000000000               0.000000000               0.000000000               0.000105113               0.000338609               0.000074135              -0.000002909               0.000113838               0.000110929               0.000000000               0.000000000               0.000000000               0.000000000               0.000107954               0.000464347               0.000029842              -0.000017561               0.000160634               0.000143074               0.000000000               0.000000000               0.000000000               0.000000000               0.000140291               0.000545286               0.000011124              -0.000015551               0.000186944               0.000171392               0.000000000               0.000000000               0.000000000               0.000000000               0.000184013               0.000606739               0.000009684              -0.000006838               0.000204524               0.000197686               0.000000000               0.000000000               0.000000000               0.000000000               0.000210154               0.000671152               0.000016751              -0.000005086               0.000225410               0.000220324               0.000000000               0.000000000               0.000000000               0.000000000               0.000210553               0.000736433               0.000026677              -0.000013097               0.000249841               0.000236744               0.000000000               0.000000000               0.000000000               0.000000000               0.000204517               0.000804563               0.000037249              -0.000023876               0.000276144               0.000252267               0.000000000               0.000000000               0.000000000               0.000000000               0.000195562               0.000880598               0.000041515              -0.000036739               0.000305776               0.000269037               0.000000000               0.000000000               0.000000000               0.000000000               0.000180316               0.000960530               0.000042126              -0.000052448               0.000337656               0.000285208               0.000000000               0.000000000               0.000000000               0.000000000               0.000159899               0.001038010               0.000040609              -0.000069789               0.000369263               0.000299474               0.000000000               0.000000000               0.000000000               0.000000000               0.000138311               0.001114129               0.000034460              -0.000087399               0.000400506               0.000313106               0.000000000               0.000000000               0.000000000               0.000000000               0.000115820               0.001188641               0.000026305              -0.000105147               0.000431259               0.000326112               0.000000000               0.000000000               0.000000000               0.000000000               0.000091748               0.001259140               0.000017407              -0.000122987               0.000460705               0.000337718               0.000000000               0.000000000               0.000000000               0.000000000               0.000068225               0.001325733               0.000008788              -0.000140132               0.000488617               0.000348485               0.000000000               0.000000000               0.000000000               0.000000000               0.000047593               0.001386925               0.000002028              -0.000155518               0.000514143               0.000358625               0.000000000               0.000000000               0.000000000               0.000000000               0.000037250               0.001420324              -0.000000085              -0.000163571               0.000527960               0.000364389               0.000000000               0.000000000               0.000000000               0.000000000               0.000129957               0.000245014               0.000106762               0.000018107               0.000075635               0.000093742               0.000000000               0.000000000               0.000000000               0.000000000               0.000109116               0.000325619               0.000077442               0.000000216               0.000108467               0.000108683               0.000000000               0.000000000               0.000000000               0.000000000               0.000109231               0.000462075               0.000041282              -0.000016798               0.000159623               0.000142825               0.000000000               0.000000000               0.000000000               0.000000000               0.000140051               0.000560230               0.000021679              -0.000017509               0.000192578               0.000175068               0.000000000               0.000000000               0.000000000               0.000000000               0.000187305               0.000640415               0.000013165              -0.000009812               0.000216740               0.000206928               0.000000000               0.000000000               0.000000000               0.000000000               0.000223190               0.000710968               0.000015053              -0.000005175               0.000238712               0.000233537               0.000000000               0.000000000               0.000000000               0.000000000               0.000232527               0.000779051               0.000025039              -0.000010184               0.000263075               0.000252892               0.000000000               0.000000000               0.000000000               0.000000000               0.000229197               0.000845890               0.000035181              -0.000019787               0.000288556               0.000268769               0.000000000               0.000000000               0.000000000               0.000000000               0.000222940               0.000916654               0.000040376              -0.000030979               0.000315875               0.000284895               0.000000000               0.000000000               0.000000000               0.000000000               0.000212637               0.000994232               0.000041930              -0.000044540               0.000346254               0.000301714               0.000000000               0.000000000               0.000000000               0.000000000               0.000196645               0.001071266               0.000040449              -0.000060166               0.000377140               0.000316974               0.000000000               0.000000000               0.000000000               0.000000000               0.000177464               0.001146710               0.000036030              -0.000076790               0.000407829               0.000331040               0.000000000               0.000000000               0.000000000               0.000000000               0.000157939               0.001222334               0.000028485              -0.000093564               0.000438629               0.000345064               0.000000000               0.000000000               0.000000000               0.000000000               0.000138028               0.001298394               0.000019204              -0.000110538               0.000469640               0.000359101               0.000000000               0.000000000               0.000000000               0.000000000               0.000117808               0.001372416               0.000010599              -0.000127374               0.000499926               0.000372552               0.000000000               0.000000000               0.000000000               0.000000000               0.000100469               0.001447050               0.000003205              -0.000143205               0.000530080               0.000386875               0.000000000               0.000000000               0.000000000               0.000000000               0.000087218               0.001483221              -0.000002224              -0.000152696               0.000545300               0.000392605               0.000000000               0.000000000               0.000000000               0.000000000               0.000125606               0.000211681               0.000096739               0.000020642               0.000063679               0.000084321               0.000000000               0.000000000               0.000000000               0.000000000               0.000110959               0.000297755               0.000080243               0.000004390               0.000097787               0.000102177               0.000000000               0.000000000               0.000000000               0.000000000               0.000116693               0.000445924               0.000055242              -0.000011981               0.000152633               0.000140653               0.000000000               0.000000000               0.000000000               0.000000000               0.000144208               0.000564664               0.000034906              -0.000016505               0.000193721               0.000177216               0.000000000               0.000000000               0.000000000               0.000000000               0.000186847               0.000658102               0.000019727              -0.000012195               0.000223430               0.000211235               0.000000000               0.000000000               0.000000000               0.000000000               0.000228298               0.000733579               0.000013180              -0.000006086               0.000246553               0.000240467               0.000000000               0.000000000               0.000000000               0.000000000               0.000248258               0.000801572               0.000017196              -0.000007100               0.000269555               0.000262455               0.000000000               0.000000000               0.000000000               0.000000000               0.000250038               0.000866782               0.000025822              -0.000014584               0.000293786               0.000279202               0.000000000               0.000000000               0.000000000               0.000000000               0.000247963               0.000931213               0.000032718              -0.000023415               0.000318206               0.000294791               0.000000000               0.000000000               0.000000000               0.000000000               0.000243935               0.001002707               0.000036574              -0.000033863               0.000345520               0.000311657               0.000000000               0.000000000               0.000000000               0.000000000               0.000237240               0.001079610               0.000036649              -0.000045986               0.000375195               0.000329209               0.000000000               0.000000000               0.000000000               0.000000000               0.000226497               0.001154772               0.000035028              -0.000059410               0.000404723               0.000345313               0.000000000               0.000000000               0.000000000               0.000000000               0.000212410               0.001226795               0.000031058              -0.000073696               0.000433493               0.000359797               0.000000000               0.000000000               0.000000000               0.000000000               0.000199416               0.001303236               0.000023778              -0.000088123               0.000463782               0.000375659               0.000000000               0.000000000               0.000000000               0.000000000               0.000184176               0.001376995               0.000015179              -0.000103058               0.000493346               0.000390288               0.000000000               0.000000000               0.000000000               0.000000000               0.000167921               0.001450711               0.000007007              -0.000118368               0.000523022               0.000404653               0.000000000               0.000000000               0.000000000               0.000000000               0.000151952               0.001483708              -0.000000705              -0.000128481               0.000537391               0.000408910               0.000000000               0.000000000               0.000000000               0.000000000               0.000119023               0.000175684               0.000082044               0.000022673               0.000051003               0.000073676               0.000000000               0.000000000               0.000000000               0.000000000               0.000114851               0.000267170               0.000078996               0.000009673               0.000085831               0.000095504               0.000000000               0.000000000               0.000000000               0.000000000               0.000125720               0.000427439               0.000066132              -0.000006285               0.000144573               0.000138288               0.000000000               0.000000000               0.000000000               0.000000000               0.000150563               0.000558420               0.000046934              -0.000013341               0.000190585               0.000177244               0.000000000               0.000000000               0.000000000               0.000000000               0.000186176               0.000661683               0.000027848              -0.000012894               0.000224857               0.000211962               0.000000000               0.000000000               0.000000000               0.000000000               0.000226052               0.000744543               0.000013785              -0.000008298               0.000250945               0.000242646               0.000000000               0.000000000               0.000000000               0.000000000               0.000255875               0.000817822               0.000010023              -0.000006275               0.000274696               0.000268422               0.000000000               0.000000000               0.000000000               0.000000000               0.000267500               0.000885747               0.000015387              -0.000010406               0.000298715               0.000288309               0.000000000               0.000000000               0.000000000               0.000000000               0.000271589               0.000948639               0.000022993              -0.000016734               0.000321788               0.000305054               0.000000000               0.000000000               0.000000000               0.000000000               0.000272945               0.001014146               0.000028395              -0.000024414               0.000346183               0.000321769               0.000000000               0.000000000               0.000000000               0.000000000               0.000273164               0.001086597               0.000030880              -0.000033388               0.000373325               0.000339937               0.000000000               0.000000000               0.000000000               0.000000000               0.000272249               0.001163169               0.000030567              -0.000043302               0.000402153               0.000358851               0.000000000               0.000000000               0.000000000               0.000000000               0.000266431               0.001234727               0.000029162              -0.000054429               0.000429714               0.000375285               0.000000000               0.000000000               0.000000000               0.000000000               0.000259039               0.001306706               0.000025436              -0.000066199               0.000457630               0.000391432               0.000000000               0.000000000               0.000000000               0.000000000               0.000251026               0.001380117               0.000018191              -0.000078380               0.000486161               0.000407781               0.000000000               0.000000000               0.000000000               0.000000000               0.000240128               0.001453096               0.000009973              -0.000091589               0.000514890               0.000423301               0.000000000               0.000000000               0.000000000               0.000000000               0.000225018               0.001483130               0.000002318              -0.000101009               0.000528041               0.000427032               0.000000000               0.000000000               0.000000000               0.000000000               0.000103860               0.000141730               0.000066670               0.000021231               0.000040166               0.000061397               0.000000000               0.000000000               0.000000000               0.000000000               0.000117850               0.000237113               0.000072675               0.000014554               0.000074186               0.000088740               0.000000000               0.000000000               0.000000000               0.000000000               0.000137861               0.000399475               0.000069339               0.000001764               0.000132569               0.000134333               0.000000000               0.000000000               0.000000000               0.000000000               0.000160807               0.000534845               0.000053269              -0.000006553               0.000180464               0.000173911               0.000000000               0.000000000               0.000000000               0.000000000               0.000188990               0.000648947               0.000034358              -0.000010247               0.000219729               0.000209482               0.000000000               0.000000000               0.000000000               0.000000000               0.000225312               0.000745149               0.000017053              -0.000008652               0.000251265               0.000242613               0.000000000               0.000000000               0.000000000               0.000000000               0.000259774               0.000829279               0.000007245              -0.000006245               0.000278505               0.000272261               0.000000000               0.000000000               0.000000000               0.000000000               0.000282278               0.000904041               0.000007533              -0.000007151               0.000303728               0.000296577               0.000000000               0.000000000               0.000000000               0.000000000               0.000293365               0.000968905               0.000013403              -0.000011101               0.000326666               0.000315564               0.000000000               0.000000000               0.000000000               0.000000000               0.000299965               0.001029622               0.000018400              -0.000016216               0.000348609               0.000332393               0.000000000               0.000000000               0.000000000               0.000000000               0.000304732               0.001095204               0.000021924              -0.000022626               0.000372606               0.000349980               0.000000000               0.000000000               0.000000000               0.000000000               0.000309950               0.001167918               0.000022848              -0.000029758               0.000399222               0.000369463               0.000000000               0.000000000               0.000000000               0.000000000               0.000313753               0.001241798               0.000021906              -0.000037567               0.000426451               0.000388884               0.000000000               0.000000000               0.000000000               0.000000000               0.000313743               0.001310968               0.000020581              -0.000046217               0.000452391               0.000406174               0.000000000               0.000000000               0.000000000               0.000000000               0.000313530               0.001381692               0.000016533              -0.000055137               0.000478938               0.000423801               0.000000000               0.000000000               0.000000000               0.000000000               0.000313451               0.001455574               0.000009466              -0.000064402               0.000506654               0.000442251               0.000000000               0.000000000               0.000000000               0.000000000               0.000306418               0.001486675               0.000003335              -0.000070927               0.000519196               0.000448268               0.000000000               0.000000000               0.000000000               0.000000000               0.000084331               0.000109080               0.000049135               0.000017989               0.000030364               0.000048352               0.000000000               0.000000000               0.000000000               0.000000000               0.000117857               0.000205589               0.000060709               0.000018497               0.000062363               0.000080861               0.000000000               0.000000000               0.000000000               0.000000000               0.000150523               0.000365008               0.000063956               0.000010820               0.000118061               0.000128881               0.000000000               0.000000000               0.000000000               0.000000000               0.000174429               0.000506054               0.000052020               0.000002154               0.000167965               0.000170119               0.000000000               0.000000000               0.000000000               0.000000000               0.000199136               0.000631020               0.000036656              -0.000004201               0.000211738               0.000207537               0.000000000               0.000000000               0.000000000               0.000000000               0.000229776               0.000739532               0.000020531              -0.000006276               0.000248600               0.000242324               0.000000000               0.000000000               0.000000000               0.000000000               0.000263009               0.000833353               0.000007799              -0.000005541               0.000279628               0.000274088               0.000000000               0.000000000               0.000000000               0.000000000               0.000290802               0.000914529               0.000003179              -0.000005265               0.000306595               0.000301330               0.000000000               0.000000000               0.000000000               0.000000000               0.000309697               0.000984667               0.000005230              -0.000006947               0.000330535               0.000323588               0.000000000               0.000000000               0.000000000               0.000000000               0.000322219               0.001044701               0.000008716              -0.000009755               0.000351482               0.000341726               0.000000000               0.000000000               0.000000000               0.000000000               0.000332685               0.001105738               0.000011830              -0.000013461               0.000373063               0.000359602               0.000000000               0.000000000               0.000000000               0.000000000               0.000342816               0.001172881               0.000013502              -0.000018054               0.000396975               0.000378921               0.000000000               0.000000000               0.000000000               0.000000000               0.000353943               0.001246310               0.000013041              -0.000023060               0.000423119               0.000400059               0.000000000               0.000000000               0.000000000               0.000000000               0.000363177               0.001317749               0.000012026              -0.000028527               0.000448754               0.000420227               0.000000000               0.000000000               0.000000000               0.000000000               0.000370631               0.001385620               0.000010654              -0.000034216               0.000473274               0.000439058               0.000000000               0.000000000               0.000000000               0.000000000               0.000379363               0.001455477               0.000006305              -0.000039673               0.000498379               0.000458705               0.000000000               0.000000000               0.000000000               0.000000000               0.000381223               0.001488187               0.000002393              -0.000043064               0.000510412               0.000467348               0.000000000               0.000000000               0.000000000               0.000000000               0.000067145               0.000085869               0.000030868               0.000014446               0.000023808               0.000038253               0.000000000               0.000000000               0.000000000               0.000000000               0.000115771               0.000180213               0.000043307               0.000020887               0.000053108               0.000073995               0.000000000               0.000000000               0.000000000               0.000000000               0.000160496               0.000334919               0.000049499               0.000018321               0.000105531               0.000123852               0.000000000               0.000000000               0.000000000               0.000000000               0.000187857               0.000477875               0.000042866               0.000010712               0.000155720               0.000166431               0.000000000               0.000000000               0.000000000               0.000000000               0.000212442               0.000609411               0.000032240               0.000003489               0.000201972               0.000205461               0.000000000               0.000000000               0.000000000               0.000000000               0.000238324               0.000726915               0.000019488              -0.000001493               0.000242800               0.000241307               0.000000000               0.000000000               0.000000000               0.000000000               0.000268135               0.000829725               0.000007517              -0.000003165               0.000277627               0.000274462               0.000000000               0.000000000               0.000000000               0.000000000               0.000297565               0.000918688               0.000001495              -0.000003249               0.000307309               0.000304060               0.000000000               0.000000000               0.000000000               0.000000000               0.000322185               0.000995715               0.000001181              -0.000003645               0.000333117               0.000329472               0.000000000               0.000000000               0.000000000               0.000000000               0.000340384               0.001059519               0.000002694              -0.000004796               0.000354768               0.000349972               0.000000000               0.000000000               0.000000000               0.000000000               0.000355281               0.001118280               0.000004683              -0.000006555               0.000374941               0.000368386               0.000000000               0.000000000               0.000000000               0.000000000               0.000369661               0.001180023               0.000005840              -0.000008880               0.000396297               0.000387417               0.000000000               0.000000000               0.000000000               0.000000000               0.000385438               0.001248937               0.000005600              -0.000011578               0.000420167               0.000408589               0.000000000               0.000000000               0.000000000               0.000000000               0.000402488               0.001322569               0.000004585              -0.000014388               0.000445648               0.000431260               0.000000000               0.000000000               0.000000000               0.000000000               0.000417308               0.001390078               0.000004032              -0.000017269               0.000469111               0.000451842               0.000000000               0.000000000               0.000000000               0.000000000               0.000431613               0.001453869               0.000002537              -0.000019879               0.000491245               0.000471366               0.000000000               0.000000000               0.000000000               0.000000000               0.000438497               0.001485794               0.000000927              -0.000021288               0.000502356               0.000481068               0.000000000               0.000000000               0.000000000               0.000000000               0.000054276               0.000074452               0.000015053               0.000011047               0.000021135               0.000032182               0.000000000               0.000000000               0.000000000               0.000000000               0.000113146               0.000164493               0.000022885               0.000021868               0.000047541               0.000069409               0.000000000               0.000000000               0.000000000               0.000000000               0.000166901               0.000313479               0.000027161               0.000023403               0.000096691               0.000120094               0.000000000               0.000000000               0.000000000               0.000000000               0.000198902               0.000457030               0.000024343               0.000017459               0.000146522               0.000163981               0.000000000               0.000000000               0.000000000               0.000000000               0.000223329               0.000592063               0.000019078               0.000009740               0.000194106               0.000203846               0.000000000               0.000000000               0.000000000               0.000000000               0.000246750               0.000713968               0.000012470               0.000003285               0.000236892               0.000240177               0.000000000               0.000000000               0.000000000               0.000000000               0.000273669               0.000823715               0.000005703              -0.000000339               0.000274682               0.000274343               0.000000000               0.000000000               0.000000000               0.000000000               0.000302938               0.000919932               0.000001584              -0.000001390               0.000307104               0.000305714               0.000000000               0.000000000               0.000000000               0.000000000               0.000329250               0.001001664               0.000000377              -0.000001739               0.000334464               0.000332725               0.000000000               0.000000000               0.000000000               0.000000000               0.000351073               0.001069976               0.000000395              -0.000002095               0.000357353               0.000355259               0.000000000               0.000000000               0.000000000               0.000000000               0.000369393               0.001128492               0.000001157              -0.000002539               0.000377007               0.000374468               0.000000000               0.000000000               0.000000000               0.000000000               0.000387105               0.001186371               0.000001671              -0.000003132               0.000396497               0.000393365               0.000000000               0.000000000               0.000000000               0.000000000               0.000406572               0.001250711               0.000001559              -0.000003874               0.000418191               0.000414317               0.000000000               0.000000000               0.000000000               0.000000000               0.000428523               0.001323429               0.000000923              -0.000004732               0.000442716               0.000437984               0.000000000               0.000000000               0.000000000               0.000000000               0.000448633               0.001391930               0.000000536              -0.000005754               0.000465890               0.000460136               0.000000000               0.000000000               0.000000000               0.000000000               0.000466143               0.001453733               0.000000413              -0.000006913               0.000486877               0.000479964               0.000000000               0.000000000               0.000000000               0.000000000               0.000474379               0.001484803               0.000000114              -0.000007708               0.000497499               0.000489791               0.000000000               0.000000000               0.000000000               0.000000000               0.000049493               0.000070603               0.000000000               0.000009735               0.000020289               0.000030024               0.000000000               0.000000000               0.000000000               0.000000000               0.000112536               0.000158917               0.000000000               0.000022336               0.000045527               0.000067863               0.000000000               0.000000000               0.000000000               0.000000000               0.000169404               0.000305566               0.000000000               0.000025331               0.000093411               0.000118741               0.000000000               0.000000000               0.000000000               0.000000000               0.000203210               0.000448772               0.000000000               0.000020107               0.000142887               0.000162994               0.000000000               0.000000000               0.000000000               0.000000000               0.000228057               0.000585359               0.000000000               0.000012351               0.000191001               0.000203352               0.000000000               0.000000000               0.000000000               0.000000000               0.000251001               0.000709737              -0.000000000               0.000005408               0.000234774               0.000240182               0.000000000               0.000000000               0.000000000               0.000000000               0.000276360               0.000821677              -0.000000000               0.000000925               0.000273581               0.000274507               0.000000000               0.000000000               0.000000000               0.000000000               0.000304246               0.000919450              -0.000000000              -0.000000839               0.000306760               0.000305921               0.000000000               0.000000000               0.000000000               0.000000000               0.000330713               0.001002790              -0.000000000              -0.000001331               0.000334704               0.000333373               0.000000000               0.000000000               0.000000000               0.000000000               0.000354126               0.001073423              -0.000000000              -0.000001381               0.000358264               0.000356884               0.000000000               0.000000000               0.000000000               0.000000000               0.000374151               0.001131927              -0.000000000              -0.000001184               0.000377700               0.000376516               0.000000000               0.000000000               0.000000000               0.000000000               0.000393328               0.001188418               0.000000000              -0.000001054               0.000396487               0.000395433               0.000000000               0.000000000               0.000000000               0.000000000               0.000414345               0.001251331               0.000000000              -0.000001037               0.000417452               0.000416415               0.000000000               0.000000000               0.000000000               0.000000000               0.000437903               0.001322987               0.000000000              -0.000001160               0.000441378               0.000440218               0.000000000               0.000000000               0.000000000               0.000000000               0.000459836               0.001391830               0.000000000              -0.000001540               0.000464452               0.000462912               0.000000000               0.000000000               0.000000000               0.000000000               0.000478346               0.001453832              -0.000000000              -0.000002349               0.000485389               0.000483040               0.000000000               0.000000000               0.000000000               0.000000000               0.000486602               0.001484829               0.000000000              -0.000003128               0.000495981               0.000492853               0.000000000               0.000000000               0.000000000               0.000000000               0.000034631               0.000224354               0.000000000              -0.000015058               0.000079803               0.000064746               0.000000000               0.000000000               0.000000000               0.000000000               0.000046308               0.000191541              -0.000000000              -0.000006577               0.000066039               0.000059462               0.000000000               0.000000000               0.000000000               0.000000000               0.000065957               0.000179204               0.000000000               0.000002333               0.000058956               0.000061290               0.000000000               0.000000000               0.000000000               0.000000000               0.000066517               0.000185627               0.000000000               0.000001741               0.000061295               0.000063035               0.000000000               0.000000000               0.000000000               0.000000000               0.000062479               0.000193355               0.000000000              -0.000000740               0.000064698               0.000063958               0.000000000               0.000000000               0.000000000               0.000000000               0.000060010               0.000193658               0.000000000              -0.000001704               0.000065120               0.000063416               0.000000000               0.000000000               0.000000000               0.000000000               0.000057831               0.000196506               0.000000000              -0.000002877               0.000066460               0.000063583               0.000000000               0.000000000               0.000000000               0.000000000               0.000055299               0.000199263              -0.000000000              -0.000004171               0.000067811               0.000063640               0.000000000               0.000000000               0.000000000               0.000000000               0.000055519               0.000196967              -0.000000000              -0.000003801               0.000066922               0.000063121               0.000000000               0.000000000               0.000000000               0.000000000               0.000059063               0.000190616              -0.000000000              -0.000001678               0.000064097               0.000062419               0.000000000               0.000000000               0.000000000               0.000000000               0.000063973               0.000180473              -0.000000000               0.000001431               0.000059680               0.000061111               0.000000000               0.000000000               0.000000000               0.000000000               0.000068670               0.000169973              -0.000000000               0.000004504               0.000055156               0.000059660               0.000000000               0.000000000               0.000000000               0.000000000               0.000069413               0.000162165              -0.000000000               0.000005759               0.000052135               0.000057894               0.000000000               0.000000000               0.000000000               0.000000000               0.000063013               0.000159200              -0.000000000               0.000003730               0.000051823               0.000055553               0.000000000               0.000000000               0.000000000               0.000000000               0.000048722               0.000162545              -0.000000000              -0.000002047               0.000054863               0.000052816               0.000000000               0.000000000               0.000000000               0.000000000               0.000026809               0.000171544              -0.000000000              -0.000011390               0.000060977               0.000049588               0.000000000               0.000000000               0.000000000               0.000000000               0.000015887               0.000181706              -0.000000000              -0.000016756               0.000066153               0.000049398               0.000000000               0.000000000               0.000000000               0.000000000               0.000039180               0.000226164              -0.000019962              -0.000013578               0.000079913               0.000066335               0.000000000               0.000000000               0.000000000               0.000000000               0.000048691               0.000192384              -0.000010316              -0.000005789               0.000066057               0.000060268               0.000000000               0.000000000               0.000000000               0.000000000               0.000068179               0.000183618               0.000000103               0.000002615               0.000060334               0.000062948               0.000000000               0.000000000               0.000000000               0.000000000               0.000068624               0.000191277               0.000004161               0.000001824               0.000063150               0.000064975               0.000000000               0.000000000               0.000000000               0.000000000               0.000063083               0.000200246               0.000001550              -0.000001374               0.000067206               0.000065832               0.000000000               0.000000000               0.000000000               0.000000000               0.000061340               0.000201418               0.000000915              -0.000002175               0.000067863               0.000065689               0.000000000               0.000000000               0.000000000               0.000000000               0.000064079               0.000207285               0.000003861              -0.000001881               0.000069722               0.000067840               0.000000000               0.000000000               0.000000000               0.000000000               0.000064400               0.000210594               0.000003885              -0.000002174               0.000070922               0.000068748               0.000000000               0.000000000               0.000000000               0.000000000               0.000065592               0.000209805               0.000002871              -0.000001629               0.000070477               0.000068849               0.000000000               0.000000000               0.000000000               0.000000000               0.000069581               0.000207530               0.000001592               0.000000152               0.000069125               0.000069277               0.000000000               0.000000000               0.000000000               0.000000000               0.000072604               0.000203605               0.000000088               0.000001776               0.000067276               0.000069052               0.000000000               0.000000000               0.000000000               0.000000000               0.000073355               0.000200527              -0.000000608               0.000002442               0.000066028               0.000068470               0.000000000               0.000000000               0.000000000               0.000000000               0.000070915               0.000200670              -0.000000548               0.000001509               0.000066386               0.000067896               0.000000000               0.000000000               0.000000000               0.000000000               0.000062761               0.000205580               0.000000436              -0.000002162               0.000069247               0.000067085               0.000000000               0.000000000               0.000000000               0.000000000               0.000047815               0.000216420               0.000001743              -0.000009122               0.000075180               0.000066058               0.000000000               0.000000000               0.000000000               0.000000000               0.000026087               0.000233877               0.000002040              -0.000019452               0.000084442               0.000064990               0.000000000               0.000000000               0.000000000               0.000000000               0.000016806               0.000251614               0.000000021              -0.000025149               0.000092254               0.000067104               0.000000000               0.000000000               0.000000000               0.000000000               0.000046705               0.000232445              -0.000037654              -0.000011541               0.000081328               0.000069787               0.000000000               0.000000000               0.000000000               0.000000000               0.000052389               0.000199394              -0.000018913              -0.000005278               0.000068223               0.000062945               0.000000000               0.000000000               0.000000000               0.000000000               0.000067976               0.000196813               0.000001765               0.000000889               0.000065307               0.000066197               0.000000000               0.000000000               0.000000000               0.000000000               0.000071396               0.000211174               0.000008911               0.000000377               0.000070265               0.000070642               0.000000000               0.000000000               0.000000000               0.000000000               0.000073372               0.000225200               0.000003589              -0.000000635               0.000075278               0.000074642               0.000000000               0.000000000               0.000000000               0.000000000               0.000077206               0.000233853               0.000001517              -0.000000280               0.000078044               0.000077764               0.000000000               0.000000000               0.000000000               0.000000000               0.000082843               0.000243554               0.000004006               0.000000622               0.000080977               0.000081599               0.000000000               0.000000000               0.000000000               0.000000000               0.000086022               0.000248825               0.000001053               0.000001155               0.000082556               0.000083711               0.000000000               0.000000000               0.000000000               0.000000000               0.000089052               0.000254268              -0.000002526               0.000001611               0.000084218               0.000085829               0.000000000               0.000000000               0.000000000               0.000000000               0.000092266               0.000261958              -0.000006485               0.000001855               0.000086700               0.000088555               0.000000000               0.000000000               0.000000000               0.000000000               0.000091410               0.000273022              -0.000010469               0.000000151               0.000090956               0.000091107               0.000000000               0.000000000               0.000000000               0.000000000               0.000084646               0.000287782              -0.000012964              -0.000004231               0.000097336               0.000093106               0.000000000               0.000000000               0.000000000               0.000000000               0.000074235               0.000307156              -0.000013930              -0.000010557               0.000105903               0.000095347               0.000000000               0.000000000               0.000000000               0.000000000               0.000060595               0.000331014              -0.000012916              -0.000018654               0.000116555               0.000097901               0.000000000               0.000000000               0.000000000               0.000000000               0.000043273               0.000359011              -0.000010106              -0.000028649               0.000129219               0.000100570               0.000000000               0.000000000               0.000000000               0.000000000               0.000022515               0.000392160              -0.000005673              -0.000040577               0.000144244               0.000103667               0.000000000               0.000000000               0.000000000               0.000000000               0.000016474               0.000420375              -0.000006041              -0.000046369               0.000155580               0.000109211               0.000000000               0.000000000               0.000000000               0.000000000               0.000056370               0.000245042              -0.000056903              -0.000009491               0.000084844               0.000075352               0.000000000               0.000000000               0.000000000               0.000000000               0.000060354               0.000219172              -0.000028221              -0.000004764               0.000074645               0.000069881               0.000000000               0.000000000               0.000000000               0.000000000               0.000072752               0.000225500               0.000002990              -0.000000905               0.000075468               0.000074562               0.000000000               0.000000000               0.000000000               0.000000000               0.000078419               0.000250339               0.000011043              -0.000001885               0.000084074               0.000082189               0.000000000               0.000000000               0.000000000               0.000000000               0.000087265               0.000272922               0.000003466              -0.000001391               0.000091437               0.000090046               0.000000000               0.000000000               0.000000000               0.000000000               0.000096938               0.000295380              -0.000002358              -0.000000571               0.000098649               0.000098078               0.000000000               0.000000000               0.000000000               0.000000000               0.000106515               0.000312636              -0.000002866               0.000000864               0.000103923               0.000104787               0.000000000               0.000000000               0.000000000               0.000000000               0.000115331               0.000328623              -0.000008237               0.000002171               0.000108816               0.000110987               0.000000000               0.000000000               0.000000000               0.000000000               0.000118949               0.000344861              -0.000014557               0.000001498               0.000114453               0.000115951               0.000000000               0.000000000               0.000000000               0.000000000               0.000120878               0.000365751              -0.000020483              -0.000000390               0.000122046               0.000121656               0.000000000               0.000000000               0.000000000               0.000000000               0.000117291               0.000392680              -0.000025313              -0.000005101               0.000132592               0.000127491               0.000000000               0.000000000               0.000000000               0.000000000               0.000104499               0.000424408              -0.000028079              -0.000013864               0.000146089               0.000132225               0.000000000               0.000000000               0.000000000               0.000000000               0.000087200               0.000461103              -0.000028434              -0.000024938               0.000162012               0.000137074               0.000000000               0.000000000               0.000000000               0.000000000               0.000067344               0.000500963              -0.000026164              -0.000037366               0.000179441               0.000142075               0.000000000               0.000000000               0.000000000               0.000000000               0.000045062               0.000542024              -0.000020851              -0.000050854               0.000197624               0.000146770               0.000000000               0.000000000               0.000000000               0.000000000               0.000022181               0.000583255              -0.000011967              -0.000064589               0.000215946               0.000151357               0.000000000               0.000000000               0.000000000               0.000000000               0.000016309               0.000613237              -0.000009818              -0.000070539               0.000227923               0.000157384               0.000000000               0.000000000               0.000000000               0.000000000               0.000071306               0.000260441              -0.000073419              -0.000005815               0.000088751               0.000082936               0.000000000               0.000000000               0.000000000               0.000000000               0.000068796               0.000245464              -0.000038357              -0.000004885               0.000083449               0.000078564               0.000000000               0.000000000               0.000000000               0.000000000               0.000078247               0.000270857              -0.000001324              -0.000004515               0.000091790               0.000087275               0.000000000               0.000000000               0.000000000               0.000000000               0.000089647               0.000312090               0.000009322              -0.000005394               0.000105827               0.000100433               0.000000000               0.000000000               0.000000000               0.000000000               0.000109991               0.000351552               0.000001808              -0.000002697               0.000118082               0.000115384               0.000000000               0.000000000               0.000000000               0.000000000               0.000126206               0.000384225              -0.000006900              -0.000000701               0.000128307               0.000127607               0.000000000               0.000000000               0.000000000               0.000000000               0.000137297               0.000411279              -0.000009925               0.000000076               0.000137066               0.000137143               0.000000000               0.000000000               0.000000000               0.000000000               0.000144111               0.000438334              -0.000017708              -0.000000750               0.000146360               0.000145610               0.000000000               0.000000000               0.000000000               0.000000000               0.000143803               0.000465645              -0.000026838              -0.000004279               0.000156640               0.000152360               0.000000000               0.000000000               0.000000000               0.000000000               0.000141712               0.000499589              -0.000033446              -0.000009307               0.000169630               0.000160323               0.000000000               0.000000000               0.000000000               0.000000000               0.000133376               0.000538897              -0.000037853              -0.000017346               0.000185412               0.000168067               0.000000000               0.000000000               0.000000000               0.000000000               0.000116458               0.000581371              -0.000039086              -0.000028999               0.000203455               0.000174455               0.000000000               0.000000000               0.000000000               0.000000000               0.000095798               0.000626031              -0.000037284              -0.000042330               0.000222785               0.000180455               0.000000000               0.000000000               0.000000000               0.000000000               0.000073342               0.000671166              -0.000032370              -0.000056392               0.000242517               0.000186125               0.000000000               0.000000000               0.000000000               0.000000000               0.000048872               0.000714575              -0.000024322              -0.000070995               0.000261854               0.000190859               0.000000000               0.000000000               0.000000000               0.000000000               0.000023925               0.000754539              -0.000013269              -0.000085345               0.000279959               0.000194614               0.000000000               0.000000000               0.000000000               0.000000000               0.000016853               0.000781857              -0.000010032              -0.000091412               0.000291087               0.000199675               0.000000000               0.000000000               0.000000000               0.000000000               0.000085635               0.000271758              -0.000089328              -0.000001857               0.000091204               0.000089347               0.000000000               0.000000000               0.000000000               0.000000000               0.000076524               0.000272229              -0.000049306              -0.000005332               0.000092519               0.000087187               0.000000000               0.000000000               0.000000000               0.000000000               0.000087336               0.000329331              -0.000006734              -0.000008415               0.000112581               0.000104165               0.000000000               0.000000000               0.000000000               0.000000000               0.000107100               0.000387609               0.000007170              -0.000008288               0.000131964               0.000123676               0.000000000               0.000000000               0.000000000               0.000000000               0.000135178               0.000435472              -0.000002764              -0.000003742               0.000146403               0.000142661               0.000000000               0.000000000               0.000000000               0.000000000               0.000155274               0.000471405              -0.000014408              -0.000000698               0.000157366               0.000156668               0.000000000               0.000000000               0.000000000               0.000000000               0.000167222               0.000507818              -0.000019845              -0.000000769               0.000169527               0.000168758               0.000000000               0.000000000               0.000000000               0.000000000               0.000168742               0.000542732              -0.000028867              -0.000004563               0.000182430               0.000177867               0.000000000               0.000000000               0.000000000               0.000000000               0.000162626               0.000581102              -0.000038329              -0.000011653               0.000197583               0.000185930               0.000000000               0.000000000               0.000000000               0.000000000               0.000154044               0.000626236              -0.000043146              -0.000020513               0.000215581               0.000195068               0.000000000               0.000000000               0.000000000               0.000000000               0.000139705               0.000675931              -0.000045074              -0.000032102               0.000236009               0.000203907               0.000000000               0.000000000               0.000000000               0.000000000               0.000117885               0.000725587              -0.000043888              -0.000046491               0.000257357               0.000210865               0.000000000               0.000000000               0.000000000               0.000000000               0.000094499               0.000774847              -0.000039583              -0.000061419               0.000278753               0.000217334               0.000000000               0.000000000               0.000000000               0.000000000               0.000071130               0.000822359              -0.000032516              -0.000076121               0.000299491               0.000223370               0.000000000               0.000000000               0.000000000               0.000000000               0.000046616               0.000866202              -0.000023307              -0.000090794               0.000318996               0.000228202               0.000000000               0.000000000               0.000000000               0.000000000               0.000022631               0.000906420              -0.000012267              -0.000104816               0.000337076               0.000232260               0.000000000               0.000000000               0.000000000               0.000000000               0.000016471               0.000934200              -0.000009447              -0.000110598               0.000348263               0.000237665               0.000000000               0.000000000               0.000000000               0.000000000               0.000098354               0.000278883              -0.000104533               0.000002022               0.000092286               0.000094308               0.000000000               0.000000000               0.000000000               0.000000000               0.000086653               0.000301517              -0.000059314              -0.000005195               0.000102236               0.000097041               0.000000000               0.000000000               0.000000000               0.000000000               0.000098798               0.000386128              -0.000013570              -0.000011217               0.000132447               0.000121230               0.000000000               0.000000000               0.000000000               0.000000000               0.000123846               0.000454797              -0.000001102              -0.000010407               0.000155066               0.000144659               0.000000000               0.000000000               0.000000000               0.000000000               0.000156926               0.000503195              -0.000009646              -0.000004052               0.000169081               0.000165029               0.000000000               0.000000000               0.000000000               0.000000000               0.000179726               0.000544058              -0.000019790              -0.000000610               0.000181554               0.000180944               0.000000000               0.000000000               0.000000000               0.000000000               0.000187744               0.000588749              -0.000025313              -0.000003190               0.000197311               0.000194121               0.000000000               0.000000000               0.000000000               0.000000000               0.000183631               0.000633074              -0.000034865              -0.000010273               0.000214447               0.000204174               0.000000000               0.000000000               0.000000000               0.000000000               0.000173380               0.000683325              -0.000043343              -0.000020398               0.000234572               0.000214174               0.000000000               0.000000000               0.000000000               0.000000000               0.000160936               0.000741169              -0.000045877              -0.000032295               0.000257819               0.000225524               0.000000000               0.000000000               0.000000000               0.000000000               0.000141431               0.000800584              -0.000045632              -0.000047036               0.000282538               0.000235501               0.000000000               0.000000000               0.000000000               0.000000000               0.000116645               0.000859205              -0.000043005              -0.000063659               0.000307618               0.000243960               0.000000000               0.000000000               0.000000000               0.000000000               0.000092634               0.000916793              -0.000037230              -0.000079861               0.000332215               0.000252354               0.000000000               0.000000000               0.000000000               0.000000000               0.000068752               0.000971787              -0.000029721              -0.000095691               0.000355823               0.000260132               0.000000000               0.000000000               0.000000000               0.000000000               0.000044417               0.001022960              -0.000020961              -0.000111213               0.000378054               0.000266841               0.000000000               0.000000000               0.000000000               0.000000000               0.000021739               0.001069577              -0.000010984              -0.000125545               0.000398370               0.000272826               0.000000000               0.000000000               0.000000000               0.000000000               0.000016299               0.001100439              -0.000009034              -0.000131442               0.000410624               0.000279181               0.000000000               0.000000000               0.000000000               0.000000000               0.000113213               0.000277549              -0.000112818               0.000007761               0.000089929               0.000097689               0.000000000               0.000000000               0.000000000               0.000000000               0.000096496               0.000326282              -0.000068746              -0.000004599               0.000110293               0.000105693               0.000000000               0.000000000               0.000000000               0.000000000               0.000107186               0.000432519              -0.000022393              -0.000013870               0.000148795               0.000134925               0.000000000               0.000000000               0.000000000               0.000000000               0.000137558               0.000508325              -0.000007472              -0.000011956               0.000173425               0.000161469               0.000000000               0.000000000               0.000000000               0.000000000               0.000173977               0.000560039              -0.000011349              -0.000004763               0.000188266               0.000183502               0.000000000               0.000000000               0.000000000               0.000000000               0.000196902               0.000612217              -0.000019958              -0.000002689               0.000204967               0.000202278               0.000000000               0.000000000               0.000000000               0.000000000               0.000198625               0.000667176              -0.000026657              -0.000008913               0.000225361               0.000216448               0.000000000               0.000000000               0.000000000               0.000000000               0.000191265               0.000724807              -0.000037624              -0.000018876               0.000247892               0.000229016               0.000000000               0.000000000               0.000000000               0.000000000               0.000180846               0.000790185              -0.000043734              -0.000030956               0.000273711               0.000242755               0.000000000               0.000000000               0.000000000               0.000000000               0.000166501               0.000862155              -0.000045053              -0.000045332               0.000302493               0.000257161               0.000000000               0.000000000               0.000000000               0.000000000               0.000144650               0.000932309              -0.000043900              -0.000062295               0.000331531               0.000269237               0.000000000               0.000000000               0.000000000               0.000000000               0.000120730               0.001001111              -0.000039285              -0.000079865               0.000360322               0.000280457               0.000000000               0.000000000               0.000000000               0.000000000               0.000096675               0.001068425              -0.000032339              -0.000097300               0.000388571               0.000291272               0.000000000               0.000000000               0.000000000               0.000000000               0.000072010               0.001132080              -0.000024086              -0.000114506               0.000415525               0.000301019               0.000000000               0.000000000               0.000000000               0.000000000               0.000046956               0.001191188              -0.000015557              -0.000131290               0.000440822               0.000309532               0.000000000               0.000000000               0.000000000               0.000000000               0.000023591               0.001244128              -0.000007732              -0.000146669               0.000463595               0.000316926               0.000000000               0.000000000               0.000000000               0.000000000               0.000016028               0.001277230              -0.000006835              -0.000153643               0.000476953               0.000323310               0.000000000               0.000000000               0.000000000               0.000000000               0.000127171               0.000267692              -0.000112044               0.000014227               0.000084487               0.000098715               0.000000000               0.000000000               0.000000000               0.000000000               0.000105113               0.000338609              -0.000074135              -0.000002909               0.000113838               0.000110929               0.000000000               0.000000000               0.000000000               0.000000000               0.000107954               0.000464347              -0.000029842              -0.000017561               0.000160634               0.000143074               0.000000000               0.000000000               0.000000000               0.000000000               0.000140291               0.000545286              -0.000011124              -0.000015551               0.000186944               0.000171392               0.000000000               0.000000000               0.000000000               0.000000000               0.000184013               0.000606739              -0.000009684              -0.000006838               0.000204524               0.000197686               0.000000000               0.000000000               0.000000000               0.000000000               0.000210154               0.000671152              -0.000016751              -0.000005086               0.000225410               0.000220324               0.000000000               0.000000000               0.000000000               0.000000000               0.000210553               0.000736433              -0.000026677              -0.000013097               0.000249841               0.000236744               0.000000000               0.000000000               0.000000000               0.000000000               0.000204517               0.000804563              -0.000037249              -0.000023876               0.000276144               0.000252267               0.000000000               0.000000000               0.000000000               0.000000000               0.000195562               0.000880598              -0.000041515              -0.000036739               0.000305776               0.000269037               0.000000000               0.000000000               0.000000000               0.000000000               0.000180316               0.000960530              -0.000042126              -0.000052448               0.000337656               0.000285208               0.000000000               0.000000000               0.000000000               0.000000000               0.000159899               0.001038010              -0.000040609              -0.000069789               0.000369263               0.000299474               0.000000000               0.000000000               0.000000000               0.000000000               0.000138311               0.001114129              -0.000034460              -0.000087399               0.000400506               0.000313106               0.000000000               0.000000000               0.000000000               0.000000000               0.000115820               0.001188641              -0.000026305              -0.000105147               0.000431259               0.000326112               0.000000000               0.000000000               0.000000000               0.000000000               0.000091748               0.001259140              -0.000017407              -0.000122987               0.000460705               0.000337718               0.000000000               0.000000000               0.000000000               0.000000000               0.000068225               0.001325733              -0.000008788              -0.000140132               0.000488617               0.000348485               0.000000000               0.000000000               0.000000000               0.000000000               0.000047593               0.001386925              -0.000002028              -0.000155518               0.000514143               0.000358625               0.000000000               0.000000000               0.000000000               0.000000000               0.000037250               0.001420324               0.000000085              -0.000163571               0.000527960               0.000364389               0.000000000               0.000000000               0.000000000               0.000000000               0.000129957               0.000245014              -0.000106762               0.000018107               0.000075635               0.000093742               0.000000000               0.000000000               0.000000000               0.000000000               0.000109116               0.000325619              -0.000077442               0.000000216               0.000108467               0.000108683               0.000000000               0.000000000               0.000000000               0.000000000               0.000109231               0.000462075              -0.000041282              -0.000016798               0.000159623               0.000142825               0.000000000               0.000000000               0.000000000               0.000000000               0.000140051               0.000560230              -0.000021679              -0.000017509               0.000192578               0.000175068               0.000000000               0.000000000               0.000000000               0.000000000               0.000187305               0.000640415              -0.000013165              -0.000009812               0.000216740               0.000206928               0.000000000               0.000000000               0.000000000               0.000000000               0.000223190               0.000710968              -0.000015053              -0.000005175               0.000238712               0.000233537               0.000000000               0.000000000               0.000000000               0.000000000               0.000232527               0.000779051              -0.000025039              -0.000010184               0.000263075               0.000252892               0.000000000               0.000000000               0.000000000               0.000000000               0.000229197               0.000845890              -0.000035181              -0.000019787               0.000288556               0.000268769               0.000000000               0.000000000               0.000000000               0.000000000               0.000222940               0.000916654              -0.000040376              -0.000030979               0.000315875               0.000284895               0.000000000               0.000000000               0.000000000               0.000000000               0.000212637               0.000994232              -0.000041930              -0.000044540               0.000346254               0.000301714               0.000000000               0.000000000               0.000000000               0.000000000               0.000196645               0.001071266              -0.000040449              -0.000060166               0.000377140               0.000316974               0.000000000               0.000000000               0.000000000               0.000000000               0.000177464               0.001146710              -0.000036030              -0.000076790               0.000407829               0.000331040               0.000000000               0.000000000               0.000000000               0.000000000               0.000157939               0.001222334              -0.000028485              -0.000093564               0.000438629               0.000345064               0.000000000               0.000000000               0.000000000               0.000000000               0.000138028               0.001298394              -0.000019204              -0.000110538               0.000469640               0.000359101               0.000000000               0.000000000               0.000000000               0.000000000               0.000117808               0.001372416              -0.000010599              -0.000127374               0.000499926               0.000372552               0.000000000               0.000000000               0.000000000               0.000000000               0.000100469               0.001447050              -0.000003205              -0.000143205               0.000530080               0.000386875               0.000000000               0.000000000               0.000000000               0.000000000               0.000087218               0.001483221               0.000002224              -0.000152696               0.000545300               0.000392605               0.000000000               0.000000000               0.000000000               0.000000000               0.000125606               0.000211681              -0.000096739               0.000020642               0.000063679               0.000084321               0.000000000               0.000000000               0.000000000               0.000000000               0.000110959               0.000297755              -0.000080243               0.000004390               0.000097787               0.000102177               0.000000000               0.000000000               0.000000000               0.000000000               0.000116693               0.000445924              -0.000055242              -0.000011981               0.000152633               0.000140653               0.000000000               0.000000000               0.000000000               0.000000000               0.000144208               0.000564664              -0.000034906              -0.000016505               0.000193721               0.000177216               0.000000000               0.000000000               0.000000000               0.000000000               0.000186847               0.000658102              -0.000019727              -0.000012195               0.000223430               0.000211235               0.000000000               0.000000000               0.000000000               0.000000000               0.000228298               0.000733579              -0.000013180              -0.000006086               0.000246553               0.000240467               0.000000000               0.000000000               0.000000000               0.000000000               0.000248258               0.000801572              -0.000017196              -0.000007100               0.000269555               0.000262455               0.000000000               0.000000000               0.000000000               0.000000000               0.000250038               0.000866782              -0.000025822              -0.000014584               0.000293786               0.000279202               0.000000000               0.000000000               0.000000000               0.000000000               0.000247963               0.000931213              -0.000032718              -0.000023415               0.000318206               0.000294791               0.000000000               0.000000000               0.000000000               0.000000000               0.000243935               0.001002707              -0.000036574              -0.000033863               0.000345520               0.000311657               0.000000000               0.000000000               0.000000000               0.000000000               0.000237240               0.001079610              -0.000036649              -0.000045986               0.000375195               0.000329209               0.000000000               0.000000000               0.000000000               0.000000000               0.000226497               0.001154772              -0.000035028              -0.000059410               0.000404723               0.000345313               0.000000000               0.000000000               0.000000000               0.000000000               0.000212410               0.001226795              -0.000031058              -0.000073696               0.000433493               0.000359797               0.000000000               0.000000000               0.000000000               0.000000000               0.000199416               0.001303236              -0.000023778              -0.000088123               0.000463782               0.000375659               0.000000000               0.000000000               0.000000000               0.000000000               0.000184176               0.001376995              -0.000015179              -0.000103058               0.000493346               0.000390288               0.000000000               0.000000000               0.000000000               0.000000000               0.000167921               0.001450711              -0.000007007              -0.000118368               0.000523022               0.000404653               0.000000000               0.000000000               0.000000000               0.000000000               0.000151952               0.001483708               0.000000705              -0.000128481               0.000537391               0.000408910               0.000000000               0.000000000               0.000000000               0.000000000               0.000119023               0.000175684              -0.000082044               0.000022673               0.000051003               0.000073676               0.000000000               0.000000000               0.000000000               0.000000000               0.000114851               0.000267170              -0.000078996               0.000009673               0.000085831               0.000095504               0.000000000               0.000000000               0.000000000               0.000000000               0.000125720               0.000427439              -0.000066132              -0.000006285               0.000144573               0.000138288               0.000000000               0.000000000               0.000000000               0.000000000               0.000150563               0.000558420              -0.000046934              -0.000013341               0.000190585               0.000177244               0.000000000               0.000000000               0.000000000               0.000000000               0.000186176               0.000661683              -0.000027848              -0.000012894               0.000224857               0.000211962               0.000000000               0.000000000               0.000000000               0.000000000               0.000226052               0.000744543              -0.000013785              -0.000008298               0.000250945               0.000242646               0.000000000               0.000000000               0.000000000               0.000000000               0.000255875               0.000817822              -0.000010023              -0.000006275               0.000274696               0.000268422               0.000000000               0.000000000               0.000000000               0.000000000               0.000267500               0.000885747              -0.000015387              -0.000010406               0.000298715               0.000288309               0.000000000               0.000000000               0.000000000               0.000000000               0.000271589               0.000948639              -0.000022993              -0.000016734               0.000321788               0.000305054               0.000000000               0.000000000               0.000000000               0.000000000               0.000272945               0.001014146              -0.000028395              -0.000024414               0.000346183               0.000321769               0.000000000               0.000000000               0.000000000               0.000000000               0.000273164               0.001086597              -0.000030880              -0.000033388               0.000373325               0.000339937               0.000000000               0.000000000               0.000000000               0.000000000               0.000272249               0.001163169              -0.000030567              -0.000043302               0.000402153               0.000358851               0.000000000               0.000000000               0.000000000               0.000000000               0.000266431               0.001234727              -0.000029162              -0.000054429               0.000429714               0.000375285               0.000000000               0.000000000               0.000000000               0.000000000               0.000259039               0.001306706              -0.000025436              -0.000066199               0.000457630               0.000391432               0.000000000               0.000000000               0.000000000               0.000000000               0.000251026               0.001380117              -0.000018191              -0.000078380               0.000486161               0.000407781               0.000000000               0.000000000               0.000000000               0.000000000               0.000240128               0.001453096              -0.000009973              -0.000091589               0.000514890               0.000423301               0.000000000               0.000000000               0.000000000               0.000000000               0.000225018               0.001483130              -0.000002318              -0.000101009               0.000528041               0.000427032               0.000000000               0.000000000               0.000000000               0.000000000               0.000103860               0.000141730              -0.000066670               0.000021231               0.000040166               0.000061397               0.000000000               0.000000000               0.000000000               0.000000000               0.000117850               0.000237113              -0.000072675               0.000014554               0.000074186               0.000088740               0.000000000               0.000000000               0.000000000               0.000000000               0.000137861               0.000399475              -0.000069339               0.000001764               0.000132569               0.000134333               0.000000000               0.000000000               0.000000000               0.000000000               0.000160807               0.000534845              -0.000053269              -0.000006553               0.000180464               0.000173911               0.000000000               0.000000000               0.000000000               0.000000000               0.000188990               0.000648947              -0.000034358              -0.000010247               0.000219729               0.000209482               0.000000000               0.000000000               0.000000000               0.000000000               0.000225312               0.000745149              -0.000017053              -0.000008652               0.000251265               0.000242613               0.000000000               0.000000000               0.000000000               0.000000000               0.000259774               0.000829279              -0.000007245              -0.000006245               0.000278505               0.000272261               0.000000000               0.000000000               0.000000000               0.000000000               0.000282278               0.000904041              -0.000007533              -0.000007151               0.000303728               0.000296577               0.000000000               0.000000000               0.000000000               0.000000000               0.000293365               0.000968905              -0.000013403              -0.000011101               0.000326666               0.000315564               0.000000000               0.000000000               0.000000000               0.000000000               0.000299965               0.001029622              -0.000018400              -0.000016216               0.000348609               0.000332393               0.000000000               0.000000000               0.000000000               0.000000000               0.000304732               0.001095204              -0.000021924              -0.000022626               0.000372606               0.000349980               0.000000000               0.000000000               0.000000000               0.000000000               0.000309950               0.001167918              -0.000022848              -0.000029758               0.000399222               0.000369463               0.000000000               0.000000000               0.000000000               0.000000000               0.000313753               0.001241798              -0.000021906              -0.000037567               0.000426451               0.000388884               0.000000000               0.000000000               0.000000000               0.000000000               0.000313743               0.001310968              -0.000020581              -0.000046217               0.000452391               0.000406174               0.000000000               0.000000000               0.000000000               0.000000000               0.000313530               0.001381692              -0.000016533              -0.000055137               0.000478938               0.000423801               0.000000000               0.000000000               0.000000000               0.000000000               0.000313451               0.001455574              -0.000009466              -0.000064402               0.000506654               0.000442251               0.000000000               0.000000000               0.000000000               0.000000000               0.000306418               0.001486675              -0.000003335              -0.000070927               0.000519196               0.000448268               0.000000000               0.000000000               0.000000000               0.000000000               0.000084331               0.000109080              -0.000049135               0.000017989               0.000030364               0.000048352               0.000000000               0.000000000               0.000000000               0.000000000               0.000117857               0.000205589              -0.000060709               0.000018497               0.000062363               0.000080861               0.000000000               0.000000000               0.000000000               0.000000000               0.000150523               0.000365008              -0.000063956               0.000010820               0.000118061               0.000128881               0.000000000               0.000000000               0.000000000               0.000000000               0.000174429               0.000506054              -0.000052020               0.000002154               0.000167965               0.000170119               0.000000000               0.000000000               0.000000000               0.000000000               0.000199136               0.000631020              -0.000036656              -0.000004201               0.000211738               0.000207537               0.000000000               0.000000000               0.000000000               0.000000000               0.000229776               0.000739532              -0.000020531              -0.000006276               0.000248600               0.000242324               0.000000000               0.000000000               0.000000000               0.000000000               0.000263009               0.000833353              -0.000007799              -0.000005541               0.000279628               0.000274088               0.000000000               0.000000000               0.000000000               0.000000000               0.000290802               0.000914529              -0.000003179              -0.000005265               0.000306595               0.000301330               0.000000000               0.000000000               0.000000000               0.000000000               0.000309697               0.000984667              -0.000005230              -0.000006947               0.000330535               0.000323588               0.000000000               0.000000000               0.000000000               0.000000000               0.000322219               0.001044701              -0.000008716              -0.000009755               0.000351482               0.000341726               0.000000000               0.000000000               0.000000000               0.000000000               0.000332685               0.001105738              -0.000011830              -0.000013461               0.000373063               0.000359602               0.000000000               0.000000000               0.000000000               0.000000000               0.000342816               0.001172881              -0.000013502              -0.000018054               0.000396975               0.000378921               0.000000000               0.000000000               0.000000000               0.000000000               0.000353943               0.001246310              -0.000013041              -0.000023060               0.000423119               0.000400059               0.000000000               0.000000000               0.000000000               0.000000000               0.000363177               0.001317749              -0.000012026              -0.000028527               0.000448754               0.000420227               0.000000000               0.000000000               0.000000000               0.000000000               0.000370631               0.001385620              -0.000010654              -0.000034216               0.000473274               0.000439058               0.000000000               0.000000000               0.000000000               0.000000000               0.000379363               0.001455477              -0.000006305              -0.000039673               0.000498379               0.000458705               0.000000000               0.000000000               0.000000000               0.000000000               0.000381223               0.001488187              -0.000002393              -0.000043064               0.000510412               0.000467348               0.000000000               0.000000000               0.000000000               0.000000000               0.000067145               0.000085869              -0.000030868               0.000014446               0.000023808               0.000038253               0.000000000               0.000000000               0.000000000               0.000000000               0.000115771               0.000180213              -0.000043307               0.000020887               0.000053108               0.000073995               0.000000000               0.000000000               0.000000000               0.000000000               0.000160496               0.000334919              -0.000049499               0.000018321               0.000105531               0.000123852               0.000000000               0.000000000               0.000000000               0.000000000               0.000187857               0.000477875              -0.000042866               0.000010712               0.000155720               0.000166431               0.000000000               0.000000000               0.000000000               0.000000000               0.000212442               0.000609411              -0.000032240               0.000003489               0.000201972               0.000205461               0.000000000               0.000000000               0.000000000               0.000000000               0.000238324               0.000726915              -0.000019488              -0.000001493               0.000242800               0.000241307               0.000000000               0.000000000               0.000000000               0.000000000               0.000268135               0.000829725              -0.000007517              -0.000003165               0.000277627               0.000274462               0.000000000               0.000000000               0.000000000               0.000000000               0.000297565               0.000918688              -0.000001495              -0.000003249               0.000307309               0.000304060               0.000000000               0.000000000               0.000000000               0.000000000               0.000322185               0.000995715              -0.000001181              -0.000003645               0.000333117               0.000329472               0.000000000               0.000000000               0.000000000               0.000000000               0.000340384               0.001059519              -0.000002694              -0.000004796               0.000354768               0.000349972               0.000000000               0.000000000               0.000000000               0.000000000               0.000355281               0.001118280              -0.000004683              -0.000006555               0.000374941               0.000368386               0.000000000               0.000000000               0.000000000               0.000000000               0.000369661               0.001180023              -0.000005840              -0.000008880               0.000396297               0.000387417               0.000000000               0.000000000               0.000000000               0.000000000               0.000385438               0.001248937              -0.000005600              -0.000011578               0.000420167               0.000408589               0.000000000               0.000000000               0.000000000               0.000000000               0.000402488               0.001322569              -0.000004585              -0.000014388               0.000445648               0.000431260               0.000000000               0.000000000               0.000000000               0.000000000               0.000417308               0.001390078              -0.000004032              -0.000017269               0.000469111               0.000451842               0.000000000               0.000000000               0.000000000               0.000000000               0.000431613               0.001453869              -0.000002537              -0.000019879               0.000491245               0.000471366               0.000000000               0.000000000               0.000000000               0.000000000               0.000438497               0.001485794              -0.000000927              -0.000021288               0.000502356               0.000481068               0.000000000               0.000000000               0.000000000               0.000000000               0.000054276               0.000074452              -0.000015053               0.000011047               0.000021135               0.000032182               0.000000000               0.000000000               0.000000000               0.000000000               0.000113146               0.000164493              -0.000022885               0.000021868               0.000047541               0.000069409               0.000000000               0.000000000               0.000000000               0.000000000               0.000166901               0.000313479              -0.000027161               0.000023403               0.000096691               0.000120094               0.000000000               0.000000000               0.000000000               0.000000000               0.000198902               0.000457030              -0.000024343               0.000017459               0.000146522               0.000163981               0.000000000               0.000000000               0.000000000               0.000000000               0.000223329               0.000592063              -0.000019078               0.000009740               0.000194106               0.000203846               0.000000000               0.000000000               0.000000000               0.000000000               0.000246750               0.000713968              -0.000012470               0.000003285               0.000236892               0.000240177               0.000000000               0.000000000               0.000000000               0.000000000               0.000273669               0.000823715              -0.000005703              -0.000000339               0.000274682               0.000274343               0.000000000               0.000000000               0.000000000               0.000000000               0.000302938               0.000919932              -0.000001584              -0.000001390               0.000307104               0.000305714               0.000000000               0.000000000               0.000000000               0.000000000               0.000329250               0.001001664              -0.000000377              -0.000001739               0.000334464               0.000332725               0.000000000               0.000000000               0.000000000               0.000000000               0.000351073               0.001069976              -0.000000395              -0.000002095               0.000357353               0.000355259               0.000000000               0.000000000               0.000000000               0.000000000               0.000369393               0.001128492              -0.000001157              -0.000002539               0.000377007               0.000374468               0.000000000               0.000000000               0.000000000               0.000000000               0.000387105               0.001186371              -0.000001671              -0.000003132               0.000396497               0.000393365               0.000000000               0.000000000               0.000000000               0.000000000               0.000406572               0.001250711              -0.000001559              -0.000003874               0.000418191               0.000414317               0.000000000               0.000000000               0.000000000               0.000000000               0.000428523               0.001323429              -0.000000923              -0.000004732               0.000442716               0.000437984               0.000000000               0.000000000               0.000000000               0.000000000               0.000448633               0.001391930              -0.000000536              -0.000005754               0.000465890               0.000460136               0.000000000               0.000000000               0.000000000               0.000000000               0.000466143               0.001453733              -0.000000413              -0.000006913               0.000486877               0.000479964               0.000000000               0.000000000               0.000000000               0.000000000               0.000474379               0.001484803              -0.000000114              -0.000007708               0.000497499               0.000489791               0.000000000               0.000000000               0.000000000               0.000000000               0.000000000               0.000000000               0.000000000               0.000000000               0.000000000               0.000000000               0.000000000               0.000000000               0.000000000               0.000000000               0.000000000               0.000000000               0.000000000               0.000000000               0.000000000               0.000000000               0.000000000               0.000000000               0.000000000               0.000000000               0.000000000               0.000000000               0.000000000               0.000000000               0.000000000               0.000000000               0.000000000               0.000000000               0.000000000               0.000000000               0.000000000               0.000000000               0.000000000               0.000000000               0.000000000               0.000000000               0.000000000               0.000000000               0.000000000               0.000000000               0.000000000               0.000000000               0.000000000               0.000000000               0.000000000               0.000000000               0.000000000               0.000000000               0.000000000               0.000000000               0.000000000               0.000000000               0.000000000               0.000000000               0.000000000               0.000000000               0.000000000               0.000000000               0.000000000               0.000000000               0.000000000               0.000000000               0.000000000               0.000000000               0.000000000               0.000000000               0.000000000               0.000000000               0.000000000               0.000000000               0.000000000               0.000000000               0.000000000               0.000000000               0.000000000               0.000000000               0.000000000               0.000000000               0.000000000               0.000000000               0.000000000               0.000000000               0.000000000               0.000000000               0.000000000               0.000000000               0.000000000               0.000000000               0.000000000               0.000000000               0.000000000               0.000000000               0.000000000               0.000000000               0.000000000               0.000000000               0.000000000               0.000000000               0.000000000               0.000000000               0.000000000               0.000000000               0.000000000               0.000000000               0.000000000               0.000000000               0.000000000               0.000000000               0.000000000               0.000000000               0.000000000               0.000000000               0.000000000               0.000000000               0.000000000               0.000000000               0.000000000               0.000000000               0.000000000               0.000000000               0.000000000               0.000000000               0.000000000               0.000000000               0.000000000               0.000000000               0.000000000               0.000000000               0.000000000               0.000000000               0.000000000               0.000000000               0.000000000               0.000000000               0.000000000               0.000000000               0.000000000               0.000000000               0.000000000               0.000000000               0.000000000               0.000000000               0.000000000               0.000000000               0.000000000               0.000000000               0.000000000               0.000000000               0.000000000               0.000000000               0.000000000               0.000000000               0.000000000               0.000000000               0.000000000               0.000000000               0.000000000               0.000000000               0.000000000               0.000000000               0.000000000               0.000000000               0.000000000               0.000000000               0.000000000               0.000000000               0.000000000               0.000000000               0.000000000               0.000000000               0.000000000               0.000000000               0.000000000               0.000000000               0.000000000               0.000000000               0.000000000               0.000000000               0.000000000               0.000000000               0.000000000               0.000000000               0.000000000               0.000000000               0.000000000               0.000000000               0.000000000               0.000000000               0.000000000               0.000000000               0.000000000               0.000000000               0.000000000               0.000000000               0.000000000               0.000000000               0.000000000               0.000000000               0.000000000               0.000000000               0.000000000               0.000000000               0.000000000               0.000000000               0.000000000               0.000000000               0.000000000               0.000000000               0.000000000               0.000000000               0.000000000               0.000000000               0.000000000               0.000000000               0.000000000               0.000000000               0.000000000               0.000000000               0.000000000               0.000000000               0.000000000               0.000000000               0.000000000               0.000000000               0.000000000               0.000000000               0.000000000               0.000000000               0.000000000               0.000000000               0.000000000               0.000000000               0.000000000               0.000000000               0.000000000               0.000000000               0.000000000               0.000000000               0.000000000               0.000000000               0.000000000               0.000000000               0.000000000               0.000000000               0.000000000               0.000000000               0.000000000               0.000000000               0.000000000               0.000000000               0.000000000               0.000000000               0.000000000               0.000000000               0.000000000               0.000000000               0.000000000               0.000000000               0.000000000               0.000000000               0.000000000               0.000000000               0.000000000               0.000000000               0.000000000               0.000000000               0.000000000               0.000000000               0.000000000               0.000000000               0.000000000               0.000000000               0.000000000               0.000000000               0.000000000               0.000000000               0.000000000               0.000000000               0.000000000               0.000000000               0.000000000               0.000000000               0.000000000               0.000000000               0.000000000               0.000000000               0.000000000               0.000000000               0.000000000               0.000000000               0.000000000               0.000000000               0.000000000               0.000000000               0.000000000               0.000000000               0.000000000               0.000000000               0.000000000               0.000000000               0.000000000               0.000000000               0.000000000               0.000000000               0.000000000               0.000000000               0.000000000               0.000000000               0.000000000               0.000000000               0.000000000               0.000000000               0.000000000               0.000000000               0.000000000               0.000000000               0.000000000               0.000000000               0.000000000               0.000000000               0.000000000               0.000000000               0.000000000               0.000000000               0.000000000               0.000000000               0.000000000               0.000000000               0.000000000               0.000000000               0.000000000               0.000000000               0.000000000               0.000000000               0.000000000               0.000000000               0.000000000               0.000000000               0.000000000               0.000000000               0.000039180               0.000226164               0.000019962              -0.000013578               0.000079913               0.000066335               0.000000000               0.000000000               0.000000000               0.000000000               0.000048691               0.000192384               0.000010316              -0.000005789               0.000066057               0.000060268               0.000000000               0.000000000               0.000000000               0.000000000               0.000068179               0.000183618              -0.000000103               0.000002615               0.000060334               0.000062948               0.000000000               0.000000000               0.000000000               0.000000000               0.000068624               0.000191277              -0.000004161               0.000001824               0.000063150               0.000064975               0.000000000               0.000000000               0.000000000               0.000000000               0.000063083               0.000200246              -0.000001550              -0.000001374               0.000067206               0.000065832               0.000000000               0.000000000               0.000000000               0.000000000               0.000061340               0.000201418              -0.000000915              -0.000002175               0.000067863               0.000065689               0.000000000               0.000000000               0.000000000               0.000000000               0.000064079               0.000207285              -0.000003861              -0.000001881               0.000069722               0.000067840               0.000000000               0.000000000               0.000000000               0.000000000               0.000064400               0.000210594              -0.000003885              -0.000002174               0.000070922               0.000068748               0.000000000               0.000000000               0.000000000               0.000000000               0.000065592               0.000209805              -0.000002871              -0.000001629               0.000070477               0.000068849               0.000000000               0.000000000               0.000000000               0.000000000               0.000069581               0.000207530              -0.000001592               0.000000152               0.000069125               0.000069277               0.000000000               0.000000000               0.000000000               0.000000000               0.000072604               0.000203605              -0.000000088               0.000001776               0.000067276               0.000069052               0.000000000               0.000000000               0.000000000               0.000000000               0.000073355               0.000200527               0.000000608               0.000002442               0.000066028               0.000068470               0.000000000               0.000000000               0.000000000               0.000000000               0.000070915               0.000200670               0.000000548               0.000001509               0.000066386               0.000067896               0.000000000               0.000000000               0.000000000               0.000000000               0.000062761               0.000205580              -0.000000436              -0.000002162               0.000069247               0.000067085               0.000000000               0.000000000               0.000000000               0.000000000               0.000047815               0.000216420              -0.000001743              -0.000009122               0.000075180               0.000066058               0.000000000               0.000000000               0.000000000               0.000000000               0.000026087               0.000233877              -0.000002040              -0.000019452               0.000084442               0.000064990               0.000000000               0.000000000               0.000000000               0.000000000               0.000016806               0.000251614              -0.000000021              -0.000025149               0.000092254               0.000067104               0.000000000               0.000000000               0.000000000               0.000000000               0.000046705               0.000232445               0.000037654              -0.000011541               0.000081328               0.000069787               0.000000000               0.000000000               0.000000000               0.000000000               0.000052389               0.000199394               0.000018913              -0.000005278               0.000068223               0.000062945               0.000000000               0.000000000               0.000000000               0.000000000               0.000067976               0.000196813              -0.000001765               0.000000889               0.000065307               0.000066197               0.000000000               0.000000000               0.000000000               0.000000000               0.000071396               0.000211174              -0.000008911               0.000000377               0.000070265               0.000070642               0.000000000               0.000000000               0.000000000               0.000000000               0.000073372               0.000225200              -0.000003589              -0.000000635               0.000075278               0.000074642               0.000000000               0.000000000               0.000000000               0.000000000               0.000077206               0.000233853              -0.000001517              -0.000000280               0.000078044               0.000077764               0.000000000               0.000000000               0.000000000               0.000000000               0.000082843               0.000243554              -0.000004006               0.000000622               0.000080977               0.000081599               0.000000000               0.000000000               0.000000000               0.000000000               0.000086022               0.000248825              -0.000001053               0.000001155               0.000082556               0.000083711               0.000000000               0.000000000               0.000000000               0.000000000               0.000089052               0.000254268               0.000002526               0.000001611               0.000084218               0.000085829               0.000000000               0.000000000               0.000000000               0.000000000               0.000092266               0.000261958               0.000006485               0.000001855               0.000086700               0.000088555               0.000000000               0.000000000               0.000000000               0.000000000               0.000091410               0.000273022               0.000010469               0.000000151               0.000090956               0.000091107               0.000000000               0.000000000               0.000000000               0.000000000               0.000084646               0.000287782               0.000012964              -0.000004231               0.000097336               0.000093106               0.000000000               0.000000000               0.000000000               0.000000000               0.000074235               0.000307156               0.000013930              -0.000010557               0.000105903               0.000095347               0.000000000               0.000000000               0.000000000               0.000000000               0.000060595               0.000331014               0.000012916              -0.000018654               0.000116555               0.000097901               0.000000000               0.000000000               0.000000000               0.000000000               0.000043273               0.000359011               0.000010106              -0.000028649               0.000129219               0.000100570               0.000000000               0.000000000               0.000000000               0.000000000               0.000022515               0.000392160               0.000005673              -0.000040577               0.000144244               0.000103667               0.000000000               0.000000000               0.000000000               0.000000000               0.000016474               0.000420375               0.000006041              -0.000046369               0.000155580               0.000109211               0.000000000               0.000000000               0.000000000               0.000000000               0.000056370               0.000245042               0.000056903              -0.000009491               0.000084844               0.000075352               0.000000000               0.000000000               0.000000000               0.000000000               0.000060354               0.000219172               0.000028221              -0.000004764               0.000074645               0.000069881               0.000000000               0.000000000               0.000000000               0.000000000               0.000072752               0.000225500              -0.000002990              -0.000000905               0.000075468               0.000074562               0.000000000               0.000000000               0.000000000               0.000000000               0.000078419               0.000250339              -0.000011043              -0.000001885               0.000084074               0.000082189               0.000000000               0.000000000               0.000000000               0.000000000               0.000087265               0.000272922              -0.000003466              -0.000001391               0.000091437               0.000090046               0.000000000               0.000000000               0.000000000               0.000000000               0.000096938               0.000295380               0.000002358              -0.000000571               0.000098649               0.000098078               0.000000000               0.000000000               0.000000000               0.000000000               0.000106515               0.000312636               0.000002866               0.000000864               0.000103923               0.000104787               0.000000000               0.000000000               0.000000000               0.000000000               0.000115331               0.000328623               0.000008237               0.000002171               0.000108816               0.000110987               0.000000000               0.000000000               0.000000000               0.000000000               0.000118949               0.000344861               0.000014557               0.000001498               0.000114453               0.000115951               0.000000000               0.000000000               0.000000000               0.000000000               0.000120878               0.000365751               0.000020483              -0.000000390               0.000122046               0.000121656               0.000000000               0.000000000               0.000000000               0.000000000               0.000117291               0.000392680               0.000025313              -0.000005101               0.000132592               0.000127491               0.000000000               0.000000000               0.000000000               0.000000000               0.000104499               0.000424408               0.000028079              -0.000013864               0.000146089               0.000132225               0.000000000               0.000000000               0.000000000               0.000000000               0.000087200               0.000461103               0.000028434              -0.000024938               0.000162012               0.000137074               0.000000000               0.000000000               0.000000000               0.000000000               0.000067344               0.000500963               0.000026164              -0.000037366               0.000179441               0.000142075               0.000000000               0.000000000               0.000000000               0.000000000               0.000045062               0.000542024               0.000020851              -0.000050854               0.000197624               0.000146770               0.000000000               0.000000000               0.000000000               0.000000000               0.000022181               0.000583255               0.000011967              -0.000064589               0.000215946               0.000151357               0.000000000               0.000000000               0.000000000               0.000000000               0.000016309               0.000613237               0.000009818              -0.000070539               0.000227923               0.000157384               0.000000000               0.000000000               0.000000000               0.000000000               0.000071306               0.000260441               0.000073419              -0.000005815               0.000088751               0.000082936               0.000000000               0.000000000               0.000000000               0.000000000               0.000068796               0.000245464               0.000038357              -0.000004885               0.000083449               0.000078564               0.000000000               0.000000000               0.000000000               0.000000000               0.000078247               0.000270857               0.000001324              -0.000004515               0.000091790               0.000087275               0.000000000               0.000000000               0.000000000               0.000000000               0.000089647               0.000312090              -0.000009322              -0.000005394               0.000105827               0.000100433               0.000000000               0.000000000               0.000000000               0.000000000               0.000109991               0.000351552              -0.000001808              -0.000002697               0.000118082               0.000115384               0.000000000               0.000000000               0.000000000               0.000000000               0.000126206               0.000384225               0.000006900              -0.000000701               0.000128307               0.000127607               0.000000000               0.000000000               0.000000000               0.000000000               0.000137297               0.000411279               0.000009925               0.000000076               0.000137066               0.000137143               0.000000000               0.000000000               0.000000000               0.000000000               0.000144111               0.000438334               0.000017708              -0.000000750               0.000146360               0.000145610               0.000000000               0.000000000               0.000000000               0.000000000               0.000143803               0.000465645               0.000026838              -0.000004279               0.000156640               0.000152360               0.000000000               0.000000000               0.000000000               0.000000000               0.000141712               0.000499589               0.000033446              -0.000009307               0.000169630               0.000160323               0.000000000               0.000000000               0.000000000               0.000000000               0.000133376               0.000538897               0.000037853              -0.000017346               0.000185412               0.000168067               0.000000000               0.000000000               0.000000000               0.000000000               0.000116458               0.000581371               0.000039086              -0.000028999               0.000203455               0.000174455               0.000000000               0.000000000               0.000000000               0.000000000               0.000095798               0.000626031               0.000037284              -0.000042330               0.000222785               0.000180455               0.000000000               0.000000000               0.000000000               0.000000000               0.000073342               0.000671166               0.000032370              -0.000056392               0.000242517               0.000186125               0.000000000               0.000000000               0.000000000               0.000000000               0.000048872               0.000714575               0.000024322              -0.000070995               0.000261854               0.000190859               0.000000000               0.000000000               0.000000000               0.000000000               0.000023925               0.000754539               0.000013269              -0.000085345               0.000279959               0.000194614               0.000000000               0.000000000               0.000000000               0.000000000               0.000016853               0.000781857               0.000010032              -0.000091412               0.000291087               0.000199675               0.000000000               0.000000000               0.000000000               0.000000000               0.000085635               0.000271758               0.000089328              -0.000001857               0.000091204               0.000089347               0.000000000               0.000000000               0.000000000               0.000000000               0.000076524               0.000272229               0.000049306              -0.000005332               0.000092519               0.000087187               0.000000000               0.000000000               0.000000000               0.000000000               0.000087336               0.000329331               0.000006734              -0.000008415               0.000112581               0.000104165               0.000000000               0.000000000               0.000000000               0.000000000               0.000107100               0.000387609              -0.000007170              -0.000008288               0.000131964               0.000123676               0.000000000               0.000000000               0.000000000               0.000000000               0.000135178               0.000435472               0.000002764              -0.000003742               0.000146403               0.000142661               0.000000000               0.000000000               0.000000000               0.000000000               0.000155274               0.000471405               0.000014408              -0.000000698               0.000157366               0.000156668               0.000000000               0.000000000               0.000000000               0.000000000               0.000167222               0.000507818               0.000019845              -0.000000769               0.000169527               0.000168758               0.000000000               0.000000000               0.000000000               0.000000000               0.000168742               0.000542732               0.000028867              -0.000004563               0.000182430               0.000177867               0.000000000               0.000000000               0.000000000               0.000000000               0.000162626               0.000581102               0.000038329              -0.000011653               0.000197583               0.000185930               0.000000000               0.000000000               0.000000000               0.000000000               0.000154044               0.000626236               0.000043146              -0.000020513               0.000215581               0.000195068               0.000000000               0.000000000               0.000000000               0.000000000               0.000139705               0.000675931               0.000045074              -0.000032102               0.000236009               0.000203907               0.000000000               0.000000000               0.000000000               0.000000000               0.000117885               0.000725587               0.000043888              -0.000046491               0.000257357               0.000210865               0.000000000               0.000000000               0.000000000               0.000000000               0.000094499               0.000774847               0.000039583              -0.000061419               0.000278753               0.000217334               0.000000000               0.000000000               0.000000000               0.000000000               0.000071130               0.000822359               0.000032516              -0.000076121               0.000299491               0.000223370               0.000000000               0.000000000               0.000000000               0.000000000               0.000046616               0.000866202               0.000023307              -0.000090794               0.000318996               0.000228202               0.000000000               0.000000000               0.000000000               0.000000000               0.000022631               0.000906420               0.000012267              -0.000104816               0.000337076               0.000232260               0.000000000               0.000000000               0.000000000               0.000000000               0.000016471               0.000934200               0.000009447              -0.000110598               0.000348263               0.000237665               0.000000000               0.000000000               0.000000000               0.000000000               0.000098354               0.000278883               0.000104533               0.000002022               0.000092286               0.000094308               0.000000000               0.000000000               0.000000000               0.000000000               0.000086653               0.000301517               0.000059314              -0.000005195               0.000102236               0.000097041               0.000000000               0.000000000               0.000000000               0.000000000               0.000098798               0.000386128               0.000013570              -0.000011217               0.000132447               0.000121230               0.000000000               0.000000000               0.000000000               0.000000000               0.000123846               0.000454797               0.000001102              -0.000010407               0.000155066               0.000144659               0.000000000               0.000000000               0.000000000               0.000000000               0.000156926               0.000503195               0.000009646              -0.000004052               0.000169081               0.000165029               0.000000000               0.000000000               0.000000000               0.000000000               0.000179726               0.000544058               0.000019790              -0.000000610               0.000181554               0.000180944               0.000000000               0.000000000               0.000000000               0.000000000               0.000187744               0.000588749               0.000025313              -0.000003190               0.000197311               0.000194121               0.000000000               0.000000000               0.000000000               0.000000000               0.000183631               0.000633074               0.000034865              -0.000010273               0.000214447               0.000204174               0.000000000               0.000000000               0.000000000               0.000000000               0.000173380               0.000683325               0.000043343              -0.000020398               0.000234572               0.000214174               0.000000000               0.000000000               0.000000000               0.000000000               0.000160936               0.000741169               0.000045877              -0.000032295               0.000257819               0.000225524               0.000000000               0.000000000               0.000000000               0.000000000               0.000141431               0.000800584               0.000045632              -0.000047036               0.000282538               0.000235501               0.000000000               0.000000000               0.000000000               0.000000000               0.000116645               0.000859205               0.000043005              -0.000063659               0.000307618               0.000243960               0.000000000               0.000000000               0.000000000               0.000000000               0.000092634               0.000916793               0.000037230              -0.000079861               0.000332215               0.000252354               0.000000000               0.000000000               0.000000000               0.000000000               0.000068752               0.000971787               0.000029721              -0.000095691               0.000355823               0.000260132               0.000000000               0.000000000               0.000000000               0.000000000               0.000044417               0.001022960               0.000020961              -0.000111213               0.000378054               0.000266841               0.000000000               0.000000000               0.000000000               0.000000000               0.000021739               0.001069577               0.000010984              -0.000125545               0.000398370               0.000272826               0.000000000               0.000000000               0.000000000               0.000000000               0.000016299               0.001100439               0.000009034              -0.000131442               0.000410624               0.000279181               0.000000000               0.000000000               0.000000000               0.000000000               0.000113213               0.000277549               0.000112818               0.000007761               0.000089929               0.000097689               0.000000000               0.000000000               0.000000000               0.000000000               0.000096496               0.000326282               0.000068746              -0.000004599               0.000110293               0.000105693               0.000000000               0.000000000               0.000000000               0.000000000               0.000107186               0.000432519               0.000022393              -0.000013870               0.000148795               0.000134925               0.000000000               0.000000000               0.000000000               0.000000000               0.000137558               0.000508325               0.000007472              -0.000011956               0.000173425               0.000161469               0.000000000               0.000000000               0.000000000               0.000000000               0.000173977               0.000560039               0.000011349              -0.000004763               0.000188266               0.000183502               0.000000000               0.000000000               0.000000000               0.000000000               0.000196902               0.000612217               0.000019958              -0.000002689               0.000204967               0.000202278               0.000000000               0.000000000               0.000000000               0.000000000               0.000198625               0.000667176               0.000026657              -0.000008913               0.000225361               0.000216448               0.000000000               0.000000000               0.000000000               0.000000000               0.000191265               0.000724807               0.000037624              -0.000018876               0.000247892               0.000229016               0.000000000               0.000000000               0.000000000               0.000000000               0.000180846               0.000790185               0.000043734              -0.000030956               0.000273711               0.000242755               0.000000000               0.000000000               0.000000000               0.000000000               0.000166501               0.000862155               0.000045053              -0.000045332               0.000302493               0.000257161               0.000000000               0.000000000               0.000000000               0.000000000               0.000144650               0.000932309               0.000043900              -0.000062295               0.000331531               0.000269237               0.000000000               0.000000000               0.000000000               0.000000000               0.000120730               0.001001111               0.000039285              -0.000079865               0.000360322               0.000280457               0.000000000               0.000000000               0.000000000               0.000000000               0.000096675               0.001068425               0.000032339              -0.000097300               0.000388571               0.000291272               0.000000000               0.000000000               0.000000000               0.000000000               0.000072010               0.001132080               0.000024086              -0.000114506               0.000415525               0.000301019               0.000000000               0.000000000               0.000000000               0.000000000               0.000046956               0.001191188               0.000015557              -0.000131290               0.000440822               0.000309532               0.000000000               0.000000000               0.000000000               0.000000000               0.000023591               0.001244128               0.000007732              -0.000146669               0.000463595               0.000316926               0.000000000               0.000000000               0.000000000               0.000000000               0.000016028               0.001277230               0.000006835              -0.000153643               0.000476953               0.000323310               0.000000000               0.000000000               0.000000000               0.000000000               0.000127171               0.000267692               0.000112044               0.000014227               0.000084487               0.000098715               0.000000000               0.000000000               0.000000000               0.000000000               0.000105113               0.000338609               0.000074135              -0.000002909               0.000113838               0.000110929               0.000000000               0.000000000               0.000000000               0.000000000               0.000107954               0.000464347               0.000029842              -0.000017561               0.000160634               0.000143074               0.000000000               0.000000000               0.000000000               0.000000000               0.000140291               0.000545286               0.000011124              -0.000015551               0.000186944               0.000171392               0.000000000               0.000000000               0.000000000               0.000000000               0.000184013               0.000606739               0.000009684              -0.000006838               0.000204524               0.000197686               0.000000000               0.000000000               0.000000000               0.000000000               0.000210154               0.000671152               0.000016751              -0.000005086               0.000225410               0.000220324               0.000000000               0.000000000               0.000000000               0.000000000               0.000210553               0.000736433               0.000026677              -0.000013097               0.000249841               0.000236744               0.000000000               0.000000000               0.000000000               0.000000000               0.000204517               0.000804563               0.000037249              -0.000023876               0.000276144               0.000252267               0.000000000               0.000000000               0.000000000               0.000000000               0.000195562               0.000880598               0.000041515              -0.000036739               0.000305776               0.000269037               0.000000000               0.000000000               0.000000000               0.000000000               0.000180316               0.000960530               0.000042126              -0.000052448               0.000337656               0.000285208               0.000000000               0.000000000               0.000000000               0.000000000               0.000159899               0.001038010               0.000040609              -0.000069789               0.000369263               0.000299474               0.000000000               0.000000000               0.000000000               0.000000000               0.000138311               0.001114129               0.000034460              -0.000087399               0.000400506               0.000313106               0.000000000               0.000000000               0.000000000               0.000000000               0.000115820               0.001188641               0.000026305              -0.000105147               0.000431259               0.000326112               0.000000000               0.000000000               0.000000000               0.000000000               0.000091748               0.001259140               0.000017407              -0.000122987               0.000460705               0.000337718               0.000000000               0.000000000               0.000000000               0.000000000               0.000068225               0.001325733               0.000008788              -0.000140132               0.000488617               0.000348485               0.000000000               0.000000000               0.000000000               0.000000000               0.000047593               0.001386925               0.000002028              -0.000155518               0.000514143               0.000358625               0.000000000               0.000000000               0.000000000               0.000000000               0.000037250               0.001420324              -0.000000085              -0.000163571               0.000527960               0.000364389               0.000000000               0.000000000               0.000000000               0.000000000               0.000129957               0.000245014               0.000106762               0.000018107               0.000075635               0.000093742               0.000000000               0.000000000               0.000000000               0.000000000               0.000109116               0.000325619               0.000077442               0.000000216               0.000108467               0.000108683               0.000000000               0.000000000               0.000000000               0.000000000               0.000109231               0.000462075               0.000041282              -0.000016798               0.000159623               0.000142825               0.000000000               0.000000000               0.000000000               0.000000000               0.000140051               0.000560230               0.000021679              -0.000017509               0.000192578               0.000175068               0.000000000               0.000000000               0.000000000               0.000000000               0.000187305               0.000640415               0.000013165              -0.000009812               0.000216740               0.000206928               0.000000000               0.000000000               0.000000000               0.000000000               0.000223190               0.000710968               0.000015053              -0.000005175               0.000238712               0.000233537               0.000000000               0.000000000               0.000000000               0.000000000               0.000232527               0.000779051               0.000025039              -0.000010184               0.000263075               0.000252892               0.000000000               0.000000000               0.000000000               0.000000000               0.000229197               0.000845890               0.000035181              -0.000019787               0.000288556               0.000268769               0.000000000               0.000000000               0.000000000               0.000000000               0.000222940               0.000916654               0.000040376              -0.000030979               0.000315875               0.000284895               0.000000000               0.000000000               0.000000000               0.000000000               0.000212637               0.000994232               0.000041930              -0.000044540               0.000346254               0.000301714               0.000000000               0.000000000               0.000000000               0.000000000               0.000196645               0.001071266               0.000040449              -0.000060166               0.000377140               0.000316974               0.000000000               0.000000000               0.000000000               0.000000000               0.000177464               0.001146710               0.000036030              -0.000076790               0.000407829               0.000331040               0.000000000               0.000000000               0.000000000               0.000000000               0.000157939               0.001222334               0.000028485              -0.000093564               0.000438629               0.000345064               0.000000000               0.000000000               0.000000000               0.000000000               0.000138028               0.001298394               0.000019204              -0.000110538               0.000469640               0.000359101               0.000000000               0.000000000               0.000000000               0.000000000               0.000117808               0.001372416               0.000010599              -0.000127374               0.000499926               0.000372552               0.000000000               0.000000000               0.000000000               0.000000000               0.000100469               0.001447050               0.000003205              -0.000143205               0.000530080               0.000386875               0.000000000               0.000000000               0.000000000               0.000000000               0.000087218               0.001483221              -0.000002224              -0.000152696               0.000545300               0.000392605               0.000000000               0.000000000               0.000000000               0.000000000               0.000125606               0.000211681               0.000096739               0.000020642               0.000063679               0.000084321               0.000000000               0.000000000               0.000000000               0.000000000               0.000110959               0.000297755               0.000080243               0.000004390               0.000097787               0.000102177               0.000000000               0.000000000               0.000000000               0.000000000               0.000116693               0.000445924               0.000055242              -0.000011981               0.000152633               0.000140653               0.000000000               0.000000000               0.000000000               0.000000000               0.000144208               0.000564664               0.000034906              -0.000016505               0.000193721               0.000177216               0.000000000               0.000000000               0.000000000               0.000000000               0.000186847               0.000658102               0.000019727              -0.000012195               0.000223430               0.000211235               0.000000000               0.000000000               0.000000000               0.000000000               0.000228298               0.000733579               0.000013180              -0.000006086               0.000246553               0.000240467               0.000000000               0.000000000               0.000000000               0.000000000               0.000248258               0.000801572               0.000017196              -0.000007100               0.000269555               0.000262455               0.000000000               0.000000000               0.000000000               0.000000000               0.000250038               0.000866782               0.000025822              -0.000014584               0.000293786               0.000279202               0.000000000               0.000000000               0.000000000               0.000000000               0.000247963               0.000931213               0.000032718              -0.000023415               0.000318206               0.000294791               0.000000000               0.000000000               0.000000000               0.000000000               0.000243935               0.001002707               0.000036574              -0.000033863               0.000345520               0.000311657               0.000000000               0.000000000               0.000000000               0.000000000               0.000237240               0.001079610               0.000036649              -0.000045986               0.000375195               0.000329209               0.000000000               0.000000000               0.000000000               0.000000000               0.000226497               0.001154772               0.000035028              -0.000059410               0.000404723               0.000345313               0.000000000               0.000000000               0.000000000               0.000000000               0.000212410               0.001226795               0.000031058              -0.000073696               0.000433493               0.000359797               0.000000000               0.000000000               0.000000000               0.000000000               0.000199416               0.001303236               0.000023778              -0.000088123               0.000463782               0.000375659               0.000000000               0.000000000               0.000000000               0.000000000               0.000184176               0.001376995               0.000015179              -0.000103058               0.000493346               0.000390288               0.000000000               0.000000000               0.000000000               0.000000000               0.000167921               0.001450711               0.000007007              -0.000118368               0.000523022               0.000404653               0.000000000               0.000000000               0.000000000               0.000000000               0.000151952               0.001483708              -0.000000705              -0.000128481               0.000537391               0.000408910               0.000000000               0.000000000               0.000000000               0.000000000               0.000119023               0.000175684               0.000082044               0.000022673               0.000051003               0.000073676               0.000000000               0.000000000               0.000000000               0.000000000               0.000114851               0.000267170               0.000078996               0.000009673               0.000085831               0.000095504               0.000000000               0.000000000               0.000000000               0.000000000               0.000125720               0.000427439               0.000066132              -0.000006285               0.000144573               0.000138288               0.000000000               0.000000000               0.000000000               0.000000000               0.000150563               0.000558420               0.000046934              -0.000013341               0.000190585               0.000177244               0.000000000               0.000000000               0.000000000               0.000000000               0.000186176               0.000661683               0.000027848              -0.000012894               0.000224857               0.000211962               0.000000000               0.000000000               0.000000000               0.000000000               0.000226052               0.000744543               0.000013785              -0.000008298               0.000250945               0.000242646               0.000000000               0.000000000               0.000000000               0.000000000               0.000255875               0.000817822               0.000010023              -0.000006275               0.000274696               0.000268422               0.000000000               0.000000000               0.000000000               0.000000000               0.000267500               0.000885747               0.000015387              -0.000010406               0.000298715               0.000288309               0.000000000               0.000000000               0.000000000               0.000000000               0.000271589               0.000948639               0.000022993              -0.000016734               0.000321788               0.000305054               0.000000000               0.000000000               0.000000000               0.000000000               0.000272945               0.001014146               0.000028395              -0.000024414               0.000346183               0.000321769               0.000000000               0.000000000               0.000000000               0.000000000               0.000273164               0.001086597               0.000030880              -0.000033388               0.000373325               0.000339937               0.000000000               0.000000000               0.000000000               0.000000000               0.000272249               0.001163169               0.000030567              -0.000043302               0.000402153               0.000358851               0.000000000               0.000000000               0.000000000               0.000000000               0.000266431               0.001234727               0.000029162              -0.000054429               0.000429714               0.000375285               0.000000000               0.000000000               0.000000000               0.000000000               0.000259039               0.001306706               0.000025436              -0.000066199               0.000457630               0.000391432               0.000000000               0.000000000               0.000000000               0.000000000               0.000251026               0.001380117               0.000018191              -0.000078380               0.000486161               0.000407781               0.000000000               0.000000000               0.000000000               0.000000000               0.000240128               0.001453096               0.000009973              -0.000091589               0.000514890               0.000423301               0.000000000               0.000000000               0.000000000               0.000000000               0.000225018               0.001483130               0.000002318              -0.000101009               0.000528041               0.000427032               0.000000000               0.000000000               0.000000000               0.000000000               0.000103860               0.000141730               0.000066670               0.000021231               0.000040166               0.000061397               0.000000000               0.000000000               0.000000000               0.000000000               0.000117850               0.000237113               0.000072675               0.000014554               0.000074186               0.000088740               0.000000000               0.000000000               0.000000000               0.000000000               0.000137861               0.000399475               0.000069339               0.000001764               0.000132569               0.000134333               0.000000000               0.000000000               0.000000000               0.000000000               0.000160807               0.000534845               0.000053269              -0.000006553               0.000180464               0.000173911               0.000000000               0.000000000               0.000000000               0.000000000               0.000188990               0.000648947               0.000034358              -0.000010247               0.000219729               0.000209482               0.000000000               0.000000000               0.000000000               0.000000000               0.000225312               0.000745149               0.000017053              -0.000008652               0.000251265               0.000242613               0.000000000               0.000000000               0.000000000               0.000000000               0.000259774               0.000829279               0.000007245              -0.000006245               0.000278505               0.000272261               0.000000000               0.000000000               0.000000000               0.000000000               0.000282278               0.000904041               0.000007533              -0.000007151               0.000303728               0.000296577               0.000000000               0.000000000               0.000000000               0.000000000               0.000293365               0.000968905               0.000013403              -0.000011101               0.000326666               0.000315564               0.000000000               0.000000000               0.000000000               0.000000000               0.000299965               0.001029622               0.000018400              -0.000016216               0.000348609               0.000332393               0.000000000               0.000000000               0.000000000               0.000000000               0.000304732               0.001095204               0.000021924              -0.000022626               0.000372606               0.000349980               0.000000000               0.000000000               0.000000000               0.000000000               0.000309950               0.001167918               0.000022848              -0.000029758               0.000399222               0.000369463               0.000000000               0.000000000               0.000000000               0.000000000               0.000313753               0.001241798               0.000021906              -0.000037567               0.000426451               0.000388884               0.000000000               0.000000000               0.000000000               0.000000000               0.000313743               0.001310968               0.000020581              -0.000046217               0.000452391               0.000406174               0.000000000               0.000000000               0.000000000               0.000000000               0.000313530               0.001381692               0.000016533              -0.000055137               0.000478938               0.000423801               0.000000000               0.000000000               0.000000000               0.000000000               0.000313451               0.001455574               0.000009466              -0.000064402               0.000506654               0.000442251               0.000000000               0.000000000               0.000000000               0.000000000               0.000306418               0.001486675               0.000003335              -0.000070927               0.000519196               0.000448268               0.000000000               0.000000000               0.000000000               0.000000000               0.000084331               0.000109080               0.000049135               0.000017989               0.000030364               0.000048352               0.000000000               0.000000000               0.000000000               0.000000000               0.000117857               0.000205589               0.000060709               0.000018497               0.000062363               0.000080861               0.000000000               0.000000000               0.000000000               0.000000000               0.000150523               0.000365008               0.000063956               0.000010820               0.000118061               0.000128881               0.000000000               0.000000000               0.000000000               0.000000000               0.000174429               0.000506054               0.000052020               0.000002154               0.000167965               0.000170119               0.000000000               0.000000000               0.000000000               0.000000000               0.000199136               0.000631020               0.000036656              -0.000004201               0.000211738               0.000207537               0.000000000               0.000000000               0.000000000               0.000000000               0.000229776               0.000739532               0.000020531              -0.000006276               0.000248600               0.000242324               0.000000000               0.000000000               0.000000000               0.000000000               0.000263009               0.000833353               0.000007799              -0.000005541               0.000279628               0.000274088               0.000000000               0.000000000               0.000000000               0.000000000               0.000290802               0.000914529               0.000003179              -0.000005265               0.000306595               0.000301330               0.000000000               0.000000000               0.000000000               0.000000000               0.000309697               0.000984667               0.000005230              -0.000006947               0.000330535               0.000323588               0.000000000               0.000000000               0.000000000               0.000000000               0.000322219               0.001044701               0.000008716              -0.000009755               0.000351482               0.000341726               0.000000000               0.000000000               0.000000000               0.000000000               0.000332685               0.001105738               0.000011830              -0.000013461               0.000373063               0.000359602               0.000000000               0.000000000               0.000000000               0.000000000               0.000342816               0.001172881               0.000013502              -0.000018054               0.000396975               0.000378921               0.000000000               0.000000000               0.000000000               0.000000000               0.000353943               0.001246310               0.000013041              -0.000023060               0.000423119               0.000400059               0.000000000               0.000000000               0.000000000               0.000000000               0.000363177               0.001317749               0.000012026              -0.000028527               0.000448754               0.000420227               0.000000000               0.000000000               0.000000000               0.000000000               0.000370631               0.001385620               0.000010654              -0.000034216               0.000473274               0.000439058               0.000000000               0.000000000               0.000000000               0.000000000               0.000379363               0.001455477               0.000006305              -0.000039673               0.000498379               0.000458705               0.000000000               0.000000000               0.000000000               0.000000000               0.000381223               0.001488187               0.000002393              -0.000043064               0.000510412               0.000467348               0.000000000               0.000000000               0.000000000               0.000000000               0.000067145               0.000085869               0.000030868               0.000014446               0.000023808               0.000038253               0.000000000               0.000000000               0.000000000               0.000000000               0.000115771               0.000180213               0.000043307               0.000020887               0.000053108               0.000073995               0.000000000               0.000000000               0.000000000               0.000000000               0.000160496               0.000334919               0.000049499               0.000018321               0.000105531               0.000123852               0.000000000               0.000000000               0.000000000               0.000000000               0.000187857               0.000477875               0.000042866               0.000010712               0.000155720               0.000166431               0.000000000               0.000000000               0.000000000               0.000000000               0.000212442               0.000609411               0.000032240               0.000003489               0.000201972               0.000205461               0.000000000               0.000000000               0.000000000               0.000000000               0.000238324               0.000726915               0.000019488              -0.000001493               0.000242800               0.000241307               0.000000000               0.000000000               0.000000000               0.000000000               0.000268135               0.000829725               0.000007517              -0.000003165               0.000277627               0.000274462               0.000000000               0.000000000               0.000000000               0.000000000               0.000297565               0.000918688               0.000001495              -0.000003249               0.000307309               0.000304060               0.000000000               0.000000000               0.000000000               0.000000000               0.000322185               0.000995715               0.000001181              -0.000003645               0.000333117               0.000329472               0.000000000               0.000000000               0.000000000               0.000000000               0.000340384               0.001059519               0.000002694              -0.000004796               0.000354768               0.000349972               0.000000000               0.000000000               0.000000000               0.000000000               0.000355281               0.001118280               0.000004683              -0.000006555               0.000374941               0.000368386               0.000000000               0.000000000               0.000000000               0.000000000               0.000369661               0.001180023               0.000005840              -0.000008880               0.000396297               0.000387417               0.000000000               0.000000000               0.000000000               0.000000000               0.000385438               0.001248937               0.000005600              -0.000011578               0.000420167               0.000408589               0.000000000               0.000000000               0.000000000               0.000000000               0.000402488               0.001322569               0.000004585              -0.000014388               0.000445648               0.000431260               0.000000000               0.000000000               0.000000000               0.000000000               0.000417308               0.001390078               0.000004032              -0.000017269               0.000469111               0.000451842               0.000000000               0.000000000               0.000000000               0.000000000               0.000431613               0.001453869               0.000002537              -0.000019879               0.000491245               0.000471366               0.000000000               0.000000000               0.000000000               0.000000000               0.000438497               0.001485794               0.000000927              -0.000021288               0.000502356               0.000481068               0.000000000               0.000000000               0.000000000               0.000000000               0.000054276               0.000074452               0.000015053               0.000011047               0.000021135               0.000032182               0.000000000               0.000000000               0.000000000               0.000000000               0.000113146               0.000164493               0.000022885               0.000021868               0.000047541               0.000069409               0.000000000               0.000000000               0.000000000               0.000000000               0.000166901               0.000313479               0.000027161               0.000023403               0.000096691               0.000120094               0.000000000               0.000000000               0.000000000               0.000000000               0.000198902               0.000457030               0.000024343               0.000017459               0.000146522               0.000163981               0.000000000               0.000000000               0.000000000               0.000000000               0.000223329               0.000592063               0.000019078               0.000009740               0.000194106               0.000203846               0.000000000               0.000000000               0.000000000               0.000000000               0.000246750               0.000713968               0.000012470               0.000003285               0.000236892               0.000240177               0.000000000               0.000000000               0.000000000               0.000000000               0.000273669               0.000823715               0.000005703              -0.000000339               0.000274682               0.000274343               0.000000000               0.000000000               0.000000000               0.000000000               0.000302938               0.000919932               0.000001584              -0.000001390               0.000307104               0.000305714               0.000000000               0.000000000               0.000000000               0.000000000               0.000329250               0.001001664               0.000000377              -0.000001739               0.000334464               0.000332725               0.000000000               0.000000000               0.000000000               0.000000000               0.000351073               0.001069976               0.000000395              -0.000002095               0.000357353               0.000355259               0.000000000               0.000000000               0.000000000               0.000000000               0.000369393               0.001128492               0.000001157              -0.000002539               0.000377007               0.000374468               0.000000000               0.000000000               0.000000000               0.000000000               0.000387105               0.001186371               0.000001671              -0.000003132               0.000396497               0.000393365               0.000000000               0.000000000               0.000000000               0.000000000               0.000406572               0.001250711               0.000001559              -0.000003874               0.000418191               0.000414317               0.000000000               0.000000000               0.000000000               0.000000000               0.000428523               0.001323429               0.000000923              -0.000004732               0.000442716               0.000437984               0.000000000               0.000000000               0.000000000               0.000000000               0.000448633               0.001391930               0.000000536              -0.000005754               0.000465890               0.000460136               0.000000000               0.000000000               0.000000000               0.000000000               0.000466143               0.001453733               0.000000413              -0.000006913               0.000486877               0.000479964               0.000000000               0.000000000               0.000000000               0.000000000               0.000474379               0.001484803               0.000000114              -0.000007708               0.000497499               0.000489791               0.000000000               0.000000000               0.000000000               0.000000000               0.000000000               0.000000000               0.000000000               0.000000000               0.000000000               0.000000000               0.000000000               0.000000000               0.000000000               0.000000000               0.000000000               0.000000000               0.000000000               0.000000000               0.000000000               0.000000000               0.000000000               0.000000000               0.000000000               0.000000000               0.000000000               0.000000000               0.000000000               0.000000000               0.000000000               0.000000000               0.000000000               0.000000000               0.000000000               0.000000000               0.000000000               0.000000000               0.000000000               0.000000000               0.000000000               0.000000000               0.000000000               0.000000000               0.000000000               0.000000000               0.000000000               0.000000000               0.000000000               0.000000000               0.000000000               0.000000000               0.000000000               0.000000000               0.000000000               0.000000000               0.000000000               0.000000000               0.000000000               0.000000000               0.000000000               0.000000000               0.000000000               0.000000000               0.000000000               0.000000000               0.000000000               0.000000000               0.000000000               0.000000000               0.000000000               0.000000000               0.000000000               0.000000000               0.000000000               0.000000000               0.000000000               0.000000000               0.000000000               0.000000000               0.000000000               0.000000000               0.000000000               0.000000000               0.000000000               0.000000000               0.000000000               0.000000000               0.000000000               0.000000000               0.000000000               0.000000000               0.000000000               0.000000000               0.000000000               0.000000000               0.000000000               0.000000000               0.000000000               0.000000000               0.000000000               0.000000000               0.000000000               0.000000000               0.000000000               0.000000000               0.000000000               0.000000000               0.000000000               0.000000000               0.000000000               0.000000000               0.000000000               0.000000000               0.000000000               0.000000000               0.000000000               0.000000000               0.000000000               0.000000000               0.000000000               0.000000000               0.000000000               0.000000000               0.000000000               0.000000000               0.000000000               0.000000000               0.000000000               0.000000000               0.000000000               0.000000000               0.000000000               0.000000000               0.000000000               0.000000000               0.000000000               0.000000000               0.000000000               0.000000000               0.000000000               0.000000000               0.000000000               0.000000000               0.000000000               0.000000000               0.000000000               0.000000000               0.000000000               0.000000000               0.000000000               0.000000000               0.000000000               0.000000000               0.000000000               0.000000000               0.000000000               0.000000000               0.000000000               0.000000000               0.000000000               0.000000000               0.000000000               0.000000000               0.000000000               0.000000000               0.000000000               0.000000000               0.000000000               0.000000000               0.000000000               0.000000000               0.000000000               0.000000000               0.000000000               0.000000000 </DataArray>
</PointData>
</Piece>
</UnstructuredGrid> </VTKFile>
