<?xml version="1.0"?>
<VTKFile type="UnstructuredGrid" version="0.1">
<UnstructuredGrid>
<Piece NumberOfPoints="      1156" NumberOfCells="      1024">
<Points>
<DataArray type="Float64"                                    Name="coordinates"                                                      NumberOfComponents=" 3" format="ascii">
              0.133000000               0.000000000               0.000000000               0.155937500               0.000000000               0.000000000               0.178875000               0.000000000               0.000000000               0.201812500               0.000000000               0.000000000               0.224750000               0.000000000               0.000000000               0.247687500               0.000000000               0.000000000               0.270625000               0.000000000               0.000000000               0.293562500               0.000000000               0.000000000               0.316500000               0.000000000               0.000000000               0.339437500               0.000000000               0.000000000               0.362375000               0.000000000               0.000000000               0.385312500               0.000000000               0.000000000               0.408250000               0.000000000               0.000000000               0.431187500               0.000000000               0.000000000               0.454125000               0.000000000               0.000000000               0.477062500               0.000000000               0.000000000               0.500000000               0.000000000               0.000000000               0.132359569               0.013036280               0.000000000               0.155337096               0.016127762               0.000000000               0.178314623               0.019219245               0.000000000               0.201292150               0.022310727               0.000000000               0.224269676               0.025402210               0.000000000               0.247247203               0.028493692               0.000000000               0.270224730               0.031585175               0.000000000               0.293202257               0.034676657               0.000000000               0.316179784               0.037768140               0.000000000               0.339157311               0.040859622               0.000000000               0.362134838               0.043951105               0.000000000               0.385112365               0.047042587               0.000000000               0.408089892               0.050134070               0.000000000               0.431067419               0.053225552               0.000000000               0.454044946               0.056317035               0.000000000               0.477022473               0.059408517               0.000000000               0.500000000               0.062500000               0.000000000               0.130444442               0.025947013               0.000000000               0.153541665               0.032137825               0.000000000               0.176638887               0.038328636               0.000000000               0.199736109               0.044519448               0.000000000               0.222833332               0.050710260               0.000000000               0.245930554               0.056901071               0.000000000               0.269027776               0.063091883               0.000000000               0.292124999               0.069282695               0.000000000               0.315222221               0.075473506               0.000000000               0.338319444               0.081664318               0.000000000               0.361416666               0.087855130               0.000000000               0.384513888               0.094045942               0.000000000               0.407611111               0.100236753               0.000000000               0.430708333               0.106427565               0.000000000               0.453805555               0.112618377               0.000000000               0.476902778               0.118809188               0.000000000               0.500000000               0.125000000               0.000000000               0.127273065               0.038607862               0.000000000               0.150568498               0.047913621               0.000000000               0.173863932               0.057219379               0.000000000               0.197159365               0.066525138               0.000000000               0.220454798               0.075830897               0.000000000               0.243750232               0.085136655               0.000000000               0.267045665               0.094442414               0.000000000               0.290341099               0.103748172               0.000000000               0.313636532               0.113053931               0.000000000               0.336931966               0.122359690               0.000000000               0.360227399               0.131665448               0.000000000               0.383522833               0.140971207               0.000000000               0.406818266               0.150276966               0.000000000               0.430113700               0.159582724               0.000000000               0.453409133               0.168888483               0.000000000               0.476704567               0.178194241               0.000000000               0.500000000               0.187500000               0.000000000               0.122875978               0.050896897               0.000000000               0.146446229               0.063340840               0.000000000               0.170016481               0.075784784               0.000000000               0.193586732               0.088228728               0.000000000               0.217156983               0.100672672               0.000000000               0.240727235               0.113116616               0.000000000               0.264297486               0.125560560               0.000000000               0.287867738               0.138004504               0.000000000               0.311437989               0.150448448               0.000000000               0.335008240               0.162892392               0.000000000               0.358578492               0.175336336               0.000000000               0.382148743               0.187780280               0.000000000               0.405718994               0.200224224               0.000000000               0.429289246               0.212668168               0.000000000               0.452859497               0.225112112               0.000000000               0.476429749               0.237556056               0.000000000               0.500000000               0.250000000               0.000000000               0.117295528               0.062695766               0.000000000               0.141214558               0.078308531               0.000000000               0.165133587               0.093921295               0.000000000               0.189052617               0.109534060               0.000000000               0.212971646               0.125146824               0.000000000               0.236890676               0.140759589               0.000000000               0.260809705               0.156372354               0.000000000               0.284728735               0.171985118               0.000000000               0.308647764               0.187597883               0.000000000               0.332566794               0.203210648               0.000000000               0.356485823               0.218823412               0.000000000               0.380404853               0.234436177               0.000000000               0.404323882               0.250048941               0.000000000               0.428242912               0.265661706               0.000000000               0.452161941               0.281274471               0.000000000               0.476080971               0.296887235               0.000000000               0.500000000               0.312500000               0.000000000               0.110585458               0.073890841               0.000000000               0.134923867               0.092710163               0.000000000               0.159262276               0.111529486               0.000000000               0.183600685               0.130348808               0.000000000               0.207939094               0.149168131               0.000000000               0.232277503               0.167987453               0.000000000               0.256615912               0.186806776               0.000000000               0.280954320               0.205626098               0.000000000               0.305292729               0.224445420               0.000000000               0.329631138               0.243264743               0.000000000               0.353969547               0.262084065               0.000000000               0.378307956               0.280903388               0.000000000               0.402646365               0.299722710               0.000000000               0.426984773               0.318542033               0.000000000               0.451323182               0.337361355               0.000000000               0.475661591               0.356180678               0.000000000               0.500000000               0.375000000               0.000000000               0.102810390               0.084374307               0.000000000               0.127634741               0.106444663               0.000000000               0.152459092               0.128515018               0.000000000               0.177283442               0.150585374               0.000000000               0.202107793               0.172655730               0.000000000               0.226932143               0.194726086               0.000000000               0.251756494               0.216796442               0.000000000               0.276580845               0.238866798               0.000000000               0.301405195               0.260937153               0.000000000               0.326229546               0.283007509               0.000000000               0.351053896               0.305077865               0.000000000               0.375878247               0.327148221               0.000000000               0.400702598               0.349218577               0.000000000               0.425526948               0.371288933               0.000000000               0.450351299               0.393359288               0.000000000               0.475175649               0.415429644               0.000000000               0.500000000               0.437500000               0.000000000               0.094045202               0.094045202               0.000000000               0.119417377               0.119417377               0.000000000               0.144789552               0.144789552               0.000000000               0.170161727               0.170161727               0.000000000               0.195533901               0.195533901               0.000000000               0.220906076               0.220906076               0.000000000               0.246278251               0.246278251               0.000000000               0.271650426               0.271650426               0.000000000               0.297022601               0.297022601               0.000000000               0.322394776               0.322394776               0.000000000               0.347766951               0.347766951               0.000000000               0.373139126               0.373139126               0.000000000               0.398511300               0.398511300               0.000000000               0.423883475               0.423883475               0.000000000               0.449255650               0.449255650               0.000000000               0.474627825               0.474627825               0.000000000               0.500000000               0.500000000               0.000000000               0.084374307               0.102810390               0.000000000               0.106444663               0.127634741               0.000000000               0.128515018               0.152459092               0.000000000               0.150585374               0.177283442               0.000000000               0.172655730               0.202107793               0.000000000               0.194726086               0.226932143               0.000000000               0.216796442               0.251756494               0.000000000               0.238866798               0.276580845               0.000000000               0.260937153               0.301405195               0.000000000               0.283007509               0.326229546               0.000000000               0.305077865               0.351053896               0.000000000               0.327148221               0.375878247               0.000000000               0.349218577               0.400702598               0.000000000               0.371288933               0.425526948               0.000000000               0.393359288               0.450351299               0.000000000               0.415429644               0.475175649               0.000000000               0.437500000               0.500000000               0.000000000               0.073890841               0.110585458               0.000000000               0.092710163               0.134923867               0.000000000               0.111529486               0.159262276               0.000000000               0.130348808               0.183600685               0.000000000               0.149168131               0.207939094               0.000000000               0.167987453               0.232277503               0.000000000               0.186806776               0.256615912               0.000000000               0.205626098               0.280954320               0.000000000               0.224445420               0.305292729               0.000000000               0.243264743               0.329631138               0.000000000               0.262084065               0.353969547               0.000000000               0.280903388               0.378307956               0.000000000               0.299722710               0.402646365               0.000000000               0.318542033               0.426984773               0.000000000               0.337361355               0.451323182               0.000000000               0.356180678               0.475661591               0.000000000               0.375000000               0.500000000               0.000000000               0.062695766               0.117295528               0.000000000               0.078308531               0.141214558               0.000000000               0.093921295               0.165133587               0.000000000               0.109534060               0.189052617               0.000000000               0.125146824               0.212971646               0.000000000               0.140759589               0.236890676               0.000000000               0.156372354               0.260809705               0.000000000               0.171985118               0.284728735               0.000000000               0.187597883               0.308647764               0.000000000               0.203210648               0.332566794               0.000000000               0.218823412               0.356485823               0.000000000               0.234436177               0.380404853               0.000000000               0.250048941               0.404323882               0.000000000               0.265661706               0.428242912               0.000000000               0.281274471               0.452161941               0.000000000               0.296887235               0.476080971               0.000000000               0.312500000               0.500000000               0.000000000               0.050896897               0.122875978               0.000000000               0.063340840               0.146446229               0.000000000               0.075784784               0.170016481               0.000000000               0.088228728               0.193586732               0.000000000               0.100672672               0.217156983               0.000000000               0.113116616               0.240727235               0.000000000               0.125560560               0.264297486               0.000000000               0.138004504               0.287867738               0.000000000               0.150448448               0.311437989               0.000000000               0.162892392               0.335008240               0.000000000               0.175336336               0.358578492               0.000000000               0.187780280               0.382148743               0.000000000               0.200224224               0.405718994               0.000000000               0.212668168               0.429289246               0.000000000               0.225112112               0.452859497               0.000000000               0.237556056               0.476429749               0.000000000               0.250000000               0.500000000               0.000000000               0.038607862               0.127273065               0.000000000               0.047913621               0.150568498               0.000000000               0.057219379               0.173863932               0.000000000               0.066525138               0.197159365               0.000000000               0.075830897               0.220454798               0.000000000               0.085136655               0.243750232               0.000000000               0.094442414               0.267045665               0.000000000               0.103748172               0.290341099               0.000000000               0.113053931               0.313636532               0.000000000               0.122359690               0.336931966               0.000000000               0.131665448               0.360227399               0.000000000               0.140971207               0.383522833               0.000000000               0.150276966               0.406818266               0.000000000               0.159582724               0.430113700               0.000000000               0.168888483               0.453409133               0.000000000               0.178194241               0.476704567               0.000000000               0.187500000               0.500000000               0.000000000               0.025947013               0.130444442               0.000000000               0.032137825               0.153541665               0.000000000               0.038328636               0.176638887               0.000000000               0.044519448               0.199736109               0.000000000               0.050710260               0.222833332               0.000000000               0.056901071               0.245930554               0.000000000               0.063091883               0.269027776               0.000000000               0.069282695               0.292124999               0.000000000               0.075473506               0.315222221               0.000000000               0.081664318               0.338319444               0.000000000               0.087855130               0.361416666               0.000000000               0.094045942               0.384513888               0.000000000               0.100236753               0.407611111               0.000000000               0.106427565               0.430708333               0.000000000               0.112618377               0.453805555               0.000000000               0.118809188               0.476902778               0.000000000               0.125000000               0.500000000               0.000000000               0.013036280               0.132359569               0.000000000               0.016127762               0.155337096               0.000000000               0.019219245               0.178314623               0.000000000               0.022310727               0.201292150               0.000000000               0.025402210               0.224269676               0.000000000               0.028493692               0.247247203               0.000000000               0.031585175               0.270224730               0.000000000               0.034676657               0.293202257               0.000000000               0.037768140               0.316179784               0.000000000               0.040859622               0.339157311               0.000000000               0.043951105               0.362134838               0.000000000               0.047042587               0.385112365               0.000000000               0.050134070               0.408089892               0.000000000               0.053225552               0.431067419               0.000000000               0.056317035               0.454044946               0.000000000               0.059408517               0.477022473               0.000000000               0.062500000               0.500000000               0.000000000               0.000000000               0.133000000               0.000000000               0.000000000               0.155937500               0.000000000               0.000000000               0.178875000               0.000000000               0.000000000               0.201812500               0.000000000               0.000000000               0.224750000               0.000000000               0.000000000               0.247687500               0.000000000               0.000000000               0.270625000               0.000000000               0.000000000               0.293562500               0.000000000               0.000000000               0.316500000               0.000000000               0.000000000               0.339437500               0.000000000               0.000000000               0.362375000               0.000000000               0.000000000               0.385312500               0.000000000               0.000000000               0.408250000               0.000000000               0.000000000               0.431187500               0.000000000               0.000000000               0.454125000               0.000000000               0.000000000               0.477062500               0.000000000               0.000000000               0.500000000               0.000000000               0.133000000               0.000000000               0.000000000               0.155937500               0.000000000               0.000000000               0.178875000               0.000000000               0.000000000               0.201812500               0.000000000               0.000000000               0.224750000               0.000000000               0.000000000               0.247687500               0.000000000               0.000000000               0.270625000               0.000000000               0.000000000               0.293562500               0.000000000               0.000000000               0.316500000               0.000000000               0.000000000               0.339437500               0.000000000               0.000000000               0.362375000               0.000000000               0.000000000               0.385312500               0.000000000               0.000000000               0.408250000               0.000000000               0.000000000               0.431187500               0.000000000               0.000000000               0.454125000               0.000000000               0.000000000               0.477062500               0.000000000               0.000000000               0.500000000               0.000000000               0.000000000               0.132359569              -0.013036280               0.000000000               0.155337096              -0.016127762               0.000000000               0.178314623              -0.019219245               0.000000000               0.201292150              -0.022310727               0.000000000               0.224269676              -0.025402210               0.000000000               0.247247203              -0.028493692               0.000000000               0.270224730              -0.031585175               0.000000000               0.293202257              -0.034676657               0.000000000               0.316179784              -0.037768140               0.000000000               0.339157311              -0.040859622               0.000000000               0.362134838              -0.043951105               0.000000000               0.385112365              -0.047042587               0.000000000               0.408089892              -0.050134070               0.000000000               0.431067419              -0.053225552               0.000000000               0.454044946              -0.056317035               0.000000000               0.477022473              -0.059408517               0.000000000               0.500000000              -0.062500000               0.000000000               0.130444442              -0.025947013               0.000000000               0.153541665              -0.032137825               0.000000000               0.176638887              -0.038328636               0.000000000               0.199736109              -0.044519448               0.000000000               0.222833332              -0.050710260               0.000000000               0.245930554              -0.056901071               0.000000000               0.269027776              -0.063091883               0.000000000               0.292124999              -0.069282695               0.000000000               0.315222221              -0.075473506               0.000000000               0.338319444              -0.081664318               0.000000000               0.361416666              -0.087855130               0.000000000               0.384513888              -0.094045942               0.000000000               0.407611111              -0.100236753               0.000000000               0.430708333              -0.106427565               0.000000000               0.453805555              -0.112618377               0.000000000               0.476902778              -0.118809188               0.000000000               0.500000000              -0.125000000               0.000000000               0.127273065              -0.038607862               0.000000000               0.150568498              -0.047913621               0.000000000               0.173863932              -0.057219379               0.000000000               0.197159365              -0.066525138               0.000000000               0.220454798              -0.075830897               0.000000000               0.243750232              -0.085136655               0.000000000               0.267045665              -0.094442414               0.000000000               0.290341099              -0.103748172               0.000000000               0.313636532              -0.113053931               0.000000000               0.336931966              -0.122359690               0.000000000               0.360227399              -0.131665448               0.000000000               0.383522833              -0.140971207               0.000000000               0.406818266              -0.150276966               0.000000000               0.430113700              -0.159582724               0.000000000               0.453409133              -0.168888483               0.000000000               0.476704567              -0.178194241               0.000000000               0.500000000              -0.187500000               0.000000000               0.122875978              -0.050896897               0.000000000               0.146446229              -0.063340840               0.000000000               0.170016481              -0.075784784               0.000000000               0.193586732              -0.088228728               0.000000000               0.217156983              -0.100672672               0.000000000               0.240727235              -0.113116616               0.000000000               0.264297486              -0.125560560               0.000000000               0.287867738              -0.138004504               0.000000000               0.311437989              -0.150448448               0.000000000               0.335008240              -0.162892392               0.000000000               0.358578492              -0.175336336               0.000000000               0.382148743              -0.187780280               0.000000000               0.405718994              -0.200224224               0.000000000               0.429289246              -0.212668168               0.000000000               0.452859497              -0.225112112               0.000000000               0.476429749              -0.237556056               0.000000000               0.500000000              -0.250000000               0.000000000               0.117295528              -0.062695766               0.000000000               0.141214558              -0.078308531               0.000000000               0.165133587              -0.093921295               0.000000000               0.189052617              -0.109534060               0.000000000               0.212971646              -0.125146824               0.000000000               0.236890676              -0.140759589               0.000000000               0.260809705              -0.156372354               0.000000000               0.284728735              -0.171985118               0.000000000               0.308647764              -0.187597883               0.000000000               0.332566794              -0.203210648               0.000000000               0.356485823              -0.218823412               0.000000000               0.380404853              -0.234436177               0.000000000               0.404323882              -0.250048941               0.000000000               0.428242912              -0.265661706               0.000000000               0.452161941              -0.281274471               0.000000000               0.476080971              -0.296887235               0.000000000               0.500000000              -0.312500000               0.000000000               0.110585458              -0.073890841               0.000000000               0.134923867              -0.092710163               0.000000000               0.159262276              -0.111529486               0.000000000               0.183600685              -0.130348808               0.000000000               0.207939094              -0.149168131               0.000000000               0.232277503              -0.167987453               0.000000000               0.256615912              -0.186806776               0.000000000               0.280954320              -0.205626098               0.000000000               0.305292729              -0.224445420               0.000000000               0.329631138              -0.243264743               0.000000000               0.353969547              -0.262084065               0.000000000               0.378307956              -0.280903388               0.000000000               0.402646365              -0.299722710               0.000000000               0.426984773              -0.318542033               0.000000000               0.451323182              -0.337361355               0.000000000               0.475661591              -0.356180678               0.000000000               0.500000000              -0.375000000               0.000000000               0.102810390              -0.084374307               0.000000000               0.127634741              -0.106444663               0.000000000               0.152459092              -0.128515018               0.000000000               0.177283442              -0.150585374               0.000000000               0.202107793              -0.172655730               0.000000000               0.226932143              -0.194726086               0.000000000               0.251756494              -0.216796442               0.000000000               0.276580845              -0.238866798               0.000000000               0.301405195              -0.260937153               0.000000000               0.326229546              -0.283007509               0.000000000               0.351053896              -0.305077865               0.000000000               0.375878247              -0.327148221               0.000000000               0.400702598              -0.349218577               0.000000000               0.425526948              -0.371288933               0.000000000               0.450351299              -0.393359288               0.000000000               0.475175649              -0.415429644               0.000000000               0.500000000              -0.437500000               0.000000000               0.094045202              -0.094045202               0.000000000               0.119417377              -0.119417377               0.000000000               0.144789552              -0.144789552               0.000000000               0.170161727              -0.170161727               0.000000000               0.195533901              -0.195533901               0.000000000               0.220906076              -0.220906076               0.000000000               0.246278251              -0.246278251               0.000000000               0.271650426              -0.271650426               0.000000000               0.297022601              -0.297022601               0.000000000               0.322394776              -0.322394776               0.000000000               0.347766951              -0.347766951               0.000000000               0.373139126              -0.373139126               0.000000000               0.398511300              -0.398511300               0.000000000               0.423883475              -0.423883475               0.000000000               0.449255650              -0.449255650               0.000000000               0.474627825              -0.474627825               0.000000000               0.500000000              -0.500000000               0.000000000               0.084374307              -0.102810390               0.000000000               0.106444663              -0.127634741               0.000000000               0.128515018              -0.152459092               0.000000000               0.150585374              -0.177283442               0.000000000               0.172655730              -0.202107793               0.000000000               0.194726086              -0.226932143               0.000000000               0.216796442              -0.251756494               0.000000000               0.238866798              -0.276580845               0.000000000               0.260937153              -0.301405195               0.000000000               0.283007509              -0.326229546               0.000000000               0.305077865              -0.351053896               0.000000000               0.327148221              -0.375878247               0.000000000               0.349218577              -0.400702598               0.000000000               0.371288933              -0.425526948               0.000000000               0.393359288              -0.450351299               0.000000000               0.415429644              -0.475175649               0.000000000               0.437500000              -0.500000000               0.000000000               0.073890841              -0.110585458               0.000000000               0.092710163              -0.134923867               0.000000000               0.111529486              -0.159262276               0.000000000               0.130348808              -0.183600685               0.000000000               0.149168131              -0.207939094               0.000000000               0.167987453              -0.232277503               0.000000000               0.186806776              -0.256615912               0.000000000               0.205626098              -0.280954320               0.000000000               0.224445420              -0.305292729               0.000000000               0.243264743              -0.329631138               0.000000000               0.262084065              -0.353969547               0.000000000               0.280903388              -0.378307956               0.000000000               0.299722710              -0.402646365               0.000000000               0.318542033              -0.426984773               0.000000000               0.337361355              -0.451323182               0.000000000               0.356180678              -0.475661591               0.000000000               0.375000000              -0.500000000               0.000000000               0.062695766              -0.117295528               0.000000000               0.078308531              -0.141214558               0.000000000               0.093921295              -0.165133587               0.000000000               0.109534060              -0.189052617               0.000000000               0.125146824              -0.212971646               0.000000000               0.140759589              -0.236890676               0.000000000               0.156372354              -0.260809705               0.000000000               0.171985118              -0.284728735               0.000000000               0.187597883              -0.308647764               0.000000000               0.203210648              -0.332566794               0.000000000               0.218823412              -0.356485823               0.000000000               0.234436177              -0.380404853               0.000000000               0.250048941              -0.404323882               0.000000000               0.265661706              -0.428242912               0.000000000               0.281274471              -0.452161941               0.000000000               0.296887235              -0.476080971               0.000000000               0.312500000              -0.500000000               0.000000000               0.050896897              -0.122875978               0.000000000               0.063340840              -0.146446229               0.000000000               0.075784784              -0.170016481               0.000000000               0.088228728              -0.193586732               0.000000000               0.100672672              -0.217156983               0.000000000               0.113116616              -0.240727235               0.000000000               0.125560560              -0.264297486               0.000000000               0.138004504              -0.287867738               0.000000000               0.150448448              -0.311437989               0.000000000               0.162892392              -0.335008240               0.000000000               0.175336336              -0.358578492               0.000000000               0.187780280              -0.382148743               0.000000000               0.200224224              -0.405718994               0.000000000               0.212668168              -0.429289246               0.000000000               0.225112112              -0.452859497               0.000000000               0.237556056              -0.476429749               0.000000000               0.250000000              -0.500000000               0.000000000               0.038607862              -0.127273065               0.000000000               0.047913621              -0.150568498               0.000000000               0.057219379              -0.173863932               0.000000000               0.066525138              -0.197159365               0.000000000               0.075830897              -0.220454798               0.000000000               0.085136655              -0.243750232               0.000000000               0.094442414              -0.267045665               0.000000000               0.103748172              -0.290341099               0.000000000               0.113053931              -0.313636532               0.000000000               0.122359690              -0.336931966               0.000000000               0.131665448              -0.360227399               0.000000000               0.140971207              -0.383522833               0.000000000               0.150276966              -0.406818266               0.000000000               0.159582724              -0.430113700               0.000000000               0.168888483              -0.453409133               0.000000000               0.178194241              -0.476704567               0.000000000               0.187500000              -0.500000000               0.000000000               0.025947013              -0.130444442               0.000000000               0.032137825              -0.153541665               0.000000000               0.038328636              -0.176638887               0.000000000               0.044519448              -0.199736109               0.000000000               0.050710260              -0.222833332               0.000000000               0.056901071              -0.245930554               0.000000000               0.063091883              -0.269027776               0.000000000               0.069282695              -0.292124999               0.000000000               0.075473506              -0.315222221               0.000000000               0.081664318              -0.338319444               0.000000000               0.087855130              -0.361416666               0.000000000               0.094045942              -0.384513888               0.000000000               0.100236753              -0.407611111               0.000000000               0.106427565              -0.430708333               0.000000000               0.112618377              -0.453805555               0.000000000               0.118809188              -0.476902778               0.000000000               0.125000000              -0.500000000               0.000000000               0.013036280              -0.132359569               0.000000000               0.016127762              -0.155337096               0.000000000               0.019219245              -0.178314623               0.000000000               0.022310727              -0.201292150               0.000000000               0.025402210              -0.224269676               0.000000000               0.028493692              -0.247247203               0.000000000               0.031585175              -0.270224730               0.000000000               0.034676657              -0.293202257               0.000000000               0.037768140              -0.316179784               0.000000000               0.040859622              -0.339157311               0.000000000               0.043951105              -0.362134838               0.000000000               0.047042587              -0.385112365               0.000000000               0.050134070              -0.408089892               0.000000000               0.053225552              -0.431067419               0.000000000               0.056317035              -0.454044946               0.000000000               0.059408517              -0.477022473               0.000000000               0.062500000              -0.500000000               0.000000000               0.000000000              -0.133000000               0.000000000               0.000000000              -0.155937500               0.000000000               0.000000000              -0.178875000               0.000000000               0.000000000              -0.201812500               0.000000000               0.000000000              -0.224750000               0.000000000               0.000000000              -0.247687500               0.000000000               0.000000000              -0.270625000               0.000000000               0.000000000              -0.293562500               0.000000000               0.000000000              -0.316500000               0.000000000               0.000000000              -0.339437500               0.000000000               0.000000000              -0.362375000               0.000000000               0.000000000              -0.385312500               0.000000000               0.000000000              -0.408250000               0.000000000               0.000000000              -0.431187500               0.000000000               0.000000000              -0.454125000               0.000000000               0.000000000              -0.477062500               0.000000000               0.000000000              -0.500000000               0.000000000              -0.133000000               0.000000000               0.000000000              -0.155937500               0.000000000               0.000000000              -0.178875000               0.000000000               0.000000000              -0.201812500               0.000000000               0.000000000              -0.224750000               0.000000000               0.000000000              -0.247687500               0.000000000               0.000000000              -0.270625000               0.000000000               0.000000000              -0.293562500               0.000000000               0.000000000              -0.316500000               0.000000000               0.000000000              -0.339437500               0.000000000               0.000000000              -0.362375000               0.000000000               0.000000000              -0.385312500               0.000000000               0.000000000              -0.408250000               0.000000000               0.000000000              -0.431187500               0.000000000               0.000000000              -0.454125000               0.000000000               0.000000000              -0.477062500               0.000000000               0.000000000              -0.500000000               0.000000000               0.000000000              -0.132359569              -0.013036280               0.000000000              -0.155337096              -0.016127762               0.000000000              -0.178314623              -0.019219245               0.000000000              -0.201292150              -0.022310727               0.000000000              -0.224269676              -0.025402210               0.000000000              -0.247247203              -0.028493692               0.000000000              -0.270224730              -0.031585175               0.000000000              -0.293202257              -0.034676657               0.000000000              -0.316179784              -0.037768140               0.000000000              -0.339157311              -0.040859622               0.000000000              -0.362134838              -0.043951105               0.000000000              -0.385112365              -0.047042587               0.000000000              -0.408089892              -0.050134070               0.000000000              -0.431067419              -0.053225552               0.000000000              -0.454044946              -0.056317035               0.000000000              -0.477022473              -0.059408517               0.000000000              -0.500000000              -0.062500000               0.000000000              -0.130444442              -0.025947013               0.000000000              -0.153541665              -0.032137825               0.000000000              -0.176638887              -0.038328636               0.000000000              -0.199736109              -0.044519448               0.000000000              -0.222833332              -0.050710260               0.000000000              -0.245930554              -0.056901071               0.000000000              -0.269027776              -0.063091883               0.000000000              -0.292124999              -0.069282695               0.000000000              -0.315222221              -0.075473506               0.000000000              -0.338319444              -0.081664318               0.000000000              -0.361416666              -0.087855130               0.000000000              -0.384513888              -0.094045942               0.000000000              -0.407611111              -0.100236753               0.000000000              -0.430708333              -0.106427565               0.000000000              -0.453805555              -0.112618377               0.000000000              -0.476902778              -0.118809188               0.000000000              -0.500000000              -0.125000000               0.000000000              -0.127273065              -0.038607862               0.000000000              -0.150568498              -0.047913621               0.000000000              -0.173863932              -0.057219379               0.000000000              -0.197159365              -0.066525138               0.000000000              -0.220454798              -0.075830897               0.000000000              -0.243750232              -0.085136655               0.000000000              -0.267045665              -0.094442414               0.000000000              -0.290341099              -0.103748172               0.000000000              -0.313636532              -0.113053931               0.000000000              -0.336931966              -0.122359690               0.000000000              -0.360227399              -0.131665448               0.000000000              -0.383522833              -0.140971207               0.000000000              -0.406818266              -0.150276966               0.000000000              -0.430113700              -0.159582724               0.000000000              -0.453409133              -0.168888483               0.000000000              -0.476704567              -0.178194241               0.000000000              -0.500000000              -0.187500000               0.000000000              -0.122875978              -0.050896897               0.000000000              -0.146446229              -0.063340840               0.000000000              -0.170016481              -0.075784784               0.000000000              -0.193586732              -0.088228728               0.000000000              -0.217156983              -0.100672672               0.000000000              -0.240727235              -0.113116616               0.000000000              -0.264297486              -0.125560560               0.000000000              -0.287867738              -0.138004504               0.000000000              -0.311437989              -0.150448448               0.000000000              -0.335008240              -0.162892392               0.000000000              -0.358578492              -0.175336336               0.000000000              -0.382148743              -0.187780280               0.000000000              -0.405718994              -0.200224224               0.000000000              -0.429289246              -0.212668168               0.000000000              -0.452859497              -0.225112112               0.000000000              -0.476429749              -0.237556056               0.000000000              -0.500000000              -0.250000000               0.000000000              -0.117295528              -0.062695766               0.000000000              -0.141214558              -0.078308531               0.000000000              -0.165133587              -0.093921295               0.000000000              -0.189052617              -0.109534060               0.000000000              -0.212971646              -0.125146824               0.000000000              -0.236890676              -0.140759589               0.000000000              -0.260809705              -0.156372354               0.000000000              -0.284728735              -0.171985118               0.000000000              -0.308647764              -0.187597883               0.000000000              -0.332566794              -0.203210648               0.000000000              -0.356485823              -0.218823412               0.000000000              -0.380404853              -0.234436177               0.000000000              -0.404323882              -0.250048941               0.000000000              -0.428242912              -0.265661706               0.000000000              -0.452161941              -0.281274471               0.000000000              -0.476080971              -0.296887235               0.000000000              -0.500000000              -0.312500000               0.000000000              -0.110585458              -0.073890841               0.000000000              -0.134923867              -0.092710163               0.000000000              -0.159262276              -0.111529486               0.000000000              -0.183600685              -0.130348808               0.000000000              -0.207939094              -0.149168131               0.000000000              -0.232277503              -0.167987453               0.000000000              -0.256615912              -0.186806776               0.000000000              -0.280954320              -0.205626098               0.000000000              -0.305292729              -0.224445420               0.000000000              -0.329631138              -0.243264743               0.000000000              -0.353969547              -0.262084065               0.000000000              -0.378307956              -0.280903388               0.000000000              -0.402646365              -0.299722710               0.000000000              -0.426984773              -0.318542033               0.000000000              -0.451323182              -0.337361355               0.000000000              -0.475661591              -0.356180678               0.000000000              -0.500000000              -0.375000000               0.000000000              -0.102810390              -0.084374307               0.000000000              -0.127634741              -0.106444663               0.000000000              -0.152459092              -0.128515018               0.000000000              -0.177283442              -0.150585374               0.000000000              -0.202107793              -0.172655730               0.000000000              -0.226932143              -0.194726086               0.000000000              -0.251756494              -0.216796442               0.000000000              -0.276580845              -0.238866798               0.000000000              -0.301405195              -0.260937153               0.000000000              -0.326229546              -0.283007509               0.000000000              -0.351053896              -0.305077865               0.000000000              -0.375878247              -0.327148221               0.000000000              -0.400702598              -0.349218577               0.000000000              -0.425526948              -0.371288933               0.000000000              -0.450351299              -0.393359288               0.000000000              -0.475175649              -0.415429644               0.000000000              -0.500000000              -0.437500000               0.000000000              -0.094045202              -0.094045202               0.000000000              -0.119417377              -0.119417377               0.000000000              -0.144789552              -0.144789552               0.000000000              -0.170161727              -0.170161727               0.000000000              -0.195533901              -0.195533901               0.000000000              -0.220906076              -0.220906076               0.000000000              -0.246278251              -0.246278251               0.000000000              -0.271650426              -0.271650426               0.000000000              -0.297022601              -0.297022601               0.000000000              -0.322394776              -0.322394776               0.000000000              -0.347766951              -0.347766951               0.000000000              -0.373139126              -0.373139126               0.000000000              -0.398511300              -0.398511300               0.000000000              -0.423883475              -0.423883475               0.000000000              -0.449255650              -0.449255650               0.000000000              -0.474627825              -0.474627825               0.000000000              -0.500000000              -0.500000000               0.000000000              -0.084374307              -0.102810390               0.000000000              -0.106444663              -0.127634741               0.000000000              -0.128515018              -0.152459092               0.000000000              -0.150585374              -0.177283442               0.000000000              -0.172655730              -0.202107793               0.000000000              -0.194726086              -0.226932143               0.000000000              -0.216796442              -0.251756494               0.000000000              -0.238866798              -0.276580845               0.000000000              -0.260937153              -0.301405195               0.000000000              -0.283007509              -0.326229546               0.000000000              -0.305077865              -0.351053896               0.000000000              -0.327148221              -0.375878247               0.000000000              -0.349218577              -0.400702598               0.000000000              -0.371288933              -0.425526948               0.000000000              -0.393359288              -0.450351299               0.000000000              -0.415429644              -0.475175649               0.000000000              -0.437500000              -0.500000000               0.000000000              -0.073890841              -0.110585458               0.000000000              -0.092710163              -0.134923867               0.000000000              -0.111529486              -0.159262276               0.000000000              -0.130348808              -0.183600685               0.000000000              -0.149168131              -0.207939094               0.000000000              -0.167987453              -0.232277503               0.000000000              -0.186806776              -0.256615912               0.000000000              -0.205626098              -0.280954320               0.000000000              -0.224445420              -0.305292729               0.000000000              -0.243264743              -0.329631138               0.000000000              -0.262084065              -0.353969547               0.000000000              -0.280903388              -0.378307956               0.000000000              -0.299722710              -0.402646365               0.000000000              -0.318542033              -0.426984773               0.000000000              -0.337361355              -0.451323182               0.000000000              -0.356180678              -0.475661591               0.000000000              -0.375000000              -0.500000000               0.000000000              -0.062695766              -0.117295528               0.000000000              -0.078308531              -0.141214558               0.000000000              -0.093921295              -0.165133587               0.000000000              -0.109534060              -0.189052617               0.000000000              -0.125146824              -0.212971646               0.000000000              -0.140759589              -0.236890676               0.000000000              -0.156372354              -0.260809705               0.000000000              -0.171985118              -0.284728735               0.000000000              -0.187597883              -0.308647764               0.000000000              -0.203210648              -0.332566794               0.000000000              -0.218823412              -0.356485823               0.000000000              -0.234436177              -0.380404853               0.000000000              -0.250048941              -0.404323882               0.000000000              -0.265661706              -0.428242912               0.000000000              -0.281274471              -0.452161941               0.000000000              -0.296887235              -0.476080971               0.000000000              -0.312500000              -0.500000000               0.000000000              -0.050896897              -0.122875978               0.000000000              -0.063340840              -0.146446229               0.000000000              -0.075784784              -0.170016481               0.000000000              -0.088228728              -0.193586732               0.000000000              -0.100672672              -0.217156983               0.000000000              -0.113116616              -0.240727235               0.000000000              -0.125560560              -0.264297486               0.000000000              -0.138004504              -0.287867738               0.000000000              -0.150448448              -0.311437989               0.000000000              -0.162892392              -0.335008240               0.000000000              -0.175336336              -0.358578492               0.000000000              -0.187780280              -0.382148743               0.000000000              -0.200224224              -0.405718994               0.000000000              -0.212668168              -0.429289246               0.000000000              -0.225112112              -0.452859497               0.000000000              -0.237556056              -0.476429749               0.000000000              -0.250000000              -0.500000000               0.000000000              -0.038607862              -0.127273065               0.000000000              -0.047913621              -0.150568498               0.000000000              -0.057219379              -0.173863932               0.000000000              -0.066525138              -0.197159365               0.000000000              -0.075830897              -0.220454798               0.000000000              -0.085136655              -0.243750232               0.000000000              -0.094442414              -0.267045665               0.000000000              -0.103748172              -0.290341099               0.000000000              -0.113053931              -0.313636532               0.000000000              -0.122359690              -0.336931966               0.000000000              -0.131665448              -0.360227399               0.000000000              -0.140971207              -0.383522833               0.000000000              -0.150276966              -0.406818266               0.000000000              -0.159582724              -0.430113700               0.000000000              -0.168888483              -0.453409133               0.000000000              -0.178194241              -0.476704567               0.000000000              -0.187500000              -0.500000000               0.000000000              -0.025947013              -0.130444442               0.000000000              -0.032137825              -0.153541665               0.000000000              -0.038328636              -0.176638887               0.000000000              -0.044519448              -0.199736109               0.000000000              -0.050710260              -0.222833332               0.000000000              -0.056901071              -0.245930554               0.000000000              -0.063091883              -0.269027776               0.000000000              -0.069282695              -0.292124999               0.000000000              -0.075473506              -0.315222221               0.000000000              -0.081664318              -0.338319444               0.000000000              -0.087855130              -0.361416666               0.000000000              -0.094045942              -0.384513888               0.000000000              -0.100236753              -0.407611111               0.000000000              -0.106427565              -0.430708333               0.000000000              -0.112618377              -0.453805555               0.000000000              -0.118809188              -0.476902778               0.000000000              -0.125000000              -0.500000000               0.000000000              -0.013036280              -0.132359569               0.000000000              -0.016127762              -0.155337096               0.000000000              -0.019219245              -0.178314623               0.000000000              -0.022310727              -0.201292150               0.000000000              -0.025402210              -0.224269676               0.000000000              -0.028493692              -0.247247203               0.000000000              -0.031585175              -0.270224730               0.000000000              -0.034676657              -0.293202257               0.000000000              -0.037768140              -0.316179784               0.000000000              -0.040859622              -0.339157311               0.000000000              -0.043951105              -0.362134838               0.000000000              -0.047042587              -0.385112365               0.000000000              -0.050134070              -0.408089892               0.000000000              -0.053225552              -0.431067419               0.000000000              -0.056317035              -0.454044946               0.000000000              -0.059408517              -0.477022473               0.000000000              -0.062500000              -0.500000000               0.000000000               0.000000000              -0.133000000               0.000000000               0.000000000              -0.155937500               0.000000000               0.000000000              -0.178875000               0.000000000               0.000000000              -0.201812500               0.000000000               0.000000000              -0.224750000               0.000000000               0.000000000              -0.247687500               0.000000000               0.000000000              -0.270625000               0.000000000               0.000000000              -0.293562500               0.000000000               0.000000000              -0.316500000               0.000000000               0.000000000              -0.339437500               0.000000000               0.000000000              -0.362375000               0.000000000               0.000000000              -0.385312500               0.000000000               0.000000000              -0.408250000               0.000000000               0.000000000              -0.431187500               0.000000000               0.000000000              -0.454125000               0.000000000               0.000000000              -0.477062500               0.000000000               0.000000000              -0.500000000               0.000000000              -0.133000000               0.000000000               0.000000000              -0.155937500               0.000000000               0.000000000              -0.178875000               0.000000000               0.000000000              -0.201812500               0.000000000               0.000000000              -0.224750000               0.000000000               0.000000000              -0.247687500               0.000000000               0.000000000              -0.270625000               0.000000000               0.000000000              -0.293562500               0.000000000               0.000000000              -0.316500000               0.000000000               0.000000000              -0.339437500               0.000000000               0.000000000              -0.362375000               0.000000000               0.000000000              -0.385312500               0.000000000               0.000000000              -0.408250000               0.000000000               0.000000000              -0.431187500               0.000000000               0.000000000              -0.454125000               0.000000000               0.000000000              -0.477062500               0.000000000               0.000000000              -0.500000000               0.000000000               0.000000000              -0.132359569               0.013036280               0.000000000              -0.155337096               0.016127762               0.000000000              -0.178314623               0.019219245               0.000000000              -0.201292150               0.022310727               0.000000000              -0.224269676               0.025402210               0.000000000              -0.247247203               0.028493692               0.000000000              -0.270224730               0.031585175               0.000000000              -0.293202257               0.034676657               0.000000000              -0.316179784               0.037768140               0.000000000              -0.339157311               0.040859622               0.000000000              -0.362134838               0.043951105               0.000000000              -0.385112365               0.047042587               0.000000000              -0.408089892               0.050134070               0.000000000              -0.431067419               0.053225552               0.000000000              -0.454044946               0.056317035               0.000000000              -0.477022473               0.059408517               0.000000000              -0.500000000               0.062500000               0.000000000              -0.130444442               0.025947013               0.000000000              -0.153541665               0.032137825               0.000000000              -0.176638887               0.038328636               0.000000000              -0.199736109               0.044519448               0.000000000              -0.222833332               0.050710260               0.000000000              -0.245930554               0.056901071               0.000000000              -0.269027776               0.063091883               0.000000000              -0.292124999               0.069282695               0.000000000              -0.315222221               0.075473506               0.000000000              -0.338319444               0.081664318               0.000000000              -0.361416666               0.087855130               0.000000000              -0.384513888               0.094045942               0.000000000              -0.407611111               0.100236753               0.000000000              -0.430708333               0.106427565               0.000000000              -0.453805555               0.112618377               0.000000000              -0.476902778               0.118809188               0.000000000              -0.500000000               0.125000000               0.000000000              -0.127273065               0.038607862               0.000000000              -0.150568498               0.047913621               0.000000000              -0.173863932               0.057219379               0.000000000              -0.197159365               0.066525138               0.000000000              -0.220454798               0.075830897               0.000000000              -0.243750232               0.085136655               0.000000000              -0.267045665               0.094442414               0.000000000              -0.290341099               0.103748172               0.000000000              -0.313636532               0.113053931               0.000000000              -0.336931966               0.122359690               0.000000000              -0.360227399               0.131665448               0.000000000              -0.383522833               0.140971207               0.000000000              -0.406818266               0.150276966               0.000000000              -0.430113700               0.159582724               0.000000000              -0.453409133               0.168888483               0.000000000              -0.476704567               0.178194241               0.000000000              -0.500000000               0.187500000               0.000000000              -0.122875978               0.050896897               0.000000000              -0.146446229               0.063340840               0.000000000              -0.170016481               0.075784784               0.000000000              -0.193586732               0.088228728               0.000000000              -0.217156983               0.100672672               0.000000000              -0.240727235               0.113116616               0.000000000              -0.264297486               0.125560560               0.000000000              -0.287867738               0.138004504               0.000000000              -0.311437989               0.150448448               0.000000000              -0.335008240               0.162892392               0.000000000              -0.358578492               0.175336336               0.000000000              -0.382148743               0.187780280               0.000000000              -0.405718994               0.200224224               0.000000000              -0.429289246               0.212668168               0.000000000              -0.452859497               0.225112112               0.000000000              -0.476429749               0.237556056               0.000000000              -0.500000000               0.250000000               0.000000000              -0.117295528               0.062695766               0.000000000              -0.141214558               0.078308531               0.000000000              -0.165133587               0.093921295               0.000000000              -0.189052617               0.109534060               0.000000000              -0.212971646               0.125146824               0.000000000              -0.236890676               0.140759589               0.000000000              -0.260809705               0.156372354               0.000000000              -0.284728735               0.171985118               0.000000000              -0.308647764               0.187597883               0.000000000              -0.332566794               0.203210648               0.000000000              -0.356485823               0.218823412               0.000000000              -0.380404853               0.234436177               0.000000000              -0.404323882               0.250048941               0.000000000              -0.428242912               0.265661706               0.000000000              -0.452161941               0.281274471               0.000000000              -0.476080971               0.296887235               0.000000000              -0.500000000               0.312500000               0.000000000              -0.110585458               0.073890841               0.000000000              -0.134923867               0.092710163               0.000000000              -0.159262276               0.111529486               0.000000000              -0.183600685               0.130348808               0.000000000              -0.207939094               0.149168131               0.000000000              -0.232277503               0.167987453               0.000000000              -0.256615912               0.186806776               0.000000000              -0.280954320               0.205626098               0.000000000              -0.305292729               0.224445420               0.000000000              -0.329631138               0.243264743               0.000000000              -0.353969547               0.262084065               0.000000000              -0.378307956               0.280903388               0.000000000              -0.402646365               0.299722710               0.000000000              -0.426984773               0.318542033               0.000000000              -0.451323182               0.337361355               0.000000000              -0.475661591               0.356180678               0.000000000              -0.500000000               0.375000000               0.000000000              -0.102810390               0.084374307               0.000000000              -0.127634741               0.106444663               0.000000000              -0.152459092               0.128515018               0.000000000              -0.177283442               0.150585374               0.000000000              -0.202107793               0.172655730               0.000000000              -0.226932143               0.194726086               0.000000000              -0.251756494               0.216796442               0.000000000              -0.276580845               0.238866798               0.000000000              -0.301405195               0.260937153               0.000000000              -0.326229546               0.283007509               0.000000000              -0.351053896               0.305077865               0.000000000              -0.375878247               0.327148221               0.000000000              -0.400702598               0.349218577               0.000000000              -0.425526948               0.371288933               0.000000000              -0.450351299               0.393359288               0.000000000              -0.475175649               0.415429644               0.000000000              -0.500000000               0.437500000               0.000000000              -0.094045202               0.094045202               0.000000000              -0.119417377               0.119417377               0.000000000              -0.144789552               0.144789552               0.000000000              -0.170161727               0.170161727               0.000000000              -0.195533901               0.195533901               0.000000000              -0.220906076               0.220906076               0.000000000              -0.246278251               0.246278251               0.000000000              -0.271650426               0.271650426               0.000000000              -0.297022601               0.297022601               0.000000000              -0.322394776               0.322394776               0.000000000              -0.347766951               0.347766951               0.000000000              -0.373139126               0.373139126               0.000000000              -0.398511300               0.398511300               0.000000000              -0.423883475               0.423883475               0.000000000              -0.449255650               0.449255650               0.000000000              -0.474627825               0.474627825               0.000000000              -0.500000000               0.500000000               0.000000000              -0.084374307               0.102810390               0.000000000              -0.106444663               0.127634741               0.000000000              -0.128515018               0.152459092               0.000000000              -0.150585374               0.177283442               0.000000000              -0.172655730               0.202107793               0.000000000              -0.194726086               0.226932143               0.000000000              -0.216796442               0.251756494               0.000000000              -0.238866798               0.276580845               0.000000000              -0.260937153               0.301405195               0.000000000              -0.283007509               0.326229546               0.000000000              -0.305077865               0.351053896               0.000000000              -0.327148221               0.375878247               0.000000000              -0.349218577               0.400702598               0.000000000              -0.371288933               0.425526948               0.000000000              -0.393359288               0.450351299               0.000000000              -0.415429644               0.475175649               0.000000000              -0.437500000               0.500000000               0.000000000              -0.073890841               0.110585458               0.000000000              -0.092710163               0.134923867               0.000000000              -0.111529486               0.159262276               0.000000000              -0.130348808               0.183600685               0.000000000              -0.149168131               0.207939094               0.000000000              -0.167987453               0.232277503               0.000000000              -0.186806776               0.256615912               0.000000000              -0.205626098               0.280954320               0.000000000              -0.224445420               0.305292729               0.000000000              -0.243264743               0.329631138               0.000000000              -0.262084065               0.353969547               0.000000000              -0.280903388               0.378307956               0.000000000              -0.299722710               0.402646365               0.000000000              -0.318542033               0.426984773               0.000000000              -0.337361355               0.451323182               0.000000000              -0.356180678               0.475661591               0.000000000              -0.375000000               0.500000000               0.000000000              -0.062695766               0.117295528               0.000000000              -0.078308531               0.141214558               0.000000000              -0.093921295               0.165133587               0.000000000              -0.109534060               0.189052617               0.000000000              -0.125146824               0.212971646               0.000000000              -0.140759589               0.236890676               0.000000000              -0.156372354               0.260809705               0.000000000              -0.171985118               0.284728735               0.000000000              -0.187597883               0.308647764               0.000000000              -0.203210648               0.332566794               0.000000000              -0.218823412               0.356485823               0.000000000              -0.234436177               0.380404853               0.000000000              -0.250048941               0.404323882               0.000000000              -0.265661706               0.428242912               0.000000000              -0.281274471               0.452161941               0.000000000              -0.296887235               0.476080971               0.000000000              -0.312500000               0.500000000               0.000000000              -0.050896897               0.122875978               0.000000000              -0.063340840               0.146446229               0.000000000              -0.075784784               0.170016481               0.000000000              -0.088228728               0.193586732               0.000000000              -0.100672672               0.217156983               0.000000000              -0.113116616               0.240727235               0.000000000              -0.125560560               0.264297486               0.000000000              -0.138004504               0.287867738               0.000000000              -0.150448448               0.311437989               0.000000000              -0.162892392               0.335008240               0.000000000              -0.175336336               0.358578492               0.000000000              -0.187780280               0.382148743               0.000000000              -0.200224224               0.405718994               0.000000000              -0.212668168               0.429289246               0.000000000              -0.225112112               0.452859497               0.000000000              -0.237556056               0.476429749               0.000000000              -0.250000000               0.500000000               0.000000000              -0.038607862               0.127273065               0.000000000              -0.047913621               0.150568498               0.000000000              -0.057219379               0.173863932               0.000000000              -0.066525138               0.197159365               0.000000000              -0.075830897               0.220454798               0.000000000              -0.085136655               0.243750232               0.000000000              -0.094442414               0.267045665               0.000000000              -0.103748172               0.290341099               0.000000000              -0.113053931               0.313636532               0.000000000              -0.122359690               0.336931966               0.000000000              -0.131665448               0.360227399               0.000000000              -0.140971207               0.383522833               0.000000000              -0.150276966               0.406818266               0.000000000              -0.159582724               0.430113700               0.000000000              -0.168888483               0.453409133               0.000000000              -0.178194241               0.476704567               0.000000000              -0.187500000               0.500000000               0.000000000              -0.025947013               0.130444442               0.000000000              -0.032137825               0.153541665               0.000000000              -0.038328636               0.176638887               0.000000000              -0.044519448               0.199736109               0.000000000              -0.050710260               0.222833332               0.000000000              -0.056901071               0.245930554               0.000000000              -0.063091883               0.269027776               0.000000000              -0.069282695               0.292124999               0.000000000              -0.075473506               0.315222221               0.000000000              -0.081664318               0.338319444               0.000000000              -0.087855130               0.361416666               0.000000000              -0.094045942               0.384513888               0.000000000              -0.100236753               0.407611111               0.000000000              -0.106427565               0.430708333               0.000000000              -0.112618377               0.453805555               0.000000000              -0.118809188               0.476902778               0.000000000              -0.125000000               0.500000000               0.000000000              -0.013036280               0.132359569               0.000000000              -0.016127762               0.155337096               0.000000000              -0.019219245               0.178314623               0.000000000              -0.022310727               0.201292150               0.000000000              -0.025402210               0.224269676               0.000000000              -0.028493692               0.247247203               0.000000000              -0.031585175               0.270224730               0.000000000              -0.034676657               0.293202257               0.000000000              -0.037768140               0.316179784               0.000000000              -0.040859622               0.339157311               0.000000000              -0.043951105               0.362134838               0.000000000              -0.047042587               0.385112365               0.000000000              -0.050134070               0.408089892               0.000000000              -0.053225552               0.431067419               0.000000000              -0.056317035               0.454044946               0.000000000              -0.059408517               0.477022473               0.000000000              -0.062500000               0.500000000               0.000000000               0.000000000               0.133000000               0.000000000               0.000000000               0.155937500               0.000000000               0.000000000               0.178875000               0.000000000               0.000000000               0.201812500               0.000000000               0.000000000               0.224750000               0.000000000               0.000000000               0.247687500               0.000000000               0.000000000               0.270625000               0.000000000               0.000000000               0.293562500               0.000000000               0.000000000               0.316500000               0.000000000               0.000000000               0.339437500               0.000000000               0.000000000               0.362375000               0.000000000               0.000000000               0.385312500               0.000000000               0.000000000               0.408250000               0.000000000               0.000000000               0.431187500               0.000000000               0.000000000               0.454125000               0.000000000               0.000000000               0.477062500               0.000000000               0.000000000               0.500000000               0.000000000 </DataArray>
</Points>
<Cells>
<DataArray type="Int32"                                    Name="connectivity"                                                      NumberOfComponents=" 1" format="ascii">
         0          1         18         17          1          2         19         18          2          3         20         19          3          4         21         20          4          5         22         21          5          6         23         22          6          7         24         23          7          8         25         24          8          9         26         25          9         10         27         26         10         11         28         27         11         12         29         28         12         13         30         29         13         14         31         30         14         15         32         31         15         16         33         32         17         18         35         34         18         19         36         35         19         20         37         36         20         21         38         37         21         22         39         38         22         23         40         39         23         24         41         40         24         25         42         41         25         26         43         42         26         27         44         43         27         28         45         44         28         29         46         45         29         30         47         46         30         31         48         47         31         32         49         48         32         33         50         49         34         35         52         51         35         36         53         52         36         37         54         53         37         38         55         54         38         39         56         55         39         40         57         56         40         41         58         57         41         42         59         58         42         43         60         59         43         44         61         60         44         45         62         61         45         46         63         62         46         47         64         63         47         48         65         64         48         49         66         65         49         50         67         66         51         52         69         68         52         53         70         69         53         54         71         70         54         55         72         71         55         56         73         72         56         57         74         73         57         58         75         74         58         59         76         75         59         60         77         76         60         61         78         77         61         62         79         78         62         63         80         79         63         64         81         80         64         65         82         81         65         66         83         82         66         67         84         83         68         69         86         85         69         70         87         86         70         71         88         87         71         72         89         88         72         73         90         89         73         74         91         90         74         75         92         91         75         76         93         92         76         77         94         93         77         78         95         94         78         79         96         95         79         80         97         96         80         81         98         97         81         82         99         98         82         83        100         99         83         84        101        100         85         86        103        102         86         87        104        103         87         88        105        104         88         89        106        105         89         90        107        106         90         91        108        107         91         92        109        108         92         93        110        109         93         94        111        110         94         95        112        111         95         96        113        112         96         97        114        113         97         98        115        114         98         99        116        115         99        100        117        116        100        101        118        117        102        103        120        119        103        104        121        120        104        105        122        121        105        106        123        122        106        107        124        123        107        108        125        124        108        109        126        125        109        110        127        126        110        111        128        127        111        112        129        128        112        113        130        129        113        114        131        130        114        115        132        131        115        116        133        132        116        117        134        133        117        118        135        134        119        120        137        136        120        121        138        137        121        122        139        138        122        123        140        139        123        124        141        140        124        125        142        141        125        126        143        142        126        127        144        143        127        128        145        144        128        129        146        145        129        130        147        146        130        131        148        147        131        132        149        148        132        133        150        149        133        134        151        150        134        135        152        151        136        137        154        153        137        138        155        154        138        139        156        155        139        140        157        156        140        141        158        157        141        142        159        158        142        143        160        159        143        144        161        160        144        145        162        161        145        146        163        162        146        147        164        163        147        148        165        164        148        149        166        165        149        150        167        166        150        151        168        167        151        152        169        168        153        154        171        170        154        155        172        171        155        156        173        172        156        157        174        173        157        158        175        174        158        159        176        175        159        160        177        176        160        161        178        177        161        162        179        178        162        163        180        179        163        164        181        180        164        165        182        181        165        166        183        182        166        167        184        183        167        168        185        184        168        169        186        185        170        171        188        187        171        172        189        188        172        173        190        189        173        174        191        190        174        175        192        191        175        176        193        192        176        177        194        193        177        178        195        194        178        179        196        195        179        180        197        196        180        181        198        197        181        182        199        198        182        183        200        199        183        184        201        200        184        185        202        201        185        186        203        202        187        188        205        204        188        189        206        205        189        190        207        206        190        191        208        207        191        192        209        208        192        193        210        209        193        194        211        210        194        195        212        211        195        196        213        212        196        197        214        213        197        198        215        214        198        199        216        215        199        200        217        216        200        201        218        217        201        202        219        218        202        203        220        219        204        205        222        221        205        206        223        222        206        207        224        223        207        208        225        224        208        209        226        225        209        210        227        226        210        211        228        227        211        212        229        228        212        213        230        229        213        214        231        230        214        215        232        231        215        216        233        232        216        217        234        233        217        218        235        234        218        219        236        235        219        220        237        236        221        222        239        238        222        223        240        239        223        224        241        240        224        225        242        241        225        226        243        242        226        227        244        243        227        228        245        244        228        229        246        245        229        230        247        246        230        231        248        247        231        232        249        248        232        233        250        249        233        234        251        250        234        235        252        251        235        236        253        252        236        237        254        253        238        239        256        255        239        240        257        256        240        241        258        257        241        242        259        258        242        243        260        259        243        244        261        260        244        245        262        261        245        246        263        262        246        247        264        263        247        248        265        264        248        249        266        265        249        250        267        266        250        251        268        267        251        252        269        268        252        253        270        269        253        254        271        270        255        256        273        272        256        257        274        273        257        258        275        274        258        259        276        275        259        260        277        276        260        261        278        277        261        262        279        278        262        263        280        279        263        264        281        280        264        265        282        281        265        266        283        282        266        267        284        283        267        268        285        284        268        269        286        285        269        270        287        286        270        271        288        287        306        307          1          0        307        308          2          1        308        309          3          2        309        310          4          3        310        311          5          4        311        312          6          5        312        313          7          6        313        314          8          7        314        315          9          8        315        316         10          9        316        317         11         10        317        318         12         11        318        319         13         12        319        320         14         13        320        321         15         14        321        322         16         15        323        324        307        306        324        325        308        307        325        326        309        308        326        327        310        309        327        328        311        310        328        329        312        311        329        330        313        312        330        331        314        313        331        332        315        314        332        333        316        315        333        334        317        316        334        335        318        317        335        336        319        318        336        337        320        319        337        338        321        320        338        339        322        321        340        341        324        323        341        342        325        324        342        343        326        325        343        344        327        326        344        345        328        327        345        346        329        328        346        347        330        329        347        348        331        330        348        349        332        331        349        350        333        332        350        351        334        333        351        352        335        334        352        353        336        335        353        354        337        336        354        355        338        337        355        356        339        338        357        358        341        340        358        359        342        341        359        360        343        342        360        361        344        343        361        362        345        344        362        363        346        345        363        364        347        346        364        365        348        347        365        366        349        348        366        367        350        349        367        368        351        350        368        369        352        351        369        370        353        352        370        371        354        353        371        372        355        354        372        373        356        355        374        375        358        357        375        376        359        358        376        377        360        359        377        378        361        360        378        379        362        361        379        380        363        362        380        381        364        363        381        382        365        364        382        383        366        365        383        384        367        366        384        385        368        367        385        386        369        368        386        387        370        369        387        388        371        370        388        389        372        371        389        390        373        372        391        392        375        374        392        393        376        375        393        394        377        376        394        395        378        377        395        396        379        378        396        397        380        379        397        398        381        380        398        399        382        381        399        400        383        382        400        401        384        383        401        402        385        384        402        403        386        385        403        404        387        386        404        405        388        387        405        406        389        388        406        407        390        389        408        409        392        391        409        410        393        392        410        411        394        393        411        412        395        394        412        413        396        395        413        414        397        396        414        415        398        397        415        416        399        398        416        417        400        399        417        418        401        400        418        419        402        401        419        420        403        402        420        421        404        403        421        422        405        404        422        423        406        405        423        424        407        406        425        426        409        408        426        427        410        409        427        428        411        410        428        429        412        411        429        430        413        412        430        431        414        413        431        432        415        414        432        433        416        415        433        434        417        416        434        435        418        417        435        436        419        418        436        437        420        419        437        438        421        420        438        439        422        421        439        440        423        422        440        441        424        423        442        443        426        425        443        444        427        426        444        445        428        427        445        446        429        428        446        447        430        429        447        448        431        430        448        449        432        431        449        450        433        432        450        451        434        433        451        452        435        434        452        453        436        435        453        454        437        436        454        455        438        437        455        456        439        438        456        457        440        439        457        458        441        440        459        460        443        442        460        461        444        443        461        462        445        444        462        463        446        445        463        464        447        446        464        465        448        447        465        466        449        448        466        467        450        449        467        468        451        450        468        469        452        451        469        470        453        452        470        471        454        453        471        472        455        454        472        473        456        455        473        474        457        456        474        475        458        457        476        477        460        459        477        478        461        460        478        479        462        461        479        480        463        462        480        481        464        463        481        482        465        464        482        483        466        465        483        484        467        466        484        485        468        467        485        486        469        468        486        487        470        469        487        488        471        470        488        489        472        471        489        490        473        472        490        491        474        473        491        492        475        474        493        494        477        476        494        495        478        477        495        496        479        478        496        497        480        479        497        498        481        480        498        499        482        481        499        500        483        482        500        501        484        483        501        502        485        484        502        503        486        485        503        504        487        486        504        505        488        487        505        506        489        488        506        507        490        489        507        508        491        490        508        509        492        491        510        511        494        493        511        512        495        494        512        513        496        495        513        514        497        496        514        515        498        497        515        516        499        498        516        517        500        499        517        518        501        500        518        519        502        501        519        520        503        502        520        521        504        503        521        522        505        504        522        523        506        505        523        524        507        506        524        525        508        507        525        526        509        508        527        528        511        510        528        529        512        511        529        530        513        512        530        531        514        513        531        532        515        514        532        533        516        515        533        534        517        516        534        535        518        517        535        536        519        518        536        537        520        519        537        538        521        520        538        539        522        521        539        540        523        522        540        541        524        523        541        542        525        524        542        543        526        525        544        545        528        527        545        546        529        528        546        547        530        529        547        548        531        530        548        549        532        531        549        550        533        532        550        551        534        533        551        552        535        534        552        553        536        535        553        554        537        536        554        555        538        537        555        556        539        538        556        557        540        539        557        558        541        540        558        559        542        541        559        560        543        542        561        562        545        544        562        563        546        545        563        564        547        546        564        565        548        547        565        566        549        548        566        567        550        549        567        568        551        550        568        569        552        551        569        570        553        552        570        571        554        553        571        572        555        554        572        573        556        555        573        574        557        556        574        575        558        557        575        576        559        558        576        577        560        559        578        579        596        595        579        580        597        596        580        581        598        597        581        582        599        598        582        583        600        599        583        584        601        600        584        585        602        601        585        586        603        602        586        587        604        603        587        588        605        604        588        589        606        605        589        590        607        606        590        591        608        607        591        592        609        608        592        593        610        609        593        594        611        610        595        596        613        612        596        597        614        613        597        598        615        614        598        599        616        615        599        600        617        616        600        601        618        617        601        602        619        618        602        603        620        619        603        604        621        620        604        605        622        621        605        606        623        622        606        607        624        623        607        608        625        624        608        609        626        625        609        610        627        626        610        611        628        627        612        613        630        629        613        614        631        630        614        615        632        631        615        616        633        632        616        617        634        633        617        618        635        634        618        619        636        635        619        620        637        636        620        621        638        637        621        622        639        638        622        623        640        639        623        624        641        640        624        625        642        641        625        626        643        642        626        627        644        643        627        628        645        644        629        630        647        646        630        631        648        647        631        632        649        648        632        633        650        649        633        634        651        650        634        635        652        651        635        636        653        652        636        637        654        653        637        638        655        654        638        639        656        655        639        640        657        656        640        641        658        657        641        642        659        658        642        643        660        659        643        644        661        660        644        645        662        661        646        647        664        663        647        648        665        664        648        649        666        665        649        650        667        666        650        651        668        667        651        652        669        668        652        653        670        669        653        654        671        670        654        655        672        671        655        656        673        672        656        657        674        673        657        658        675        674        658        659        676        675        659        660        677        676        660        661        678        677        661        662        679        678        663        664        681        680        664        665        682        681        665        666        683        682        666        667        684        683        667        668        685        684        668        669        686        685        669        670        687        686        670        671        688        687        671        672        689        688        672        673        690        689        673        674        691        690        674        675        692        691        675        676        693        692        676        677        694        693        677        678        695        694        678        679        696        695        680        681        698        697        681        682        699        698        682        683        700        699        683        684        701        700        684        685        702        701        685        686        703        702        686        687        704        703        687        688        705        704        688        689        706        705        689        690        707        706        690        691        708        707        691        692        709        708        692        693        710        709        693        694        711        710        694        695        712        711        695        696        713        712        697        698        715        714        698        699        716        715        699        700        717        716        700        701        718        717        701        702        719        718        702        703        720        719        703        704        721        720        704        705        722        721        705        706        723        722        706        707        724        723        707        708        725        724        708        709        726        725        709        710        727        726        710        711        728        727        711        712        729        728        712        713        730        729        714        715        732        731        715        716        733        732        716        717        734        733        717        718        735        734        718        719        736        735        719        720        737        736        720        721        738        737        721        722        739        738        722        723        740        739        723        724        741        740        724        725        742        741        725        726        743        742        726        727        744        743        727        728        745        744        728        729        746        745        729        730        747        746        731        732        749        748        732        733        750        749        733        734        751        750        734        735        752        751        735        736        753        752        736        737        754        753        737        738        755        754        738        739        756        755        739        740        757        756        740        741        758        757        741        742        759        758        742        743        760        759        743        744        761        760        744        745        762        761        745        746        763        762        746        747        764        763        748        749        766        765        749        750        767        766        750        751        768        767        751        752        769        768        752        753        770        769        753        754        771        770        754        755        772        771        755        756        773        772        756        757        774        773        757        758        775        774        758        759        776        775        759        760        777        776        760        761        778        777        761        762        779        778        762        763        780        779        763        764        781        780        765        766        783        782        766        767        784        783        767        768        785        784        768        769        786        785        769        770        787        786        770        771        788        787        771        772        789        788        772        773        790        789        773        774        791        790        774        775        792        791        775        776        793        792        776        777        794        793        777        778        795        794        778        779        796        795        779        780        797        796        780        781        798        797        782        783        800        799        783        784        801        800        784        785        802        801        785        786        803        802        786        787        804        803        787        788        805        804        788        789        806        805        789        790        807        806        790        791        808        807        791        792        809        808        792        793        810        809        793        794        811        810        794        795        812        811        795        796        813        812        796        797        814        813        797        798        815        814        799        800        817        816        800        801        818        817        801        802        819        818        802        803        820        819        803        804        821        820        804        805        822        821        805        806        823        822        806        807        824        823        807        808        825        824        808        809        826        825        809        810        827        826        810        811        828        827        811        812        829        828        812        813        830        829        813        814        831        830        814        815        832        831        816        817        834        833        817        818        835        834        818        819        836        835        819        820        837        836        820        821        838        837        821        822        839        838        822        823        840        839        823        824        841        840        824        825        842        841        825        826        843        842        826        827        844        843        827        828        845        844        828        829        846        845        829        830        847        846        830        831        848        847        831        832        849        848        833        834        562        561        834        835        563        562        835        836        564        563        836        837        565        564        837        838        566        565        838        839        567        566        839        840        568        567        840        841        569        568        841        842        570        569        842        843        571        570        843        844        572        571        844        845        573        572        845        846        574        573        846        847        575        574        847        848        576        575        848        849        577        576        884        885        579        578        885        886        580        579        886        887        581        580        887        888        582        581        888        889        583        582        889        890        584        583        890        891        585        584        891        892        586        585        892        893        587        586        893        894        588        587        894        895        589        588        895        896        590        589        896        897        591        590        897        898        592        591        898        899        593        592        899        900        594        593        901        902        885        884        902        903        886        885        903        904        887        886        904        905        888        887        905        906        889        888        906        907        890        889        907        908        891        890        908        909        892        891        909        910        893        892        910        911        894        893        911        912        895        894        912        913        896        895        913        914        897        896        914        915        898        897        915        916        899        898        916        917        900        899        918        919        902        901        919        920        903        902        920        921        904        903        921        922        905        904        922        923        906        905        923        924        907        906        924        925        908        907        925        926        909        908        926        927        910        909        927        928        911        910        928        929        912        911        929        930        913        912        930        931        914        913        931        932        915        914        932        933        916        915        933        934        917        916        935        936        919        918        936        937        920        919        937        938        921        920        938        939        922        921        939        940        923        922        940        941        924        923        941        942        925        924        942        943        926        925        943        944        927        926        944        945        928        927        945        946        929        928        946        947        930        929        947        948        931        930        948        949        932        931        949        950        933        932        950        951        934        933        952        953        936        935        953        954        937        936        954        955        938        937        955        956        939        938        956        957        940        939        957        958        941        940        958        959        942        941        959        960        943        942        960        961        944        943        961        962        945        944        962        963        946        945        963        964        947        946        964        965        948        947        965        966        949        948        966        967        950        949        967        968        951        950        969        970        953        952        970        971        954        953        971        972        955        954        972        973        956        955        973        974        957        956        974        975        958        957        975        976        959        958        976        977        960        959        977        978        961        960        978        979        962        961        979        980        963        962        980        981        964        963        981        982        965        964        982        983        966        965        983        984        967        966        984        985        968        967        986        987        970        969        987        988        971        970        988        989        972        971        989        990        973        972        990        991        974        973        991        992        975        974        992        993        976        975        993        994        977        976        994        995        978        977        995        996        979        978        996        997        980        979        997        998        981        980        998        999        982        981        999       1000        983        982       1000       1001        984        983       1001       1002        985        984       1003       1004        987        986       1004       1005        988        987       1005       1006        989        988       1006       1007        990        989       1007       1008        991        990       1008       1009        992        991       1009       1010        993        992       1010       1011        994        993       1011       1012        995        994       1012       1013        996        995       1013       1014        997        996       1014       1015        998        997       1015       1016        999        998       1016       1017       1000        999       1017       1018       1001       1000       1018       1019       1002       1001       1020       1021       1004       1003       1021       1022       1005       1004       1022       1023       1006       1005       1023       1024       1007       1006       1024       1025       1008       1007       1025       1026       1009       1008       1026       1027       1010       1009       1027       1028       1011       1010       1028       1029       1012       1011       1029       1030       1013       1012       1030       1031       1014       1013       1031       1032       1015       1014       1032       1033       1016       1015       1033       1034       1017       1016       1034       1035       1018       1017       1035       1036       1019       1018       1037       1038       1021       1020       1038       1039       1022       1021       1039       1040       1023       1022       1040       1041       1024       1023       1041       1042       1025       1024       1042       1043       1026       1025       1043       1044       1027       1026       1044       1045       1028       1027       1045       1046       1029       1028       1046       1047       1030       1029       1047       1048       1031       1030       1048       1049       1032       1031       1049       1050       1033       1032       1050       1051       1034       1033       1051       1052       1035       1034       1052       1053       1036       1035       1054       1055       1038       1037       1055       1056       1039       1038       1056       1057       1040       1039       1057       1058       1041       1040       1058       1059       1042       1041       1059       1060       1043       1042       1060       1061       1044       1043       1061       1062       1045       1044       1062       1063       1046       1045       1063       1064       1047       1046       1064       1065       1048       1047       1065       1066       1049       1048       1066       1067       1050       1049       1067       1068       1051       1050       1068       1069       1052       1051       1069       1070       1053       1052       1071       1072       1055       1054       1072       1073       1056       1055       1073       1074       1057       1056       1074       1075       1058       1057       1075       1076       1059       1058       1076       1077       1060       1059       1077       1078       1061       1060       1078       1079       1062       1061       1079       1080       1063       1062       1080       1081       1064       1063       1081       1082       1065       1064       1082       1083       1066       1065       1083       1084       1067       1066       1084       1085       1068       1067       1085       1086       1069       1068       1086       1087       1070       1069       1088       1089       1072       1071       1089       1090       1073       1072       1090       1091       1074       1073       1091       1092       1075       1074       1092       1093       1076       1075       1093       1094       1077       1076       1094       1095       1078       1077       1095       1096       1079       1078       1096       1097       1080       1079       1097       1098       1081       1080       1098       1099       1082       1081       1099       1100       1083       1082       1100       1101       1084       1083       1101       1102       1085       1084       1102       1103       1086       1085       1103       1104       1087       1086       1105       1106       1089       1088       1106       1107       1090       1089       1107       1108       1091       1090       1108       1109       1092       1091       1109       1110       1093       1092       1110       1111       1094       1093       1111       1112       1095       1094       1112       1113       1096       1095       1113       1114       1097       1096       1114       1115       1098       1097       1115       1116       1099       1098       1116       1117       1100       1099       1117       1118       1101       1100       1118       1119       1102       1101       1119       1120       1103       1102       1120       1121       1104       1103       1122       1123       1106       1105       1123       1124       1107       1106       1124       1125       1108       1107       1125       1126       1109       1108       1126       1127       1110       1109       1127       1128       1111       1110       1128       1129       1112       1111       1129       1130       1113       1112       1130       1131       1114       1113       1131       1132       1115       1114       1132       1133       1116       1115       1133       1134       1117       1116       1134       1135       1118       1117       1135       1136       1119       1118       1136       1137       1120       1119       1137       1138       1121       1120        272        273       1123       1122        273        274       1124       1123        274        275       1125       1124        275        276       1126       1125        276        277       1127       1126        277        278       1128       1127        278        279       1129       1128        279        280       1130       1129        280        281       1131       1130        281        282       1132       1131        282        283       1133       1132        283        284       1134       1133        284        285       1135       1134        285        286       1136       1135        286        287       1137       1136        287        288       1138       1137 </DataArray>
<DataArray type="Int32"                                    Name="offsets"                                                      NumberOfComponents=" 1" format="ascii">
         4          8         12         16         20         24         28         32         36         40         44         48         52         56         60         64         68         72         76         80         84         88         92         96        100        104        108        112        116        120        124        128        132        136        140        144        148        152        156        160        164        168        172        176        180        184        188        192        196        200        204        208        212        216        220        224        228        232        236        240        244        248        252        256        260        264        268        272        276        280        284        288        292        296        300        304        308        312        316        320        324        328        332        336        340        344        348        352        356        360        364        368        372        376        380        384        388        392        396        400        404        408        412        416        420        424        428        432        436        440        444        448        452        456        460        464        468        472        476        480        484        488        492        496        500        504        508        512        516        520        524        528        532        536        540        544        548        552        556        560        564        568        572        576        580        584        588        592        596        600        604        608        612        616        620        624        628        632        636        640        644        648        652        656        660        664        668        672        676        680        684        688        692        696        700        704        708        712        716        720        724        728        732        736        740        744        748        752        756        760        764        768        772        776        780        784        788        792        796        800        804        808        812        816        820        824        828        832        836        840        844        848        852        856        860        864        868        872        876        880        884        888        892        896        900        904        908        912        916        920        924        928        932        936        940        944        948        952        956        960        964        968        972        976        980        984        988        992        996       1000       1004       1008       1012       1016       1020       1024       1028       1032       1036       1040       1044       1048       1052       1056       1060       1064       1068       1072       1076       1080       1084       1088       1092       1096       1100       1104       1108       1112       1116       1120       1124       1128       1132       1136       1140       1144       1148       1152       1156       1160       1164       1168       1172       1176       1180       1184       1188       1192       1196       1200       1204       1208       1212       1216       1220       1224       1228       1232       1236       1240       1244       1248       1252       1256       1260       1264       1268       1272       1276       1280       1284       1288       1292       1296       1300       1304       1308       1312       1316       1320       1324       1328       1332       1336       1340       1344       1348       1352       1356       1360       1364       1368       1372       1376       1380       1384       1388       1392       1396       1400       1404       1408       1412       1416       1420       1424       1428       1432       1436       1440       1444       1448       1452       1456       1460       1464       1468       1472       1476       1480       1484       1488       1492       1496       1500       1504       1508       1512       1516       1520       1524       1528       1532       1536       1540       1544       1548       1552       1556       1560       1564       1568       1572       1576       1580       1584       1588       1592       1596       1600       1604       1608       1612       1616       1620       1624       1628       1632       1636       1640       1644       1648       1652       1656       1660       1664       1668       1672       1676       1680       1684       1688       1692       1696       1700       1704       1708       1712       1716       1720       1724       1728       1732       1736       1740       1744       1748       1752       1756       1760       1764       1768       1772       1776       1780       1784       1788       1792       1796       1800       1804       1808       1812       1816       1820       1824       1828       1832       1836       1840       1844       1848       1852       1856       1860       1864       1868       1872       1876       1880       1884       1888       1892       1896       1900       1904       1908       1912       1916       1920       1924       1928       1932       1936       1940       1944       1948       1952       1956       1960       1964       1968       1972       1976       1980       1984       1988       1992       1996       2000       2004       2008       2012       2016       2020       2024       2028       2032       2036       2040       2044       2048       2052       2056       2060       2064       2068       2072       2076       2080       2084       2088       2092       2096       2100       2104       2108       2112       2116       2120       2124       2128       2132       2136       2140       2144       2148       2152       2156       2160       2164       2168       2172       2176       2180       2184       2188       2192       2196       2200       2204       2208       2212       2216       2220       2224       2228       2232       2236       2240       2244       2248       2252       2256       2260       2264       2268       2272       2276       2280       2284       2288       2292       2296       2300       2304       2308       2312       2316       2320       2324       2328       2332       2336       2340       2344       2348       2352       2356       2360       2364       2368       2372       2376       2380       2384       2388       2392       2396       2400       2404       2408       2412       2416       2420       2424       2428       2432       2436       2440       2444       2448       2452       2456       2460       2464       2468       2472       2476       2480       2484       2488       2492       2496       2500       2504       2508       2512       2516       2520       2524       2528       2532       2536       2540       2544       2548       2552       2556       2560       2564       2568       2572       2576       2580       2584       2588       2592       2596       2600       2604       2608       2612       2616       2620       2624       2628       2632       2636       2640       2644       2648       2652       2656       2660       2664       2668       2672       2676       2680       2684       2688       2692       2696       2700       2704       2708       2712       2716       2720       2724       2728       2732       2736       2740       2744       2748       2752       2756       2760       2764       2768       2772       2776       2780       2784       2788       2792       2796       2800       2804       2808       2812       2816       2820       2824       2828       2832       2836       2840       2844       2848       2852       2856       2860       2864       2868       2872       2876       2880       2884       2888       2892       2896       2900       2904       2908       2912       2916       2920       2924       2928       2932       2936       2940       2944       2948       2952       2956       2960       2964       2968       2972       2976       2980       2984       2988       2992       2996       3000       3004       3008       3012       3016       3020       3024       3028       3032       3036       3040       3044       3048       3052       3056       3060       3064       3068       3072       3076       3080       3084       3088       3092       3096       3100       3104       3108       3112       3116       3120       3124       3128       3132       3136       3140       3144       3148       3152       3156       3160       3164       3168       3172       3176       3180       3184       3188       3192       3196       3200       3204       3208       3212       3216       3220       3224       3228       3232       3236       3240       3244       3248       3252       3256       3260       3264       3268       3272       3276       3280       3284       3288       3292       3296       3300       3304       3308       3312       3316       3320       3324       3328       3332       3336       3340       3344       3348       3352       3356       3360       3364       3368       3372       3376       3380       3384       3388       3392       3396       3400       3404       3408       3412       3416       3420       3424       3428       3432       3436       3440       3444       3448       3452       3456       3460       3464       3468       3472       3476       3480       3484       3488       3492       3496       3500       3504       3508       3512       3516       3520       3524       3528       3532       3536       3540       3544       3548       3552       3556       3560       3564       3568       3572       3576       3580       3584       3588       3592       3596       3600       3604       3608       3612       3616       3620       3624       3628       3632       3636       3640       3644       3648       3652       3656       3660       3664       3668       3672       3676       3680       3684       3688       3692       3696       3700       3704       3708       3712       3716       3720       3724       3728       3732       3736       3740       3744       3748       3752       3756       3760       3764       3768       3772       3776       3780       3784       3788       3792       3796       3800       3804       3808       3812       3816       3820       3824       3828       3832       3836       3840       3844       3848       3852       3856       3860       3864       3868       3872       3876       3880       3884       3888       3892       3896       3900       3904       3908       3912       3916       3920       3924       3928       3932       3936       3940       3944       3948       3952       3956       3960       3964       3968       3972       3976       3980       3984       3988       3992       3996       4000       4004       4008       4012       4016       4020       4024       4028       4032       4036       4040       4044       4048       4052       4056       4060       4064       4068       4072       4076       4080       4084       4088       4092       4096 </DataArray>
<DataArray type="UInt8"                                    Name="types"                                                      NumberOfComponents=" 1" format="ascii">
         9          9          9          9          9          9          9          9          9          9          9          9          9          9          9          9          9          9          9          9          9          9          9          9          9          9          9          9          9          9          9          9          9          9          9          9          9          9          9          9          9          9          9          9          9          9          9          9          9          9          9          9          9          9          9          9          9          9          9          9          9          9          9          9          9          9          9          9          9          9          9          9          9          9          9          9          9          9          9          9          9          9          9          9          9          9          9          9          9          9          9          9          9          9          9          9          9          9          9          9          9          9          9          9          9          9          9          9          9          9          9          9          9          9          9          9          9          9          9          9          9          9          9          9          9          9          9          9          9          9          9          9          9          9          9          9          9          9          9          9          9          9          9          9          9          9          9          9          9          9          9          9          9          9          9          9          9          9          9          9          9          9          9          9          9          9          9          9          9          9          9          9          9          9          9          9          9          9          9          9          9          9          9          9          9          9          9          9          9          9          9          9          9          9          9          9          9          9          9          9          9          9          9          9          9          9          9          9          9          9          9          9          9          9          9          9          9          9          9          9          9          9          9          9          9          9          9          9          9          9          9          9          9          9          9          9          9          9          9          9          9          9          9          9          9          9          9          9          9          9          9          9          9          9          9          9          9          9          9          9          9          9          9          9          9          9          9          9          9          9          9          9          9          9          9          9          9          9          9          9          9          9          9          9          9          9          9          9          9          9          9          9          9          9          9          9          9          9          9          9          9          9          9          9          9          9          9          9          9          9          9          9          9          9          9          9          9          9          9          9          9          9          9          9          9          9          9          9          9          9          9          9          9          9          9          9          9          9          9          9          9          9          9          9          9          9          9          9          9          9          9          9          9          9          9          9          9          9          9          9          9          9          9          9          9          9          9          9          9          9          9          9          9          9          9          9          9          9          9          9          9          9          9          9          9          9          9          9          9          9          9          9          9          9          9          9          9          9          9          9          9          9          9          9          9          9          9          9          9          9          9          9          9          9          9          9          9          9          9          9          9          9          9          9          9          9          9          9          9          9          9          9          9          9          9          9          9          9          9          9          9          9          9          9          9          9          9          9          9          9          9          9          9          9          9          9          9          9          9          9          9          9          9          9          9          9          9          9          9          9          9          9          9          9          9          9          9          9          9          9          9          9          9          9          9          9          9          9          9          9          9          9          9          9          9          9          9          9          9          9          9          9          9          9          9          9          9          9          9          9          9          9          9          9          9          9          9          9          9          9          9          9          9          9          9          9          9          9          9          9          9          9          9          9          9          9          9          9          9          9          9          9          9          9          9          9          9          9          9          9          9          9          9          9          9          9          9          9          9          9          9          9          9          9          9          9          9          9          9          9          9          9          9          9          9          9          9          9          9          9          9          9          9          9          9          9          9          9          9          9          9          9          9          9          9          9          9          9          9          9          9          9          9          9          9          9          9          9          9          9          9          9          9          9          9          9          9          9          9          9          9          9          9          9          9          9          9          9          9          9          9          9          9          9          9          9          9          9          9          9          9          9          9          9          9          9          9          9          9          9          9          9          9          9          9          9          9          9          9          9          9          9          9          9          9          9          9          9          9          9          9          9          9          9          9          9          9          9          9          9          9          9          9          9          9          9          9          9          9          9          9          9          9          9          9          9          9          9          9          9          9          9          9          9          9          9          9          9          9          9          9          9          9          9          9          9          9          9          9          9          9          9          9          9          9          9          9          9          9          9          9          9          9          9          9          9          9          9          9          9          9          9          9          9          9          9          9          9          9          9          9          9          9          9          9          9          9          9          9          9          9          9          9          9          9          9          9          9          9          9          9          9          9          9          9          9          9          9          9          9          9          9          9          9          9          9          9          9          9          9          9          9          9          9          9          9          9          9          9          9          9          9          9          9          9          9          9          9          9          9          9          9          9          9          9          9          9          9          9          9          9          9          9          9          9          9          9          9          9          9          9          9          9          9          9          9          9          9          9          9          9          9          9          9          9          9          9          9          9          9          9          9          9          9          9          9          9          9          9          9          9          9          9          9          9          9          9          9          9          9          9          9          9          9          9          9          9          9          9          9          9          9          9          9          9          9          9          9          9          9          9          9          9          9          9          9          9          9          9          9          9          9          9          9          9          9          9          9          9          9          9          9          9          9          9          9          9          9          9          9          9          9          9          9          9          9          9          9          9          9          9          9          9          9          9          9          9          9          9          9          9          9          9          9          9          9          9          9          9          9          9          9          9          9          9          9          9          9          9          9          9          9          9          9          9          9          9          9          9          9          9          9          9          9          9          9          9          9          9          9          9          9          9          9          9          9          9          9          9          9          9          9          9          9          9          9          9          9          9          9          9          9          9          9          9          9          9          9          9          9          9          9          9          9          9          9          9          9          9          9          9          9          9          9 </DataArray>
</Cells>
<CellData>
<DataArray type="Int32"                                    Name="material"                                                      NumberOfComponents=" 1" format="ascii">
         1          1          1          1          1          1          1          1          1          1          1          1          1          1          1          1          1          1          1          1          1          1          1          1          1          1          1          1          1          1          1          1          1          1          1          1          1          1          1          1          1          1          1          1          1          1          1          1          1          1          1          1          1          1          1          1          1          1          1          1          1          1          1          1          1          1          1          1          1          1          1          1          1          1          1          1          1          1          1          1          1          1          1          1          1          1          1          1          1          1          1          1          1          1          1          1          1          1          1          1          1          1          1          1          1          1          1          1          1          1          1          1          1          1          1          1          1          1          1          1          1          1          1          1          1          1          1          1          1          1          1          1          1          1          1          1          1          1          1          1          1          1          1          1          1          1          1          1          1          1          1          1          1          1          1          1          1          1          1          1          1          1          1          1          1          1          1          1          1          1          1          1          1          1          1          1          1          1          1          1          1          1          1          1          1          1          1          1          1          1          1          1          1          1          1          1          1          1          1          1          1          1          1          1          1          1          1          1          1          1          1          1          1          1          1          1          1          1          1          1          1          1          1          1          1          1          1          1          1          1          1          1          1          1          1          1          1          1          1          1          1          1          1          1          1          1          1          1          1          1          1          1          1          1          1          1          1          1          1          1          1          1          1          1          1          1          1          1          1          1          1          1          1          1          1          1          1          1          1          1          1          1          1          1          1          1          1          1          1          1          1          1          1          1          1          1          1          1          1          1          1          1          1          1          1          1          1          1          1          1          1          1          1          1          1          1          1          1          1          1          1          1          1          1          1          1          1          1          1          1          1          1          1          1          1          1          1          1          1          1          1          1          1          1          1          1          1          1          1          1          1          1          1          1          1          1          1          1          1          1          1          1          1          1          1          1          1          1          1          1          1          1          1          1          1          1          1          1          1          1          1          1          1          1          1          1          1          1          1          1          1          1          1          1          1          1          1          1          1          1          1          1          1          1          1          1          1          1          1          1          1          1          1          1          1          1          1          1          1          1          1          1          1          1          1          1          1          1          1          1          1          1          1          1          1          1          1          1          1          1          1          1          1          1          1          1          1          1          1          1          1          1          1          1          1          1          1          1          1          1          1          1          1          1          1          1          1          1          1          1          1          1          1          1          1          1          1          1          1          1          1          1          1          1          1          1          1          1          1          1          1          1          1          1          1          1          1          1          1          1          1          1          1          1          1          1          1          1          1          1          1          1          1          1          1          1          1          1          1          1          1          1          1          1          1          1          1          1          1          1          1          1          1          1          1          1          1          1          1          1          1          1          1          1          1          1          1          1          1          1          1          1          1          1          1          1          1          1          1          1          1          1          1          1          1          1          1          1          1          1          1          1          1          1          1          1          1          1          1          1          1          1          1          1          1          1          1          1          1          1          1          1          1          1          1          1          1          1          1          1          1          1          1          1          1          1          1          1          1          1          1          1          1          1          1          1          1          1          1          1          1          1          1          1          1          1          1          1          1          1          1          1          1          1          1          1          1          1          1          1          1          1          1          1          1          1          1          1          1          1          1          1          1          1          1          1          1          1          1          1          1          1          1          1          1          1          1          1          1          1          1          1          1          1          1          1          1          1          1          1          1          1          1          1          1          1          1          1          1          1          1          1          1          1          1          1          1          1          1          1          1          1          1          1          1          1          1          1          1          1          1          1          1          1          1          1          1          1          1          1          1          1          1          1          1          1          1          1          1          1          1          1          1          1          1          1          1          1          1          1          1          1          1          1          1          1          1          1          1          1          1          1          1          1          1          1          1          1          1          1          1          1          1          1          1          1          1          1          1          1          1          1          1          1          1          1          1          1          1          1          1          1          1          1          1          1          1          1          1          1          1          1          1          1          1          1          1          1          1          1          1          1          1          1          1          1          1          1          1          1          1          1          1          1          1          1          1          1          1          1          1          1          1          1          1          1          1          1          1          1          1          1          1          1          1          1          1          1          1          1          1          1          1          1          1          1          1          1          1          1          1          1          1          1          1          1          1          1          1          1          1          1          1          1          1          1          1          1          1          1          1          1          1          1          1          1          1          1          1          1          1          1          1          1          1          1          1          1          1          1          1          1          1          1          1          1          1          1          1          1          1          1          1          1          1          1          1          1          1          1          1          1          1          1          1          1          1          1          1          1          1          1          1          1          1          1          1          1          1          1          1          1          1          1          1          1          1          1          1          1          1          1          1          1          1          1          1          1          1          1          1          1          1          1          1          1          1          1          1          1          1          1          1          1          1          1          1          1          1          1          1          1          1          1          1          1          1          1          1          1          1          1          1          1          1          1          1          1          1          1          1          1          1          1          1          1          1          1          1          1          1          1          1          1          1          1          1          1          1          1          1          1          1          1          1          1          1          1          1          1          1          1          1          1 </DataArray>
</CellData>
<PointData>
<DataArray type="Float64"                                    Name="u"                                                      NumberOfComponents=" 3" format="ascii">
              0.000003790              -0.000000000               1.000000000               0.000001472               0.000000000               1.000000000               0.000000440               0.000000000               1.000000000               0.000000033               0.000000000               1.000000000              -0.000000128               0.000000000               1.000000000              -0.000000177               0.000000000               1.000000000              -0.000000204               0.000000000               1.000000000              -0.000000184               0.000000000               1.000000000              -0.000000059               0.000000000               1.000000000               0.000000095               0.000000000               1.000000000               0.000000206               0.000000000               1.000000000               0.000000243               0.000000000               1.000000000               0.000000073               0.000000000               1.000000000              -0.000000416               0.000000000               1.000000000              -0.000001276               0.000000000               1.000000000              -0.000002607               0.000000000               1.000000000              -0.000004475               0.000000000               1.000000000               0.000003667               0.000005712               1.000000000               0.000001457               0.000005323               1.000000000               0.000000506               0.000005297               1.000000000               0.000000076               0.000005589               1.000000000              -0.000000081               0.000006009               1.000000000              -0.000000129               0.000006636               1.000000000              -0.000000193               0.000007253               1.000000000              -0.000000280               0.000007832               1.000000000              -0.000000280               0.000008209               1.000000000              -0.000000203               0.000008673               1.000000000              -0.000000233               0.000009300               1.000000000              -0.000000456               0.000010056               1.000000000              -0.000000905               0.000011066               1.000000000              -0.000001685               0.000012318               1.000000000              -0.000002857               0.000013807               1.000000000              -0.000004445               0.000015552               1.000000000              -0.000006496               0.000017570               1.000000000               0.000003505               0.000011427               1.000000000               0.000001476               0.000010538               1.000000000               0.000000598               0.000010573               1.000000000               0.000000209               0.000011133               1.000000000               0.000000059               0.000012038               1.000000000              -0.000000084               0.000013248               1.000000000              -0.000000247               0.000014578               1.000000000              -0.000000438               0.000015793               1.000000000              -0.000000670               0.000016661               1.000000000              -0.000001023               0.000017739               1.000000000              -0.000001564               0.000019084               1.000000000              -0.000002306               0.000020702               1.000000000              -0.000003326               0.000022755               1.000000000              -0.000004703               0.000025229               1.000000000              -0.000006453               0.000028140               1.000000000              -0.000008588               0.000031490               1.000000000              -0.000011157               0.000035252               1.000000000               0.000003253               0.000017037               1.000000000               0.000001496               0.000015629               1.000000000               0.000000756               0.000015726               1.000000000               0.000000428               0.000016593               1.000000000               0.000000203               0.000018036               1.000000000              -0.000000056               0.000019921               1.000000000              -0.000000417               0.000021994               1.000000000              -0.000000866               0.000023871               1.000000000              -0.000001444               0.000025491               1.000000000              -0.000002224               0.000027479               1.000000000              -0.000003272               0.000029793               1.000000000              -0.000004722               0.000032484               1.000000000              -0.000006583               0.000035720               1.000000000              -0.000008851               0.000039492               1.000000000              -0.000011544               0.000043849               1.000000000              -0.000014602               0.000048807               1.000000000              -0.000018061               0.000054400               1.000000000               0.000002857               0.000022446               1.000000000               0.000001599               0.000020565               1.000000000               0.000001033               0.000020779               1.000000000               0.000000681               0.000022005               1.000000000               0.000000348               0.000024040               1.000000000              -0.000000146               0.000026659               1.000000000              -0.000000844               0.000029502               1.000000000              -0.000001583               0.000032226               1.000000000              -0.000002538               0.000034863               1.000000000              -0.000003844               0.000038015               1.000000000              -0.000005608               0.000041678               1.000000000              -0.000007875               0.000045844               1.000000000              -0.000010616               0.000050643               1.000000000              -0.000013877               0.000056088               1.000000000              -0.000017596               0.000062223               1.000000000              -0.000021715               0.000069101               1.000000000              -0.000026252               0.000076725               1.000000000               0.000002478               0.000027686               1.000000000               0.000001759               0.000025300               1.000000000               0.000001350               0.000025696               1.000000000               0.000001009               0.000027391               1.000000000               0.000000415               0.000030131               1.000000000              -0.000000454               0.000033496               1.000000000              -0.000001478               0.000037301               1.000000000              -0.000002716               0.000040972               1.000000000              -0.000004238               0.000044961               1.000000000              -0.000006124               0.000049687               1.000000000              -0.000008539               0.000055132               1.000000000              -0.000011535               0.000061257               1.000000000              -0.000015129               0.000068147               1.000000000              -0.000019285               0.000075825               1.000000000              -0.000023928               0.000084266               1.000000000              -0.000029029               0.000093496               1.000000000              -0.000034576               0.000103493               1.000000000               0.000002088               0.000032697               1.000000000               0.000002002               0.000029831               1.000000000               0.000001797               0.000030497               1.000000000               0.000001302               0.000032781               1.000000000               0.000000385               0.000036339               1.000000000              -0.000000878               0.000040692               1.000000000              -0.000002420               0.000045508               1.000000000              -0.000004049               0.000050669               1.000000000              -0.000005981               0.000056385               1.000000000              -0.000008462               0.000063153               1.000000000              -0.000011603               0.000070767               1.000000000              -0.000015374               0.000079239               1.000000000              -0.000019786               0.000088625               1.000000000              -0.000024771               0.000098871               1.000000000              -0.000030239               0.000109998               1.000000000              -0.000036242               0.000121895               1.000000000              -0.000042733               0.000134548               1.000000000               0.000001709               0.000037374               1.000000000               0.000002401               0.000034210               1.000000000               0.000002257               0.000035208               1.000000000               0.000001520               0.000038238               1.000000000               0.000000210               0.000042724               1.000000000              -0.000001464               0.000048306               1.000000000              -0.000003254               0.000054710               1.000000000              -0.000005243               0.000061700               1.000000000              -0.000007707               0.000069507               1.000000000              -0.000010847               0.000078640               1.000000000              -0.000014709               0.000088741               1.000000000              -0.000019259               0.000099788               1.000000000              -0.000024415               0.000111924               1.000000000              -0.000030118               0.000125008               1.000000000              -0.000036361               0.000138985               1.000000000              -0.000043193               0.000153846               1.000000000              -0.000050467               0.000169365               1.000000000               0.000001398               0.000041663               1.000000000               0.000002851               0.000038431               1.000000000               0.000002649               0.000039854               1.000000000               0.000001625               0.000043729               1.000000000              -0.000000064               0.000049457               1.000000000              -0.000002053               0.000056575               1.000000000              -0.000004209               0.000064804               1.000000000              -0.000006616               0.000073872               1.000000000              -0.000009526               0.000084209               1.000000000              -0.000013285               0.000095904               1.000000000              -0.000017759               0.000108681               1.000000000              -0.000022912               0.000122579               1.000000000              -0.000028655               0.000137707               1.000000000              -0.000034953               0.000153994               1.000000000              -0.000041885               0.000171295               1.000000000              -0.000049257               0.000189503               1.000000000              -0.000056908               0.000208456               1.000000000               0.000001106               0.000045795               1.000000000               0.000003122               0.000042728               1.000000000               0.000003176               0.000043726               1.000000000               0.000002273               0.000047155               1.000000000               0.000000754               0.000052482               1.000000000              -0.000001129               0.000059293               1.000000000              -0.000003242               0.000067326               1.000000000              -0.000005243               0.000076276               1.000000000              -0.000007436               0.000086125               1.000000000              -0.000010219               0.000097086               1.000000000              -0.000013657               0.000109113               1.000000000              -0.000017510               0.000122088               1.000000000              -0.000021885               0.000136111               1.000000000              -0.000026748               0.000151220               1.000000000              -0.000032061               0.000167466               1.000000000              -0.000037881               0.000184638               1.000000000              -0.000044145               0.000202826               1.000000000               0.000000864               0.000049625               1.000000000               0.000003266               0.000046919               1.000000000               0.000003536               0.000047667               1.000000000               0.000002803               0.000050780               1.000000000               0.000001465               0.000055692               1.000000000              -0.000000272               0.000062172               1.000000000              -0.000002144               0.000069966               1.000000000              -0.000003957               0.000078676               1.000000000              -0.000005631               0.000088188               1.000000000              -0.000007588               0.000098637               1.000000000              -0.000010035               0.000110055               1.000000000              -0.000012820               0.000122343               1.000000000              -0.000016038               0.000135490               1.000000000              -0.000019656               0.000149568               1.000000000              -0.000023560               0.000164621               1.000000000              -0.000027912               0.000180712               1.000000000              -0.000032680               0.000197730               1.000000000               0.000000670               0.000053056               1.000000000               0.000003243               0.000050908               1.000000000               0.000003676               0.000051620               1.000000000               0.000003085               0.000054463               1.000000000               0.000001977               0.000059037               1.000000000               0.000000566               0.000065224               1.000000000              -0.000001068               0.000072681               1.000000000              -0.000002634               0.000081105               1.000000000              -0.000004018               0.000090293               1.000000000              -0.000005419               0.000100347               1.000000000              -0.000007084               0.000111304               1.000000000              -0.000009033               0.000123143               1.000000000              -0.000011230               0.000135723               1.000000000              -0.000013708               0.000149038               1.000000000              -0.000016436               0.000163202               1.000000000              -0.000019365               0.000178296               1.000000000              -0.000022535               0.000194224               1.000000000               0.000000554               0.000056050               1.000000000               0.000002992               0.000054562               1.000000000               0.000003494               0.000055349               1.000000000               0.000003088               0.000058048               1.000000000               0.000002287               0.000062420               1.000000000               0.000001146               0.000068247               1.000000000              -0.000000193               0.000075265               1.000000000              -0.000001501               0.000083296               1.000000000              -0.000002659               0.000092276               1.000000000              -0.000003686               0.000102109               1.000000000              -0.000004769               0.000112832               1.000000000              -0.000006054               0.000124332               1.000000000              -0.000007439               0.000136558               1.000000000              -0.000008976               0.000149438               1.000000000              -0.000010686               0.000162974               1.000000000              -0.000012424               0.000177192               1.000000000              -0.000014275               0.000192216               1.000000000               0.000000441               0.000058469               1.000000000               0.000002481               0.000057669               1.000000000               0.000002987               0.000058619               1.000000000               0.000002793               0.000061294               1.000000000               0.000002185               0.000065458               1.000000000               0.000001343               0.000070943               1.000000000               0.000000395               0.000077646               1.000000000              -0.000000604               0.000085404               1.000000000              -0.000001546               0.000094173               1.000000000              -0.000002344               0.000103834               1.000000000              -0.000003022               0.000114324               1.000000000              -0.000003770               0.000125557               1.000000000              -0.000004579               0.000137538               1.000000000              -0.000005443               0.000150184               1.000000000              -0.000006366               0.000163383               1.000000000              -0.000007313               0.000177112               1.000000000              -0.000008228               0.000191550               1.000000000               0.000000310               0.000060274               1.000000000               0.000001786               0.000060075               1.000000000               0.000002200               0.000061209               1.000000000               0.000002099               0.000063848               1.000000000               0.000001699               0.000067874               1.000000000               0.000001217               0.000073171               1.000000000               0.000000592               0.000079617               1.000000000              -0.000000117               0.000087188               1.000000000              -0.000000774               0.000095775               1.000000000              -0.000001292               0.000105248               1.000000000              -0.000001688               0.000115507               1.000000000              -0.000002089               0.000126543               1.000000000              -0.000002534               0.000138388               1.000000000              -0.000002983               0.000150851               1.000000000              -0.000003418               0.000163844               1.000000000              -0.000003882               0.000177358               1.000000000              -0.000004277               0.000191451               1.000000000               0.000000167               0.000061394               1.000000000               0.000000941               0.000061584               1.000000000               0.000001163               0.000062856               1.000000000               0.000001110               0.000065505               1.000000000               0.000000970               0.000069449               1.000000000               0.000000707               0.000074635               1.000000000               0.000000383               0.000080958               1.000000000               0.000000043               0.000088379               1.000000000              -0.000000282               0.000096771               1.000000000              -0.000000538               0.000106087               1.000000000              -0.000000733               0.000116243               1.000000000              -0.000000917               0.000127161               1.000000000              -0.000001109               0.000138844               1.000000000              -0.000001290               0.000151138               1.000000000              -0.000001470               0.000163988               1.000000000              -0.000001669               0.000177396               1.000000000              -0.000001837               0.000191310               1.000000000               0.000000000               0.000061750               1.000000000               0.000000000               0.000062070               1.000000000               0.000000000               0.000063423               1.000000000               0.000000000               0.000066107               1.000000000              -0.000000000               0.000069986               1.000000000              -0.000000000               0.000075136               1.000000000               0.000000000               0.000081443               1.000000000               0.000000000               0.000088786               1.000000000              -0.000000000               0.000097134               1.000000000              -0.000000000               0.000106413               1.000000000              -0.000000000               0.000116479               1.000000000              -0.000000000               0.000127318               1.000000000              -0.000000000               0.000138948               1.000000000               0.000000000               0.000151185               1.000000000               0.000000000               0.000163976               1.000000000               0.000000000               0.000177346               1.000000000              -0.000000000               0.000191207               1.000000000               0.000003790              -0.000000000               1.000000000               0.000001472               0.000000000               1.000000000               0.000000440               0.000000000               1.000000000               0.000000033               0.000000000               1.000000000              -0.000000128               0.000000000               1.000000000              -0.000000177               0.000000000               1.000000000              -0.000000204               0.000000000               1.000000000              -0.000000184               0.000000000               1.000000000              -0.000000059               0.000000000               1.000000000               0.000000095               0.000000000               1.000000000               0.000000206               0.000000000               1.000000000               0.000000243               0.000000000               1.000000000               0.000000073               0.000000000               1.000000000              -0.000000416               0.000000000               1.000000000              -0.000001276               0.000000000               1.000000000              -0.000002607               0.000000000               1.000000000              -0.000004475               0.000000000               1.000000000               0.000003667              -0.000005712               1.000000000               0.000001457              -0.000005323               1.000000000               0.000000506              -0.000005297               1.000000000               0.000000076              -0.000005589               1.000000000              -0.000000081              -0.000006009               1.000000000              -0.000000129              -0.000006636               1.000000000              -0.000000193              -0.000007253               1.000000000              -0.000000280              -0.000007832               1.000000000              -0.000000280              -0.000008209               1.000000000              -0.000000203              -0.000008673               1.000000000              -0.000000233              -0.000009300               1.000000000              -0.000000456              -0.000010056               1.000000000              -0.000000905              -0.000011066               1.000000000              -0.000001685              -0.000012318               1.000000000              -0.000002857              -0.000013807               1.000000000              -0.000004445              -0.000015552               1.000000000              -0.000006496              -0.000017570               1.000000000               0.000003505              -0.000011427               1.000000000               0.000001476              -0.000010538               1.000000000               0.000000598              -0.000010573               1.000000000               0.000000209              -0.000011133               1.000000000               0.000000059              -0.000012038               1.000000000              -0.000000084              -0.000013248               1.000000000              -0.000000247              -0.000014578               1.000000000              -0.000000438              -0.000015793               1.000000000              -0.000000670              -0.000016661               1.000000000              -0.000001023              -0.000017739               1.000000000              -0.000001564              -0.000019084               1.000000000              -0.000002306              -0.000020702               1.000000000              -0.000003326              -0.000022755               1.000000000              -0.000004703              -0.000025229               1.000000000              -0.000006453              -0.000028140               1.000000000              -0.000008588              -0.000031490               1.000000000              -0.000011157              -0.000035252               1.000000000               0.000003253              -0.000017037               1.000000000               0.000001496              -0.000015629               1.000000000               0.000000756              -0.000015726               1.000000000               0.000000428              -0.000016593               1.000000000               0.000000203              -0.000018036               1.000000000              -0.000000056              -0.000019921               1.000000000              -0.000000417              -0.000021994               1.000000000              -0.000000866              -0.000023871               1.000000000              -0.000001444              -0.000025491               1.000000000              -0.000002224              -0.000027479               1.000000000              -0.000003272              -0.000029793               1.000000000              -0.000004722              -0.000032484               1.000000000              -0.000006583              -0.000035720               1.000000000              -0.000008851              -0.000039492               1.000000000              -0.000011544              -0.000043849               1.000000000              -0.000014602              -0.000048807               1.000000000              -0.000018061              -0.000054400               1.000000000               0.000002857              -0.000022446               1.000000000               0.000001599              -0.000020565               1.000000000               0.000001033              -0.000020779               1.000000000               0.000000681              -0.000022005               1.000000000               0.000000348              -0.000024040               1.000000000              -0.000000146              -0.000026659               1.000000000              -0.000000844              -0.000029502               1.000000000              -0.000001583              -0.000032226               1.000000000              -0.000002538              -0.000034863               1.000000000              -0.000003844              -0.000038015               1.000000000              -0.000005608              -0.000041678               1.000000000              -0.000007875              -0.000045844               1.000000000              -0.000010616              -0.000050643               1.000000000              -0.000013877              -0.000056088               1.000000000              -0.000017596              -0.000062223               1.000000000              -0.000021715              -0.000069101               1.000000000              -0.000026252              -0.000076725               1.000000000               0.000002478              -0.000027686               1.000000000               0.000001759              -0.000025300               1.000000000               0.000001350              -0.000025696               1.000000000               0.000001009              -0.000027391               1.000000000               0.000000415              -0.000030131               1.000000000              -0.000000454              -0.000033496               1.000000000              -0.000001478              -0.000037301               1.000000000              -0.000002716              -0.000040972               1.000000000              -0.000004238              -0.000044961               1.000000000              -0.000006124              -0.000049687               1.000000000              -0.000008539              -0.000055132               1.000000000              -0.000011535              -0.000061257               1.000000000              -0.000015129              -0.000068147               1.000000000              -0.000019285              -0.000075825               1.000000000              -0.000023928              -0.000084266               1.000000000              -0.000029029              -0.000093496               1.000000000              -0.000034576              -0.000103493               1.000000000               0.000002088              -0.000032697               1.000000000               0.000002002              -0.000029831               1.000000000               0.000001797              -0.000030497               1.000000000               0.000001302              -0.000032781               1.000000000               0.000000385              -0.000036339               1.000000000              -0.000000878              -0.000040692               1.000000000              -0.000002420              -0.000045508               1.000000000              -0.000004049              -0.000050669               1.000000000              -0.000005981              -0.000056385               1.000000000              -0.000008462              -0.000063153               1.000000000              -0.000011603              -0.000070767               1.000000000              -0.000015374              -0.000079239               1.000000000              -0.000019786              -0.000088625               1.000000000              -0.000024771              -0.000098871               1.000000000              -0.000030239              -0.000109998               1.000000000              -0.000036242              -0.000121895               1.000000000              -0.000042733              -0.000134548               1.000000000               0.000001709              -0.000037374               1.000000000               0.000002401              -0.000034210               1.000000000               0.000002257              -0.000035208               1.000000000               0.000001520              -0.000038238               1.000000000               0.000000210              -0.000042724               1.000000000              -0.000001464              -0.000048306               1.000000000              -0.000003254              -0.000054710               1.000000000              -0.000005243              -0.000061700               1.000000000              -0.000007707              -0.000069507               1.000000000              -0.000010847              -0.000078640               1.000000000              -0.000014709              -0.000088741               1.000000000              -0.000019259              -0.000099788               1.000000000              -0.000024415              -0.000111924               1.000000000              -0.000030118              -0.000125008               1.000000000              -0.000036361              -0.000138985               1.000000000              -0.000043193              -0.000153846               1.000000000              -0.000050467              -0.000169365               1.000000000               0.000001398              -0.000041663               1.000000000               0.000002851              -0.000038431               1.000000000               0.000002649              -0.000039854               1.000000000               0.000001625              -0.000043729               1.000000000              -0.000000064              -0.000049457               1.000000000              -0.000002053              -0.000056575               1.000000000              -0.000004209              -0.000064804               1.000000000              -0.000006616              -0.000073872               1.000000000              -0.000009526              -0.000084209               1.000000000              -0.000013285              -0.000095904               1.000000000              -0.000017759              -0.000108681               1.000000000              -0.000022912              -0.000122579               1.000000000              -0.000028655              -0.000137707               1.000000000              -0.000034953              -0.000153994               1.000000000              -0.000041885              -0.000171295               1.000000000              -0.000049257              -0.000189503               1.000000000              -0.000056908              -0.000208456               1.000000000               0.000001106              -0.000045795               1.000000000               0.000003122              -0.000042728               1.000000000               0.000003176              -0.000043726               1.000000000               0.000002273              -0.000047155               1.000000000               0.000000754              -0.000052482               1.000000000              -0.000001129              -0.000059293               1.000000000              -0.000003242              -0.000067326               1.000000000              -0.000005243              -0.000076276               1.000000000              -0.000007436              -0.000086125               1.000000000              -0.000010219              -0.000097086               1.000000000              -0.000013657              -0.000109113               1.000000000              -0.000017510              -0.000122088               1.000000000              -0.000021885              -0.000136111               1.000000000              -0.000026748              -0.000151220               1.000000000              -0.000032061              -0.000167466               1.000000000              -0.000037881              -0.000184638               1.000000000              -0.000044145              -0.000202826               1.000000000               0.000000864              -0.000049625               1.000000000               0.000003266              -0.000046919               1.000000000               0.000003536              -0.000047667               1.000000000               0.000002803              -0.000050780               1.000000000               0.000001465              -0.000055692               1.000000000              -0.000000272              -0.000062172               1.000000000              -0.000002144              -0.000069966               1.000000000              -0.000003957              -0.000078676               1.000000000              -0.000005631              -0.000088188               1.000000000              -0.000007588              -0.000098637               1.000000000              -0.000010035              -0.000110055               1.000000000              -0.000012820              -0.000122343               1.000000000              -0.000016038              -0.000135490               1.000000000              -0.000019656              -0.000149568               1.000000000              -0.000023560              -0.000164621               1.000000000              -0.000027912              -0.000180712               1.000000000              -0.000032680              -0.000197730               1.000000000               0.000000670              -0.000053056               1.000000000               0.000003243              -0.000050908               1.000000000               0.000003676              -0.000051620               1.000000000               0.000003085              -0.000054463               1.000000000               0.000001977              -0.000059037               1.000000000               0.000000566              -0.000065224               1.000000000              -0.000001068              -0.000072681               1.000000000              -0.000002634              -0.000081105               1.000000000              -0.000004018              -0.000090293               1.000000000              -0.000005419              -0.000100347               1.000000000              -0.000007084              -0.000111304               1.000000000              -0.000009033              -0.000123143               1.000000000              -0.000011230              -0.000135723               1.000000000              -0.000013708              -0.000149038               1.000000000              -0.000016436              -0.000163202               1.000000000              -0.000019365              -0.000178296               1.000000000              -0.000022535              -0.000194224               1.000000000               0.000000554              -0.000056050               1.000000000               0.000002992              -0.000054562               1.000000000               0.000003494              -0.000055349               1.000000000               0.000003088              -0.000058048               1.000000000               0.000002287              -0.000062420               1.000000000               0.000001146              -0.000068247               1.000000000              -0.000000193              -0.000075265               1.000000000              -0.000001501              -0.000083296               1.000000000              -0.000002659              -0.000092276               1.000000000              -0.000003686              -0.000102109               1.000000000              -0.000004769              -0.000112832               1.000000000              -0.000006054              -0.000124332               1.000000000              -0.000007439              -0.000136558               1.000000000              -0.000008976              -0.000149438               1.000000000              -0.000010686              -0.000162974               1.000000000              -0.000012424              -0.000177192               1.000000000              -0.000014275              -0.000192216               1.000000000               0.000000441              -0.000058469               1.000000000               0.000002481              -0.000057669               1.000000000               0.000002987              -0.000058619               1.000000000               0.000002793              -0.000061294               1.000000000               0.000002185              -0.000065458               1.000000000               0.000001343              -0.000070943               1.000000000               0.000000395              -0.000077646               1.000000000              -0.000000604              -0.000085404               1.000000000              -0.000001546              -0.000094173               1.000000000              -0.000002344              -0.000103834               1.000000000              -0.000003022              -0.000114324               1.000000000              -0.000003770              -0.000125557               1.000000000              -0.000004579              -0.000137538               1.000000000              -0.000005443              -0.000150184               1.000000000              -0.000006366              -0.000163383               1.000000000              -0.000007313              -0.000177112               1.000000000              -0.000008228              -0.000191550               1.000000000               0.000000310              -0.000060274               1.000000000               0.000001786              -0.000060075               1.000000000               0.000002200              -0.000061209               1.000000000               0.000002099              -0.000063848               1.000000000               0.000001699              -0.000067874               1.000000000               0.000001217              -0.000073171               1.000000000               0.000000592              -0.000079617               1.000000000              -0.000000117              -0.000087188               1.000000000              -0.000000774              -0.000095775               1.000000000              -0.000001292              -0.000105248               1.000000000              -0.000001688              -0.000115507               1.000000000              -0.000002089              -0.000126543               1.000000000              -0.000002534              -0.000138388               1.000000000              -0.000002983              -0.000150851               1.000000000              -0.000003418              -0.000163844               1.000000000              -0.000003882              -0.000177358               1.000000000              -0.000004277              -0.000191451               1.000000000               0.000000167              -0.000061394               1.000000000               0.000000941              -0.000061584               1.000000000               0.000001163              -0.000062856               1.000000000               0.000001110              -0.000065505               1.000000000               0.000000970              -0.000069449               1.000000000               0.000000707              -0.000074635               1.000000000               0.000000383              -0.000080958               1.000000000               0.000000043              -0.000088379               1.000000000              -0.000000282              -0.000096771               1.000000000              -0.000000538              -0.000106087               1.000000000              -0.000000733              -0.000116243               1.000000000              -0.000000917              -0.000127161               1.000000000              -0.000001109              -0.000138844               1.000000000              -0.000001290              -0.000151138               1.000000000              -0.000001470              -0.000163988               1.000000000              -0.000001669              -0.000177396               1.000000000              -0.000001837              -0.000191310               1.000000000              -0.000000000              -0.000061750               1.000000000              -0.000000000              -0.000062070               1.000000000               0.000000000              -0.000063423               1.000000000              -0.000000000              -0.000066107               1.000000000              -0.000000000              -0.000069986               1.000000000               0.000000000              -0.000075136               1.000000000               0.000000000              -0.000081443               1.000000000              -0.000000000              -0.000088786               1.000000000              -0.000000000              -0.000097134               1.000000000              -0.000000000              -0.000106413               1.000000000              -0.000000000              -0.000116479               1.000000000              -0.000000000              -0.000127318               1.000000000              -0.000000000              -0.000138948               1.000000000               0.000000000              -0.000151185               1.000000000               0.000000000              -0.000163976               1.000000000               0.000000000              -0.000177346               1.000000000               0.000000000              -0.000191207               1.000000000              -0.000003790              -0.000000000               1.000000000              -0.000001472              -0.000000000               1.000000000              -0.000000440               0.000000000               1.000000000              -0.000000033              -0.000000000               1.000000000               0.000000128              -0.000000000               1.000000000               0.000000177              -0.000000000               1.000000000               0.000000204               0.000000000               1.000000000               0.000000184               0.000000000               1.000000000               0.000000059               0.000000000               1.000000000              -0.000000095               0.000000000               1.000000000              -0.000000206              -0.000000000               1.000000000              -0.000000243              -0.000000000               1.000000000              -0.000000073              -0.000000000               1.000000000               0.000000416              -0.000000000               1.000000000               0.000001276              -0.000000000               1.000000000               0.000002607              -0.000000000               1.000000000               0.000004475              -0.000000000               1.000000000              -0.000003667              -0.000005712               1.000000000              -0.000001457              -0.000005323               1.000000000              -0.000000506              -0.000005297               1.000000000              -0.000000076              -0.000005589               1.000000000               0.000000081              -0.000006009               1.000000000               0.000000129              -0.000006636               1.000000000               0.000000193              -0.000007253               1.000000000               0.000000280              -0.000007832               1.000000000               0.000000280              -0.000008209               1.000000000               0.000000203              -0.000008673               1.000000000               0.000000233              -0.000009300               1.000000000               0.000000456              -0.000010056               1.000000000               0.000000905              -0.000011066               1.000000000               0.000001685              -0.000012318               1.000000000               0.000002857              -0.000013807               1.000000000               0.000004445              -0.000015552               1.000000000               0.000006496              -0.000017570               1.000000000              -0.000003505              -0.000011427               1.000000000              -0.000001476              -0.000010538               1.000000000              -0.000000598              -0.000010573               1.000000000              -0.000000209              -0.000011133               1.000000000              -0.000000059              -0.000012038               1.000000000               0.000000084              -0.000013248               1.000000000               0.000000247              -0.000014578               1.000000000               0.000000438              -0.000015793               1.000000000               0.000000670              -0.000016661               1.000000000               0.000001023              -0.000017739               1.000000000               0.000001564              -0.000019084               1.000000000               0.000002306              -0.000020702               1.000000000               0.000003326              -0.000022755               1.000000000               0.000004703              -0.000025229               1.000000000               0.000006453              -0.000028140               1.000000000               0.000008588              -0.000031490               1.000000000               0.000011157              -0.000035252               1.000000000              -0.000003253              -0.000017037               1.000000000              -0.000001496              -0.000015629               1.000000000              -0.000000756              -0.000015726               1.000000000              -0.000000428              -0.000016593               1.000000000              -0.000000203              -0.000018036               1.000000000               0.000000056              -0.000019921               1.000000000               0.000000417              -0.000021994               1.000000000               0.000000866              -0.000023871               1.000000000               0.000001444              -0.000025491               1.000000000               0.000002224              -0.000027479               1.000000000               0.000003272              -0.000029793               1.000000000               0.000004722              -0.000032484               1.000000000               0.000006583              -0.000035720               1.000000000               0.000008851              -0.000039492               1.000000000               0.000011544              -0.000043849               1.000000000               0.000014602              -0.000048807               1.000000000               0.000018061              -0.000054400               1.000000000              -0.000002857              -0.000022446               1.000000000              -0.000001599              -0.000020565               1.000000000              -0.000001033              -0.000020779               1.000000000              -0.000000681              -0.000022005               1.000000000              -0.000000348              -0.000024040               1.000000000               0.000000146              -0.000026659               1.000000000               0.000000844              -0.000029502               1.000000000               0.000001583              -0.000032226               1.000000000               0.000002538              -0.000034863               1.000000000               0.000003844              -0.000038015               1.000000000               0.000005608              -0.000041678               1.000000000               0.000007875              -0.000045844               1.000000000               0.000010616              -0.000050643               1.000000000               0.000013877              -0.000056088               1.000000000               0.000017596              -0.000062223               1.000000000               0.000021715              -0.000069101               1.000000000               0.000026252              -0.000076725               1.000000000              -0.000002478              -0.000027686               1.000000000              -0.000001759              -0.000025300               1.000000000              -0.000001350              -0.000025696               1.000000000              -0.000001009              -0.000027391               1.000000000              -0.000000415              -0.000030131               1.000000000               0.000000454              -0.000033496               1.000000000               0.000001478              -0.000037301               1.000000000               0.000002716              -0.000040972               1.000000000               0.000004238              -0.000044961               1.000000000               0.000006124              -0.000049687               1.000000000               0.000008539              -0.000055132               1.000000000               0.000011535              -0.000061257               1.000000000               0.000015129              -0.000068147               1.000000000               0.000019285              -0.000075825               1.000000000               0.000023928              -0.000084266               1.000000000               0.000029029              -0.000093496               1.000000000               0.000034576              -0.000103493               1.000000000              -0.000002088              -0.000032697               1.000000000              -0.000002002              -0.000029831               1.000000000              -0.000001797              -0.000030497               1.000000000              -0.000001302              -0.000032781               1.000000000              -0.000000385              -0.000036339               1.000000000               0.000000878              -0.000040692               1.000000000               0.000002420              -0.000045508               1.000000000               0.000004049              -0.000050669               1.000000000               0.000005981              -0.000056385               1.000000000               0.000008462              -0.000063153               1.000000000               0.000011603              -0.000070767               1.000000000               0.000015374              -0.000079239               1.000000000               0.000019786              -0.000088625               1.000000000               0.000024771              -0.000098871               1.000000000               0.000030239              -0.000109998               1.000000000               0.000036242              -0.000121895               1.000000000               0.000042733              -0.000134548               1.000000000              -0.000001709              -0.000037374               1.000000000              -0.000002401              -0.000034210               1.000000000              -0.000002257              -0.000035208               1.000000000              -0.000001520              -0.000038238               1.000000000              -0.000000210              -0.000042724               1.000000000               0.000001464              -0.000048306               1.000000000               0.000003254              -0.000054710               1.000000000               0.000005243              -0.000061700               1.000000000               0.000007707              -0.000069507               1.000000000               0.000010847              -0.000078640               1.000000000               0.000014709              -0.000088741               1.000000000               0.000019259              -0.000099788               1.000000000               0.000024415              -0.000111924               1.000000000               0.000030118              -0.000125008               1.000000000               0.000036361              -0.000138985               1.000000000               0.000043193              -0.000153846               1.000000000               0.000050467              -0.000169365               1.000000000              -0.000001398              -0.000041663               1.000000000              -0.000002851              -0.000038431               1.000000000              -0.000002649              -0.000039854               1.000000000              -0.000001625              -0.000043729               1.000000000               0.000000064              -0.000049457               1.000000000               0.000002053              -0.000056575               1.000000000               0.000004209              -0.000064804               1.000000000               0.000006616              -0.000073872               1.000000000               0.000009526              -0.000084209               1.000000000               0.000013285              -0.000095904               1.000000000               0.000017759              -0.000108681               1.000000000               0.000022912              -0.000122579               1.000000000               0.000028655              -0.000137707               1.000000000               0.000034953              -0.000153994               1.000000000               0.000041885              -0.000171295               1.000000000               0.000049257              -0.000189503               1.000000000               0.000056908              -0.000208456               1.000000000              -0.000001106              -0.000045795               1.000000000              -0.000003122              -0.000042728               1.000000000              -0.000003176              -0.000043726               1.000000000              -0.000002273              -0.000047155               1.000000000              -0.000000754              -0.000052482               1.000000000               0.000001129              -0.000059293               1.000000000               0.000003242              -0.000067326               1.000000000               0.000005243              -0.000076276               1.000000000               0.000007436              -0.000086125               1.000000000               0.000010219              -0.000097086               1.000000000               0.000013657              -0.000109113               1.000000000               0.000017510              -0.000122088               1.000000000               0.000021885              -0.000136111               1.000000000               0.000026748              -0.000151220               1.000000000               0.000032061              -0.000167466               1.000000000               0.000037881              -0.000184638               1.000000000               0.000044145              -0.000202826               1.000000000              -0.000000864              -0.000049625               1.000000000              -0.000003266              -0.000046919               1.000000000              -0.000003536              -0.000047667               1.000000000              -0.000002803              -0.000050780               1.000000000              -0.000001465              -0.000055692               1.000000000               0.000000272              -0.000062172               1.000000000               0.000002144              -0.000069966               1.000000000               0.000003957              -0.000078676               1.000000000               0.000005631              -0.000088188               1.000000000               0.000007588              -0.000098637               1.000000000               0.000010035              -0.000110055               1.000000000               0.000012820              -0.000122343               1.000000000               0.000016038              -0.000135490               1.000000000               0.000019656              -0.000149568               1.000000000               0.000023560              -0.000164621               1.000000000               0.000027912              -0.000180712               1.000000000               0.000032680              -0.000197730               1.000000000              -0.000000670              -0.000053056               1.000000000              -0.000003243              -0.000050908               1.000000000              -0.000003676              -0.000051620               1.000000000              -0.000003085              -0.000054463               1.000000000              -0.000001977              -0.000059037               1.000000000              -0.000000566              -0.000065224               1.000000000               0.000001068              -0.000072681               1.000000000               0.000002634              -0.000081105               1.000000000               0.000004018              -0.000090293               1.000000000               0.000005419              -0.000100347               1.000000000               0.000007084              -0.000111304               1.000000000               0.000009033              -0.000123143               1.000000000               0.000011230              -0.000135723               1.000000000               0.000013708              -0.000149038               1.000000000               0.000016436              -0.000163202               1.000000000               0.000019365              -0.000178296               1.000000000               0.000022535              -0.000194224               1.000000000              -0.000000554              -0.000056050               1.000000000              -0.000002992              -0.000054562               1.000000000              -0.000003494              -0.000055349               1.000000000              -0.000003088              -0.000058048               1.000000000              -0.000002287              -0.000062420               1.000000000              -0.000001146              -0.000068247               1.000000000               0.000000193              -0.000075265               1.000000000               0.000001501              -0.000083296               1.000000000               0.000002659              -0.000092276               1.000000000               0.000003686              -0.000102109               1.000000000               0.000004769              -0.000112832               1.000000000               0.000006054              -0.000124332               1.000000000               0.000007439              -0.000136558               1.000000000               0.000008976              -0.000149438               1.000000000               0.000010686              -0.000162974               1.000000000               0.000012424              -0.000177192               1.000000000               0.000014275              -0.000192216               1.000000000              -0.000000441              -0.000058469               1.000000000              -0.000002481              -0.000057669               1.000000000              -0.000002987              -0.000058619               1.000000000              -0.000002793              -0.000061294               1.000000000              -0.000002185              -0.000065458               1.000000000              -0.000001343              -0.000070943               1.000000000              -0.000000395              -0.000077646               1.000000000               0.000000604              -0.000085404               1.000000000               0.000001546              -0.000094173               1.000000000               0.000002344              -0.000103834               1.000000000               0.000003022              -0.000114324               1.000000000               0.000003770              -0.000125557               1.000000000               0.000004579              -0.000137538               1.000000000               0.000005443              -0.000150184               1.000000000               0.000006366              -0.000163383               1.000000000               0.000007313              -0.000177112               1.000000000               0.000008228              -0.000191550               1.000000000              -0.000000310              -0.000060274               1.000000000              -0.000001786              -0.000060075               1.000000000              -0.000002200              -0.000061209               1.000000000              -0.000002099              -0.000063848               1.000000000              -0.000001699              -0.000067874               1.000000000              -0.000001217              -0.000073171               1.000000000              -0.000000592              -0.000079617               1.000000000               0.000000117              -0.000087188               1.000000000               0.000000774              -0.000095775               1.000000000               0.000001292              -0.000105248               1.000000000               0.000001688              -0.000115507               1.000000000               0.000002089              -0.000126543               1.000000000               0.000002534              -0.000138388               1.000000000               0.000002983              -0.000150851               1.000000000               0.000003418              -0.000163844               1.000000000               0.000003882              -0.000177358               1.000000000               0.000004277              -0.000191451               1.000000000              -0.000000167              -0.000061394               1.000000000              -0.000000941              -0.000061584               1.000000000              -0.000001163              -0.000062856               1.000000000              -0.000001110              -0.000065505               1.000000000              -0.000000970              -0.000069449               1.000000000              -0.000000707              -0.000074635               1.000000000              -0.000000383              -0.000080958               1.000000000              -0.000000043              -0.000088379               1.000000000               0.000000282              -0.000096771               1.000000000               0.000000538              -0.000106087               1.000000000               0.000000733              -0.000116243               1.000000000               0.000000917              -0.000127161               1.000000000               0.000001109              -0.000138844               1.000000000               0.000001290              -0.000151138               1.000000000               0.000001470              -0.000163988               1.000000000               0.000001669              -0.000177396               1.000000000               0.000001837              -0.000191310               1.000000000              -0.000000000              -0.000061750               1.000000000              -0.000000000              -0.000062070               1.000000000               0.000000000              -0.000063423               1.000000000              -0.000000000              -0.000066107               1.000000000              -0.000000000              -0.000069986               1.000000000               0.000000000              -0.000075136               1.000000000               0.000000000              -0.000081443               1.000000000              -0.000000000              -0.000088786               1.000000000              -0.000000000              -0.000097134               1.000000000              -0.000000000              -0.000106413               1.000000000              -0.000000000              -0.000116479               1.000000000              -0.000000000              -0.000127318               1.000000000              -0.000000000              -0.000138948               1.000000000               0.000000000              -0.000151185               1.000000000               0.000000000              -0.000163976               1.000000000               0.000000000              -0.000177346               1.000000000               0.000000000              -0.000191207               1.000000000              -0.000003790              -0.000000000               1.000000000              -0.000001472              -0.000000000               1.000000000              -0.000000440               0.000000000               1.000000000              -0.000000033              -0.000000000               1.000000000               0.000000128              -0.000000000               1.000000000               0.000000177              -0.000000000               1.000000000               0.000000204               0.000000000               1.000000000               0.000000184               0.000000000               1.000000000               0.000000059               0.000000000               1.000000000              -0.000000095               0.000000000               1.000000000              -0.000000206              -0.000000000               1.000000000              -0.000000243              -0.000000000               1.000000000              -0.000000073              -0.000000000               1.000000000               0.000000416              -0.000000000               1.000000000               0.000001276              -0.000000000               1.000000000               0.000002607              -0.000000000               1.000000000               0.000004475              -0.000000000               1.000000000              -0.000003667               0.000005712               1.000000000              -0.000001457               0.000005323               1.000000000              -0.000000506               0.000005297               1.000000000              -0.000000076               0.000005589               1.000000000               0.000000081               0.000006009               1.000000000               0.000000129               0.000006636               1.000000000               0.000000193               0.000007253               1.000000000               0.000000280               0.000007832               1.000000000               0.000000280               0.000008209               1.000000000               0.000000203               0.000008673               1.000000000               0.000000233               0.000009300               1.000000000               0.000000456               0.000010056               1.000000000               0.000000905               0.000011066               1.000000000               0.000001685               0.000012318               1.000000000               0.000002857               0.000013807               1.000000000               0.000004445               0.000015552               1.000000000               0.000006496               0.000017570               1.000000000              -0.000003505               0.000011427               1.000000000              -0.000001476               0.000010538               1.000000000              -0.000000598               0.000010573               1.000000000              -0.000000209               0.000011133               1.000000000              -0.000000059               0.000012038               1.000000000               0.000000084               0.000013248               1.000000000               0.000000247               0.000014578               1.000000000               0.000000438               0.000015793               1.000000000               0.000000670               0.000016661               1.000000000               0.000001023               0.000017739               1.000000000               0.000001564               0.000019084               1.000000000               0.000002306               0.000020702               1.000000000               0.000003326               0.000022755               1.000000000               0.000004703               0.000025229               1.000000000               0.000006453               0.000028140               1.000000000               0.000008588               0.000031490               1.000000000               0.000011157               0.000035252               1.000000000              -0.000003253               0.000017037               1.000000000              -0.000001496               0.000015629               1.000000000              -0.000000756               0.000015726               1.000000000              -0.000000428               0.000016593               1.000000000              -0.000000203               0.000018036               1.000000000               0.000000056               0.000019921               1.000000000               0.000000417               0.000021994               1.000000000               0.000000866               0.000023871               1.000000000               0.000001444               0.000025491               1.000000000               0.000002224               0.000027479               1.000000000               0.000003272               0.000029793               1.000000000               0.000004722               0.000032484               1.000000000               0.000006583               0.000035720               1.000000000               0.000008851               0.000039492               1.000000000               0.000011544               0.000043849               1.000000000               0.000014602               0.000048807               1.000000000               0.000018061               0.000054400               1.000000000              -0.000002857               0.000022446               1.000000000              -0.000001599               0.000020565               1.000000000              -0.000001033               0.000020779               1.000000000              -0.000000681               0.000022005               1.000000000              -0.000000348               0.000024040               1.000000000               0.000000146               0.000026659               1.000000000               0.000000844               0.000029502               1.000000000               0.000001583               0.000032226               1.000000000               0.000002538               0.000034863               1.000000000               0.000003844               0.000038015               1.000000000               0.000005608               0.000041678               1.000000000               0.000007875               0.000045844               1.000000000               0.000010616               0.000050643               1.000000000               0.000013877               0.000056088               1.000000000               0.000017596               0.000062223               1.000000000               0.000021715               0.000069101               1.000000000               0.000026252               0.000076725               1.000000000              -0.000002478               0.000027686               1.000000000              -0.000001759               0.000025300               1.000000000              -0.000001350               0.000025696               1.000000000              -0.000001009               0.000027391               1.000000000              -0.000000415               0.000030131               1.000000000               0.000000454               0.000033496               1.000000000               0.000001478               0.000037301               1.000000000               0.000002716               0.000040972               1.000000000               0.000004238               0.000044961               1.000000000               0.000006124               0.000049687               1.000000000               0.000008539               0.000055132               1.000000000               0.000011535               0.000061257               1.000000000               0.000015129               0.000068147               1.000000000               0.000019285               0.000075825               1.000000000               0.000023928               0.000084266               1.000000000               0.000029029               0.000093496               1.000000000               0.000034576               0.000103493               1.000000000              -0.000002088               0.000032697               1.000000000              -0.000002002               0.000029831               1.000000000              -0.000001797               0.000030497               1.000000000              -0.000001302               0.000032781               1.000000000              -0.000000385               0.000036339               1.000000000               0.000000878               0.000040692               1.000000000               0.000002420               0.000045508               1.000000000               0.000004049               0.000050669               1.000000000               0.000005981               0.000056385               1.000000000               0.000008462               0.000063153               1.000000000               0.000011603               0.000070767               1.000000000               0.000015374               0.000079239               1.000000000               0.000019786               0.000088625               1.000000000               0.000024771               0.000098871               1.000000000               0.000030239               0.000109998               1.000000000               0.000036242               0.000121895               1.000000000               0.000042733               0.000134548               1.000000000              -0.000001709               0.000037374               1.000000000              -0.000002401               0.000034210               1.000000000              -0.000002257               0.000035208               1.000000000              -0.000001520               0.000038238               1.000000000              -0.000000210               0.000042724               1.000000000               0.000001464               0.000048306               1.000000000               0.000003254               0.000054710               1.000000000               0.000005243               0.000061700               1.000000000               0.000007707               0.000069507               1.000000000               0.000010847               0.000078640               1.000000000               0.000014709               0.000088741               1.000000000               0.000019259               0.000099788               1.000000000               0.000024415               0.000111924               1.000000000               0.000030118               0.000125008               1.000000000               0.000036361               0.000138985               1.000000000               0.000043193               0.000153846               1.000000000               0.000050467               0.000169365               1.000000000              -0.000001398               0.000041663               1.000000000              -0.000002851               0.000038431               1.000000000              -0.000002649               0.000039854               1.000000000              -0.000001625               0.000043729               1.000000000               0.000000064               0.000049457               1.000000000               0.000002053               0.000056575               1.000000000               0.000004209               0.000064804               1.000000000               0.000006616               0.000073872               1.000000000               0.000009526               0.000084209               1.000000000               0.000013285               0.000095904               1.000000000               0.000017759               0.000108681               1.000000000               0.000022912               0.000122579               1.000000000               0.000028655               0.000137707               1.000000000               0.000034953               0.000153994               1.000000000               0.000041885               0.000171295               1.000000000               0.000049257               0.000189503               1.000000000               0.000056908               0.000208456               1.000000000              -0.000001106               0.000045795               1.000000000              -0.000003122               0.000042728               1.000000000              -0.000003176               0.000043726               1.000000000              -0.000002273               0.000047155               1.000000000              -0.000000754               0.000052482               1.000000000               0.000001129               0.000059293               1.000000000               0.000003242               0.000067326               1.000000000               0.000005243               0.000076276               1.000000000               0.000007436               0.000086125               1.000000000               0.000010219               0.000097086               1.000000000               0.000013657               0.000109113               1.000000000               0.000017510               0.000122088               1.000000000               0.000021885               0.000136111               1.000000000               0.000026748               0.000151220               1.000000000               0.000032061               0.000167466               1.000000000               0.000037881               0.000184638               1.000000000               0.000044145               0.000202826               1.000000000              -0.000000864               0.000049625               1.000000000              -0.000003266               0.000046919               1.000000000              -0.000003536               0.000047667               1.000000000              -0.000002803               0.000050780               1.000000000              -0.000001465               0.000055692               1.000000000               0.000000272               0.000062172               1.000000000               0.000002144               0.000069966               1.000000000               0.000003957               0.000078676               1.000000000               0.000005631               0.000088188               1.000000000               0.000007588               0.000098637               1.000000000               0.000010035               0.000110055               1.000000000               0.000012820               0.000122343               1.000000000               0.000016038               0.000135490               1.000000000               0.000019656               0.000149568               1.000000000               0.000023560               0.000164621               1.000000000               0.000027912               0.000180712               1.000000000               0.000032680               0.000197730               1.000000000              -0.000000670               0.000053056               1.000000000              -0.000003243               0.000050908               1.000000000              -0.000003676               0.000051620               1.000000000              -0.000003085               0.000054463               1.000000000              -0.000001977               0.000059037               1.000000000              -0.000000566               0.000065224               1.000000000               0.000001068               0.000072681               1.000000000               0.000002634               0.000081105               1.000000000               0.000004018               0.000090293               1.000000000               0.000005419               0.000100347               1.000000000               0.000007084               0.000111304               1.000000000               0.000009033               0.000123143               1.000000000               0.000011230               0.000135723               1.000000000               0.000013708               0.000149038               1.000000000               0.000016436               0.000163202               1.000000000               0.000019365               0.000178296               1.000000000               0.000022535               0.000194224               1.000000000              -0.000000554               0.000056050               1.000000000              -0.000002992               0.000054562               1.000000000              -0.000003494               0.000055349               1.000000000              -0.000003088               0.000058048               1.000000000              -0.000002287               0.000062420               1.000000000              -0.000001146               0.000068247               1.000000000               0.000000193               0.000075265               1.000000000               0.000001501               0.000083296               1.000000000               0.000002659               0.000092276               1.000000000               0.000003686               0.000102109               1.000000000               0.000004769               0.000112832               1.000000000               0.000006054               0.000124332               1.000000000               0.000007439               0.000136558               1.000000000               0.000008976               0.000149438               1.000000000               0.000010686               0.000162974               1.000000000               0.000012424               0.000177192               1.000000000               0.000014275               0.000192216               1.000000000              -0.000000441               0.000058469               1.000000000              -0.000002481               0.000057669               1.000000000              -0.000002987               0.000058619               1.000000000              -0.000002793               0.000061294               1.000000000              -0.000002185               0.000065458               1.000000000              -0.000001343               0.000070943               1.000000000              -0.000000395               0.000077646               1.000000000               0.000000604               0.000085404               1.000000000               0.000001546               0.000094173               1.000000000               0.000002344               0.000103834               1.000000000               0.000003022               0.000114324               1.000000000               0.000003770               0.000125557               1.000000000               0.000004579               0.000137538               1.000000000               0.000005443               0.000150184               1.000000000               0.000006366               0.000163383               1.000000000               0.000007313               0.000177112               1.000000000               0.000008228               0.000191550               1.000000000              -0.000000310               0.000060274               1.000000000              -0.000001786               0.000060075               1.000000000              -0.000002200               0.000061209               1.000000000              -0.000002099               0.000063848               1.000000000              -0.000001699               0.000067874               1.000000000              -0.000001217               0.000073171               1.000000000              -0.000000592               0.000079617               1.000000000               0.000000117               0.000087188               1.000000000               0.000000774               0.000095775               1.000000000               0.000001292               0.000105248               1.000000000               0.000001688               0.000115507               1.000000000               0.000002089               0.000126543               1.000000000               0.000002534               0.000138388               1.000000000               0.000002983               0.000150851               1.000000000               0.000003418               0.000163844               1.000000000               0.000003882               0.000177358               1.000000000               0.000004277               0.000191451               1.000000000              -0.000000167               0.000061394               1.000000000              -0.000000941               0.000061584               1.000000000              -0.000001163               0.000062856               1.000000000              -0.000001110               0.000065505               1.000000000              -0.000000970               0.000069449               1.000000000              -0.000000707               0.000074635               1.000000000              -0.000000383               0.000080958               1.000000000              -0.000000043               0.000088379               1.000000000               0.000000282               0.000096771               1.000000000               0.000000538               0.000106087               1.000000000               0.000000733               0.000116243               1.000000000               0.000000917               0.000127161               1.000000000               0.000001109               0.000138844               1.000000000               0.000001290               0.000151138               1.000000000               0.000001470               0.000163988               1.000000000               0.000001669               0.000177396               1.000000000               0.000001837               0.000191310               1.000000000               0.000000000               0.000061750               1.000000000               0.000000000               0.000062070               1.000000000               0.000000000               0.000063423               1.000000000               0.000000000               0.000066107               1.000000000              -0.000000000               0.000069986               1.000000000              -0.000000000               0.000075136               1.000000000               0.000000000               0.000081443               1.000000000               0.000000000               0.000088786               1.000000000              -0.000000000               0.000097134               1.000000000              -0.000000000               0.000106413               1.000000000              -0.000000000               0.000116479               1.000000000              -0.000000000               0.000127318               1.000000000              -0.000000000               0.000138948               1.000000000               0.000000000               0.000151185               1.000000000               0.000000000               0.000163976               1.000000000               0.000000000               0.000177346               1.000000000              -0.000000000               0.000191207               1.000000000 </DataArray>
<DataArray type="Float64"                                    Name="defo"                                                      NumberOfComponents=" 3" format="ascii">
              0.000003790              -0.000000000               1.000000000               0.000001472               0.000000000               1.000000000               0.000000440               0.000000000               1.000000000               0.000000033               0.000000000               1.000000000              -0.000000128               0.000000000               1.000000000              -0.000000177               0.000000000               1.000000000              -0.000000204               0.000000000               1.000000000              -0.000000184               0.000000000               1.000000000              -0.000000059               0.000000000               1.000000000               0.000000095               0.000000000               1.000000000               0.000000206               0.000000000               1.000000000               0.000000243               0.000000000               1.000000000               0.000000073               0.000000000               1.000000000              -0.000000416               0.000000000               1.000000000              -0.000001276               0.000000000               1.000000000              -0.000002607               0.000000000               1.000000000              -0.000004475               0.000000000               1.000000000               0.000003667               0.000005712               1.000000000               0.000001457               0.000005323               1.000000000               0.000000506               0.000005297               1.000000000               0.000000076               0.000005589               1.000000000              -0.000000081               0.000006009               1.000000000              -0.000000129               0.000006636               1.000000000              -0.000000193               0.000007253               1.000000000              -0.000000280               0.000007832               1.000000000              -0.000000280               0.000008209               1.000000000              -0.000000203               0.000008673               1.000000000              -0.000000233               0.000009300               1.000000000              -0.000000456               0.000010056               1.000000000              -0.000000905               0.000011066               1.000000000              -0.000001685               0.000012318               1.000000000              -0.000002857               0.000013807               1.000000000              -0.000004445               0.000015552               1.000000000              -0.000006496               0.000017570               1.000000000               0.000003505               0.000011427               1.000000000               0.000001476               0.000010538               1.000000000               0.000000598               0.000010573               1.000000000               0.000000209               0.000011133               1.000000000               0.000000059               0.000012038               1.000000000              -0.000000084               0.000013248               1.000000000              -0.000000247               0.000014578               1.000000000              -0.000000438               0.000015793               1.000000000              -0.000000670               0.000016661               1.000000000              -0.000001023               0.000017739               1.000000000              -0.000001564               0.000019084               1.000000000              -0.000002306               0.000020702               1.000000000              -0.000003326               0.000022755               1.000000000              -0.000004703               0.000025229               1.000000000              -0.000006453               0.000028140               1.000000000              -0.000008588               0.000031490               1.000000000              -0.000011157               0.000035252               1.000000000               0.000003253               0.000017037               1.000000000               0.000001496               0.000015629               1.000000000               0.000000756               0.000015726               1.000000000               0.000000428               0.000016593               1.000000000               0.000000203               0.000018036               1.000000000              -0.000000056               0.000019921               1.000000000              -0.000000417               0.000021994               1.000000000              -0.000000866               0.000023871               1.000000000              -0.000001444               0.000025491               1.000000000              -0.000002224               0.000027479               1.000000000              -0.000003272               0.000029793               1.000000000              -0.000004722               0.000032484               1.000000000              -0.000006583               0.000035720               1.000000000              -0.000008851               0.000039492               1.000000000              -0.000011544               0.000043849               1.000000000              -0.000014602               0.000048807               1.000000000              -0.000018061               0.000054400               1.000000000               0.000002857               0.000022446               1.000000000               0.000001599               0.000020565               1.000000000               0.000001033               0.000020779               1.000000000               0.000000681               0.000022005               1.000000000               0.000000348               0.000024040               1.000000000              -0.000000146               0.000026659               1.000000000              -0.000000844               0.000029502               1.000000000              -0.000001583               0.000032226               1.000000000              -0.000002538               0.000034863               1.000000000              -0.000003844               0.000038015               1.000000000              -0.000005608               0.000041678               1.000000000              -0.000007875               0.000045844               1.000000000              -0.000010616               0.000050643               1.000000000              -0.000013877               0.000056088               1.000000000              -0.000017596               0.000062223               1.000000000              -0.000021715               0.000069101               1.000000000              -0.000026252               0.000076725               1.000000000               0.000002478               0.000027686               1.000000000               0.000001759               0.000025300               1.000000000               0.000001350               0.000025696               1.000000000               0.000001009               0.000027391               1.000000000               0.000000415               0.000030131               1.000000000              -0.000000454               0.000033496               1.000000000              -0.000001478               0.000037301               1.000000000              -0.000002716               0.000040972               1.000000000              -0.000004238               0.000044961               1.000000000              -0.000006124               0.000049687               1.000000000              -0.000008539               0.000055132               1.000000000              -0.000011535               0.000061257               1.000000000              -0.000015129               0.000068147               1.000000000              -0.000019285               0.000075825               1.000000000              -0.000023928               0.000084266               1.000000000              -0.000029029               0.000093496               1.000000000              -0.000034576               0.000103493               1.000000000               0.000002088               0.000032697               1.000000000               0.000002002               0.000029831               1.000000000               0.000001797               0.000030497               1.000000000               0.000001302               0.000032781               1.000000000               0.000000385               0.000036339               1.000000000              -0.000000878               0.000040692               1.000000000              -0.000002420               0.000045508               1.000000000              -0.000004049               0.000050669               1.000000000              -0.000005981               0.000056385               1.000000000              -0.000008462               0.000063153               1.000000000              -0.000011603               0.000070767               1.000000000              -0.000015374               0.000079239               1.000000000              -0.000019786               0.000088625               1.000000000              -0.000024771               0.000098871               1.000000000              -0.000030239               0.000109998               1.000000000              -0.000036242               0.000121895               1.000000000              -0.000042733               0.000134548               1.000000000               0.000001709               0.000037374               1.000000000               0.000002401               0.000034210               1.000000000               0.000002257               0.000035208               1.000000000               0.000001520               0.000038238               1.000000000               0.000000210               0.000042724               1.000000000              -0.000001464               0.000048306               1.000000000              -0.000003254               0.000054710               1.000000000              -0.000005243               0.000061700               1.000000000              -0.000007707               0.000069507               1.000000000              -0.000010847               0.000078640               1.000000000              -0.000014709               0.000088741               1.000000000              -0.000019259               0.000099788               1.000000000              -0.000024415               0.000111924               1.000000000              -0.000030118               0.000125008               1.000000000              -0.000036361               0.000138985               1.000000000              -0.000043193               0.000153846               1.000000000              -0.000050467               0.000169365               1.000000000               0.000001398               0.000041663               1.000000000               0.000002851               0.000038431               1.000000000               0.000002649               0.000039854               1.000000000               0.000001625               0.000043729               1.000000000              -0.000000064               0.000049457               1.000000000              -0.000002053               0.000056575               1.000000000              -0.000004209               0.000064804               1.000000000              -0.000006616               0.000073872               1.000000000              -0.000009526               0.000084209               1.000000000              -0.000013285               0.000095904               1.000000000              -0.000017759               0.000108681               1.000000000              -0.000022912               0.000122579               1.000000000              -0.000028655               0.000137707               1.000000000              -0.000034953               0.000153994               1.000000000              -0.000041885               0.000171295               1.000000000              -0.000049257               0.000189503               1.000000000              -0.000056908               0.000208456               1.000000000               0.000001106               0.000045795               1.000000000               0.000003122               0.000042728               1.000000000               0.000003176               0.000043726               1.000000000               0.000002273               0.000047155               1.000000000               0.000000754               0.000052482               1.000000000              -0.000001129               0.000059293               1.000000000              -0.000003242               0.000067326               1.000000000              -0.000005243               0.000076276               1.000000000              -0.000007436               0.000086125               1.000000000              -0.000010219               0.000097086               1.000000000              -0.000013657               0.000109113               1.000000000              -0.000017510               0.000122088               1.000000000              -0.000021885               0.000136111               1.000000000              -0.000026748               0.000151220               1.000000000              -0.000032061               0.000167466               1.000000000              -0.000037881               0.000184638               1.000000000              -0.000044145               0.000202826               1.000000000               0.000000864               0.000049625               1.000000000               0.000003266               0.000046919               1.000000000               0.000003536               0.000047667               1.000000000               0.000002803               0.000050780               1.000000000               0.000001465               0.000055692               1.000000000              -0.000000272               0.000062172               1.000000000              -0.000002144               0.000069966               1.000000000              -0.000003957               0.000078676               1.000000000              -0.000005631               0.000088188               1.000000000              -0.000007588               0.000098637               1.000000000              -0.000010035               0.000110055               1.000000000              -0.000012820               0.000122343               1.000000000              -0.000016038               0.000135490               1.000000000              -0.000019656               0.000149568               1.000000000              -0.000023560               0.000164621               1.000000000              -0.000027912               0.000180712               1.000000000              -0.000032680               0.000197730               1.000000000               0.000000670               0.000053056               1.000000000               0.000003243               0.000050908               1.000000000               0.000003676               0.000051620               1.000000000               0.000003085               0.000054463               1.000000000               0.000001977               0.000059037               1.000000000               0.000000566               0.000065224               1.000000000              -0.000001068               0.000072681               1.000000000              -0.000002634               0.000081105               1.000000000              -0.000004018               0.000090293               1.000000000              -0.000005419               0.000100347               1.000000000              -0.000007084               0.000111304               1.000000000              -0.000009033               0.000123143               1.000000000              -0.000011230               0.000135723               1.000000000              -0.000013708               0.000149038               1.000000000              -0.000016436               0.000163202               1.000000000              -0.000019365               0.000178296               1.000000000              -0.000022535               0.000194224               1.000000000               0.000000554               0.000056050               1.000000000               0.000002992               0.000054562               1.000000000               0.000003494               0.000055349               1.000000000               0.000003088               0.000058048               1.000000000               0.000002287               0.000062420               1.000000000               0.000001146               0.000068247               1.000000000              -0.000000193               0.000075265               1.000000000              -0.000001501               0.000083296               1.000000000              -0.000002659               0.000092276               1.000000000              -0.000003686               0.000102109               1.000000000              -0.000004769               0.000112832               1.000000000              -0.000006054               0.000124332               1.000000000              -0.000007439               0.000136558               1.000000000              -0.000008976               0.000149438               1.000000000              -0.000010686               0.000162974               1.000000000              -0.000012424               0.000177192               1.000000000              -0.000014275               0.000192216               1.000000000               0.000000441               0.000058469               1.000000000               0.000002481               0.000057669               1.000000000               0.000002987               0.000058619               1.000000000               0.000002793               0.000061294               1.000000000               0.000002185               0.000065458               1.000000000               0.000001343               0.000070943               1.000000000               0.000000395               0.000077646               1.000000000              -0.000000604               0.000085404               1.000000000              -0.000001546               0.000094173               1.000000000              -0.000002344               0.000103834               1.000000000              -0.000003022               0.000114324               1.000000000              -0.000003770               0.000125557               1.000000000              -0.000004579               0.000137538               1.000000000              -0.000005443               0.000150184               1.000000000              -0.000006366               0.000163383               1.000000000              -0.000007313               0.000177112               1.000000000              -0.000008228               0.000191550               1.000000000               0.000000310               0.000060274               1.000000000               0.000001786               0.000060075               1.000000000               0.000002200               0.000061209               1.000000000               0.000002099               0.000063848               1.000000000               0.000001699               0.000067874               1.000000000               0.000001217               0.000073171               1.000000000               0.000000592               0.000079617               1.000000000              -0.000000117               0.000087188               1.000000000              -0.000000774               0.000095775               1.000000000              -0.000001292               0.000105248               1.000000000              -0.000001688               0.000115507               1.000000000              -0.000002089               0.000126543               1.000000000              -0.000002534               0.000138388               1.000000000              -0.000002983               0.000150851               1.000000000              -0.000003418               0.000163844               1.000000000              -0.000003882               0.000177358               1.000000000              -0.000004277               0.000191451               1.000000000               0.000000167               0.000061394               1.000000000               0.000000941               0.000061584               1.000000000               0.000001163               0.000062856               1.000000000               0.000001110               0.000065505               1.000000000               0.000000970               0.000069449               1.000000000               0.000000707               0.000074635               1.000000000               0.000000383               0.000080958               1.000000000               0.000000043               0.000088379               1.000000000              -0.000000282               0.000096771               1.000000000              -0.000000538               0.000106087               1.000000000              -0.000000733               0.000116243               1.000000000              -0.000000917               0.000127161               1.000000000              -0.000001109               0.000138844               1.000000000              -0.000001290               0.000151138               1.000000000              -0.000001470               0.000163988               1.000000000              -0.000001669               0.000177396               1.000000000              -0.000001837               0.000191310               1.000000000               0.000000000               0.000061750               1.000000000               0.000000000               0.000062070               1.000000000               0.000000000               0.000063423               1.000000000               0.000000000               0.000066107               1.000000000              -0.000000000               0.000069986               1.000000000              -0.000000000               0.000075136               1.000000000               0.000000000               0.000081443               1.000000000               0.000000000               0.000088786               1.000000000              -0.000000000               0.000097134               1.000000000              -0.000000000               0.000106413               1.000000000              -0.000000000               0.000116479               1.000000000              -0.000000000               0.000127318               1.000000000              -0.000000000               0.000138948               1.000000000               0.000000000               0.000151185               1.000000000               0.000000000               0.000163976               1.000000000               0.000000000               0.000177346               1.000000000              -0.000000000               0.000191207               1.000000000               0.000003790              -0.000000000               1.000000000               0.000001472               0.000000000               1.000000000               0.000000440               0.000000000               1.000000000               0.000000033               0.000000000               1.000000000              -0.000000128               0.000000000               1.000000000              -0.000000177               0.000000000               1.000000000              -0.000000204               0.000000000               1.000000000              -0.000000184               0.000000000               1.000000000              -0.000000059               0.000000000               1.000000000               0.000000095               0.000000000               1.000000000               0.000000206               0.000000000               1.000000000               0.000000243               0.000000000               1.000000000               0.000000073               0.000000000               1.000000000              -0.000000416               0.000000000               1.000000000              -0.000001276               0.000000000               1.000000000              -0.000002607               0.000000000               1.000000000              -0.000004475               0.000000000               1.000000000               0.000003667              -0.000005712               1.000000000               0.000001457              -0.000005323               1.000000000               0.000000506              -0.000005297               1.000000000               0.000000076              -0.000005589               1.000000000              -0.000000081              -0.000006009               1.000000000              -0.000000129              -0.000006636               1.000000000              -0.000000193              -0.000007253               1.000000000              -0.000000280              -0.000007832               1.000000000              -0.000000280              -0.000008209               1.000000000              -0.000000203              -0.000008673               1.000000000              -0.000000233              -0.000009300               1.000000000              -0.000000456              -0.000010056               1.000000000              -0.000000905              -0.000011066               1.000000000              -0.000001685              -0.000012318               1.000000000              -0.000002857              -0.000013807               1.000000000              -0.000004445              -0.000015552               1.000000000              -0.000006496              -0.000017570               1.000000000               0.000003505              -0.000011427               1.000000000               0.000001476              -0.000010538               1.000000000               0.000000598              -0.000010573               1.000000000               0.000000209              -0.000011133               1.000000000               0.000000059              -0.000012038               1.000000000              -0.000000084              -0.000013248               1.000000000              -0.000000247              -0.000014578               1.000000000              -0.000000438              -0.000015793               1.000000000              -0.000000670              -0.000016661               1.000000000              -0.000001023              -0.000017739               1.000000000              -0.000001564              -0.000019084               1.000000000              -0.000002306              -0.000020702               1.000000000              -0.000003326              -0.000022755               1.000000000              -0.000004703              -0.000025229               1.000000000              -0.000006453              -0.000028140               1.000000000              -0.000008588              -0.000031490               1.000000000              -0.000011157              -0.000035252               1.000000000               0.000003253              -0.000017037               1.000000000               0.000001496              -0.000015629               1.000000000               0.000000756              -0.000015726               1.000000000               0.000000428              -0.000016593               1.000000000               0.000000203              -0.000018036               1.000000000              -0.000000056              -0.000019921               1.000000000              -0.000000417              -0.000021994               1.000000000              -0.000000866              -0.000023871               1.000000000              -0.000001444              -0.000025491               1.000000000              -0.000002224              -0.000027479               1.000000000              -0.000003272              -0.000029793               1.000000000              -0.000004722              -0.000032484               1.000000000              -0.000006583              -0.000035720               1.000000000              -0.000008851              -0.000039492               1.000000000              -0.000011544              -0.000043849               1.000000000              -0.000014602              -0.000048807               1.000000000              -0.000018061              -0.000054400               1.000000000               0.000002857              -0.000022446               1.000000000               0.000001599              -0.000020565               1.000000000               0.000001033              -0.000020779               1.000000000               0.000000681              -0.000022005               1.000000000               0.000000348              -0.000024040               1.000000000              -0.000000146              -0.000026659               1.000000000              -0.000000844              -0.000029502               1.000000000              -0.000001583              -0.000032226               1.000000000              -0.000002538              -0.000034863               1.000000000              -0.000003844              -0.000038015               1.000000000              -0.000005608              -0.000041678               1.000000000              -0.000007875              -0.000045844               1.000000000              -0.000010616              -0.000050643               1.000000000              -0.000013877              -0.000056088               1.000000000              -0.000017596              -0.000062223               1.000000000              -0.000021715              -0.000069101               1.000000000              -0.000026252              -0.000076725               1.000000000               0.000002478              -0.000027686               1.000000000               0.000001759              -0.000025300               1.000000000               0.000001350              -0.000025696               1.000000000               0.000001009              -0.000027391               1.000000000               0.000000415              -0.000030131               1.000000000              -0.000000454              -0.000033496               1.000000000              -0.000001478              -0.000037301               1.000000000              -0.000002716              -0.000040972               1.000000000              -0.000004238              -0.000044961               1.000000000              -0.000006124              -0.000049687               1.000000000              -0.000008539              -0.000055132               1.000000000              -0.000011535              -0.000061257               1.000000000              -0.000015129              -0.000068147               1.000000000              -0.000019285              -0.000075825               1.000000000              -0.000023928              -0.000084266               1.000000000              -0.000029029              -0.000093496               1.000000000              -0.000034576              -0.000103493               1.000000000               0.000002088              -0.000032697               1.000000000               0.000002002              -0.000029831               1.000000000               0.000001797              -0.000030497               1.000000000               0.000001302              -0.000032781               1.000000000               0.000000385              -0.000036339               1.000000000              -0.000000878              -0.000040692               1.000000000              -0.000002420              -0.000045508               1.000000000              -0.000004049              -0.000050669               1.000000000              -0.000005981              -0.000056385               1.000000000              -0.000008462              -0.000063153               1.000000000              -0.000011603              -0.000070767               1.000000000              -0.000015374              -0.000079239               1.000000000              -0.000019786              -0.000088625               1.000000000              -0.000024771              -0.000098871               1.000000000              -0.000030239              -0.000109998               1.000000000              -0.000036242              -0.000121895               1.000000000              -0.000042733              -0.000134548               1.000000000               0.000001709              -0.000037374               1.000000000               0.000002401              -0.000034210               1.000000000               0.000002257              -0.000035208               1.000000000               0.000001520              -0.000038238               1.000000000               0.000000210              -0.000042724               1.000000000              -0.000001464              -0.000048306               1.000000000              -0.000003254              -0.000054710               1.000000000              -0.000005243              -0.000061700               1.000000000              -0.000007707              -0.000069507               1.000000000              -0.000010847              -0.000078640               1.000000000              -0.000014709              -0.000088741               1.000000000              -0.000019259              -0.000099788               1.000000000              -0.000024415              -0.000111924               1.000000000              -0.000030118              -0.000125008               1.000000000              -0.000036361              -0.000138985               1.000000000              -0.000043193              -0.000153846               1.000000000              -0.000050467              -0.000169365               1.000000000               0.000001398              -0.000041663               1.000000000               0.000002851              -0.000038431               1.000000000               0.000002649              -0.000039854               1.000000000               0.000001625              -0.000043729               1.000000000              -0.000000064              -0.000049457               1.000000000              -0.000002053              -0.000056575               1.000000000              -0.000004209              -0.000064804               1.000000000              -0.000006616              -0.000073872               1.000000000              -0.000009526              -0.000084209               1.000000000              -0.000013285              -0.000095904               1.000000000              -0.000017759              -0.000108681               1.000000000              -0.000022912              -0.000122579               1.000000000              -0.000028655              -0.000137707               1.000000000              -0.000034953              -0.000153994               1.000000000              -0.000041885              -0.000171295               1.000000000              -0.000049257              -0.000189503               1.000000000              -0.000056908              -0.000208456               1.000000000               0.000001106              -0.000045795               1.000000000               0.000003122              -0.000042728               1.000000000               0.000003176              -0.000043726               1.000000000               0.000002273              -0.000047155               1.000000000               0.000000754              -0.000052482               1.000000000              -0.000001129              -0.000059293               1.000000000              -0.000003242              -0.000067326               1.000000000              -0.000005243              -0.000076276               1.000000000              -0.000007436              -0.000086125               1.000000000              -0.000010219              -0.000097086               1.000000000              -0.000013657              -0.000109113               1.000000000              -0.000017510              -0.000122088               1.000000000              -0.000021885              -0.000136111               1.000000000              -0.000026748              -0.000151220               1.000000000              -0.000032061              -0.000167466               1.000000000              -0.000037881              -0.000184638               1.000000000              -0.000044145              -0.000202826               1.000000000               0.000000864              -0.000049625               1.000000000               0.000003266              -0.000046919               1.000000000               0.000003536              -0.000047667               1.000000000               0.000002803              -0.000050780               1.000000000               0.000001465              -0.000055692               1.000000000              -0.000000272              -0.000062172               1.000000000              -0.000002144              -0.000069966               1.000000000              -0.000003957              -0.000078676               1.000000000              -0.000005631              -0.000088188               1.000000000              -0.000007588              -0.000098637               1.000000000              -0.000010035              -0.000110055               1.000000000              -0.000012820              -0.000122343               1.000000000              -0.000016038              -0.000135490               1.000000000              -0.000019656              -0.000149568               1.000000000              -0.000023560              -0.000164621               1.000000000              -0.000027912              -0.000180712               1.000000000              -0.000032680              -0.000197730               1.000000000               0.000000670              -0.000053056               1.000000000               0.000003243              -0.000050908               1.000000000               0.000003676              -0.000051620               1.000000000               0.000003085              -0.000054463               1.000000000               0.000001977              -0.000059037               1.000000000               0.000000566              -0.000065224               1.000000000              -0.000001068              -0.000072681               1.000000000              -0.000002634              -0.000081105               1.000000000              -0.000004018              -0.000090293               1.000000000              -0.000005419              -0.000100347               1.000000000              -0.000007084              -0.000111304               1.000000000              -0.000009033              -0.000123143               1.000000000              -0.000011230              -0.000135723               1.000000000              -0.000013708              -0.000149038               1.000000000              -0.000016436              -0.000163202               1.000000000              -0.000019365              -0.000178296               1.000000000              -0.000022535              -0.000194224               1.000000000               0.000000554              -0.000056050               1.000000000               0.000002992              -0.000054562               1.000000000               0.000003494              -0.000055349               1.000000000               0.000003088              -0.000058048               1.000000000               0.000002287              -0.000062420               1.000000000               0.000001146              -0.000068247               1.000000000              -0.000000193              -0.000075265               1.000000000              -0.000001501              -0.000083296               1.000000000              -0.000002659              -0.000092276               1.000000000              -0.000003686              -0.000102109               1.000000000              -0.000004769              -0.000112832               1.000000000              -0.000006054              -0.000124332               1.000000000              -0.000007439              -0.000136558               1.000000000              -0.000008976              -0.000149438               1.000000000              -0.000010686              -0.000162974               1.000000000              -0.000012424              -0.000177192               1.000000000              -0.000014275              -0.000192216               1.000000000               0.000000441              -0.000058469               1.000000000               0.000002481              -0.000057669               1.000000000               0.000002987              -0.000058619               1.000000000               0.000002793              -0.000061294               1.000000000               0.000002185              -0.000065458               1.000000000               0.000001343              -0.000070943               1.000000000               0.000000395              -0.000077646               1.000000000              -0.000000604              -0.000085404               1.000000000              -0.000001546              -0.000094173               1.000000000              -0.000002344              -0.000103834               1.000000000              -0.000003022              -0.000114324               1.000000000              -0.000003770              -0.000125557               1.000000000              -0.000004579              -0.000137538               1.000000000              -0.000005443              -0.000150184               1.000000000              -0.000006366              -0.000163383               1.000000000              -0.000007313              -0.000177112               1.000000000              -0.000008228              -0.000191550               1.000000000               0.000000310              -0.000060274               1.000000000               0.000001786              -0.000060075               1.000000000               0.000002200              -0.000061209               1.000000000               0.000002099              -0.000063848               1.000000000               0.000001699              -0.000067874               1.000000000               0.000001217              -0.000073171               1.000000000               0.000000592              -0.000079617               1.000000000              -0.000000117              -0.000087188               1.000000000              -0.000000774              -0.000095775               1.000000000              -0.000001292              -0.000105248               1.000000000              -0.000001688              -0.000115507               1.000000000              -0.000002089              -0.000126543               1.000000000              -0.000002534              -0.000138388               1.000000000              -0.000002983              -0.000150851               1.000000000              -0.000003418              -0.000163844               1.000000000              -0.000003882              -0.000177358               1.000000000              -0.000004277              -0.000191451               1.000000000               0.000000167              -0.000061394               1.000000000               0.000000941              -0.000061584               1.000000000               0.000001163              -0.000062856               1.000000000               0.000001110              -0.000065505               1.000000000               0.000000970              -0.000069449               1.000000000               0.000000707              -0.000074635               1.000000000               0.000000383              -0.000080958               1.000000000               0.000000043              -0.000088379               1.000000000              -0.000000282              -0.000096771               1.000000000              -0.000000538              -0.000106087               1.000000000              -0.000000733              -0.000116243               1.000000000              -0.000000917              -0.000127161               1.000000000              -0.000001109              -0.000138844               1.000000000              -0.000001290              -0.000151138               1.000000000              -0.000001470              -0.000163988               1.000000000              -0.000001669              -0.000177396               1.000000000              -0.000001837              -0.000191310               1.000000000              -0.000000000              -0.000061750               1.000000000              -0.000000000              -0.000062070               1.000000000               0.000000000              -0.000063423               1.000000000              -0.000000000              -0.000066107               1.000000000              -0.000000000              -0.000069986               1.000000000               0.000000000              -0.000075136               1.000000000               0.000000000              -0.000081443               1.000000000              -0.000000000              -0.000088786               1.000000000              -0.000000000              -0.000097134               1.000000000              -0.000000000              -0.000106413               1.000000000              -0.000000000              -0.000116479               1.000000000              -0.000000000              -0.000127318               1.000000000              -0.000000000              -0.000138948               1.000000000               0.000000000              -0.000151185               1.000000000               0.000000000              -0.000163976               1.000000000               0.000000000              -0.000177346               1.000000000               0.000000000              -0.000191207               1.000000000              -0.000003790              -0.000000000               1.000000000              -0.000001472              -0.000000000               1.000000000              -0.000000440               0.000000000               1.000000000              -0.000000033              -0.000000000               1.000000000               0.000000128              -0.000000000               1.000000000               0.000000177              -0.000000000               1.000000000               0.000000204               0.000000000               1.000000000               0.000000184               0.000000000               1.000000000               0.000000059               0.000000000               1.000000000              -0.000000095               0.000000000               1.000000000              -0.000000206              -0.000000000               1.000000000              -0.000000243              -0.000000000               1.000000000              -0.000000073              -0.000000000               1.000000000               0.000000416              -0.000000000               1.000000000               0.000001276              -0.000000000               1.000000000               0.000002607              -0.000000000               1.000000000               0.000004475              -0.000000000               1.000000000              -0.000003667              -0.000005712               1.000000000              -0.000001457              -0.000005323               1.000000000              -0.000000506              -0.000005297               1.000000000              -0.000000076              -0.000005589               1.000000000               0.000000081              -0.000006009               1.000000000               0.000000129              -0.000006636               1.000000000               0.000000193              -0.000007253               1.000000000               0.000000280              -0.000007832               1.000000000               0.000000280              -0.000008209               1.000000000               0.000000203              -0.000008673               1.000000000               0.000000233              -0.000009300               1.000000000               0.000000456              -0.000010056               1.000000000               0.000000905              -0.000011066               1.000000000               0.000001685              -0.000012318               1.000000000               0.000002857              -0.000013807               1.000000000               0.000004445              -0.000015552               1.000000000               0.000006496              -0.000017570               1.000000000              -0.000003505              -0.000011427               1.000000000              -0.000001476              -0.000010538               1.000000000              -0.000000598              -0.000010573               1.000000000              -0.000000209              -0.000011133               1.000000000              -0.000000059              -0.000012038               1.000000000               0.000000084              -0.000013248               1.000000000               0.000000247              -0.000014578               1.000000000               0.000000438              -0.000015793               1.000000000               0.000000670              -0.000016661               1.000000000               0.000001023              -0.000017739               1.000000000               0.000001564              -0.000019084               1.000000000               0.000002306              -0.000020702               1.000000000               0.000003326              -0.000022755               1.000000000               0.000004703              -0.000025229               1.000000000               0.000006453              -0.000028140               1.000000000               0.000008588              -0.000031490               1.000000000               0.000011157              -0.000035252               1.000000000              -0.000003253              -0.000017037               1.000000000              -0.000001496              -0.000015629               1.000000000              -0.000000756              -0.000015726               1.000000000              -0.000000428              -0.000016593               1.000000000              -0.000000203              -0.000018036               1.000000000               0.000000056              -0.000019921               1.000000000               0.000000417              -0.000021994               1.000000000               0.000000866              -0.000023871               1.000000000               0.000001444              -0.000025491               1.000000000               0.000002224              -0.000027479               1.000000000               0.000003272              -0.000029793               1.000000000               0.000004722              -0.000032484               1.000000000               0.000006583              -0.000035720               1.000000000               0.000008851              -0.000039492               1.000000000               0.000011544              -0.000043849               1.000000000               0.000014602              -0.000048807               1.000000000               0.000018061              -0.000054400               1.000000000              -0.000002857              -0.000022446               1.000000000              -0.000001599              -0.000020565               1.000000000              -0.000001033              -0.000020779               1.000000000              -0.000000681              -0.000022005               1.000000000              -0.000000348              -0.000024040               1.000000000               0.000000146              -0.000026659               1.000000000               0.000000844              -0.000029502               1.000000000               0.000001583              -0.000032226               1.000000000               0.000002538              -0.000034863               1.000000000               0.000003844              -0.000038015               1.000000000               0.000005608              -0.000041678               1.000000000               0.000007875              -0.000045844               1.000000000               0.000010616              -0.000050643               1.000000000               0.000013877              -0.000056088               1.000000000               0.000017596              -0.000062223               1.000000000               0.000021715              -0.000069101               1.000000000               0.000026252              -0.000076725               1.000000000              -0.000002478              -0.000027686               1.000000000              -0.000001759              -0.000025300               1.000000000              -0.000001350              -0.000025696               1.000000000              -0.000001009              -0.000027391               1.000000000              -0.000000415              -0.000030131               1.000000000               0.000000454              -0.000033496               1.000000000               0.000001478              -0.000037301               1.000000000               0.000002716              -0.000040972               1.000000000               0.000004238              -0.000044961               1.000000000               0.000006124              -0.000049687               1.000000000               0.000008539              -0.000055132               1.000000000               0.000011535              -0.000061257               1.000000000               0.000015129              -0.000068147               1.000000000               0.000019285              -0.000075825               1.000000000               0.000023928              -0.000084266               1.000000000               0.000029029              -0.000093496               1.000000000               0.000034576              -0.000103493               1.000000000              -0.000002088              -0.000032697               1.000000000              -0.000002002              -0.000029831               1.000000000              -0.000001797              -0.000030497               1.000000000              -0.000001302              -0.000032781               1.000000000              -0.000000385              -0.000036339               1.000000000               0.000000878              -0.000040692               1.000000000               0.000002420              -0.000045508               1.000000000               0.000004049              -0.000050669               1.000000000               0.000005981              -0.000056385               1.000000000               0.000008462              -0.000063153               1.000000000               0.000011603              -0.000070767               1.000000000               0.000015374              -0.000079239               1.000000000               0.000019786              -0.000088625               1.000000000               0.000024771              -0.000098871               1.000000000               0.000030239              -0.000109998               1.000000000               0.000036242              -0.000121895               1.000000000               0.000042733              -0.000134548               1.000000000              -0.000001709              -0.000037374               1.000000000              -0.000002401              -0.000034210               1.000000000              -0.000002257              -0.000035208               1.000000000              -0.000001520              -0.000038238               1.000000000              -0.000000210              -0.000042724               1.000000000               0.000001464              -0.000048306               1.000000000               0.000003254              -0.000054710               1.000000000               0.000005243              -0.000061700               1.000000000               0.000007707              -0.000069507               1.000000000               0.000010847              -0.000078640               1.000000000               0.000014709              -0.000088741               1.000000000               0.000019259              -0.000099788               1.000000000               0.000024415              -0.000111924               1.000000000               0.000030118              -0.000125008               1.000000000               0.000036361              -0.000138985               1.000000000               0.000043193              -0.000153846               1.000000000               0.000050467              -0.000169365               1.000000000              -0.000001398              -0.000041663               1.000000000              -0.000002851              -0.000038431               1.000000000              -0.000002649              -0.000039854               1.000000000              -0.000001625              -0.000043729               1.000000000               0.000000064              -0.000049457               1.000000000               0.000002053              -0.000056575               1.000000000               0.000004209              -0.000064804               1.000000000               0.000006616              -0.000073872               1.000000000               0.000009526              -0.000084209               1.000000000               0.000013285              -0.000095904               1.000000000               0.000017759              -0.000108681               1.000000000               0.000022912              -0.000122579               1.000000000               0.000028655              -0.000137707               1.000000000               0.000034953              -0.000153994               1.000000000               0.000041885              -0.000171295               1.000000000               0.000049257              -0.000189503               1.000000000               0.000056908              -0.000208456               1.000000000              -0.000001106              -0.000045795               1.000000000              -0.000003122              -0.000042728               1.000000000              -0.000003176              -0.000043726               1.000000000              -0.000002273              -0.000047155               1.000000000              -0.000000754              -0.000052482               1.000000000               0.000001129              -0.000059293               1.000000000               0.000003242              -0.000067326               1.000000000               0.000005243              -0.000076276               1.000000000               0.000007436              -0.000086125               1.000000000               0.000010219              -0.000097086               1.000000000               0.000013657              -0.000109113               1.000000000               0.000017510              -0.000122088               1.000000000               0.000021885              -0.000136111               1.000000000               0.000026748              -0.000151220               1.000000000               0.000032061              -0.000167466               1.000000000               0.000037881              -0.000184638               1.000000000               0.000044145              -0.000202826               1.000000000              -0.000000864              -0.000049625               1.000000000              -0.000003266              -0.000046919               1.000000000              -0.000003536              -0.000047667               1.000000000              -0.000002803              -0.000050780               1.000000000              -0.000001465              -0.000055692               1.000000000               0.000000272              -0.000062172               1.000000000               0.000002144              -0.000069966               1.000000000               0.000003957              -0.000078676               1.000000000               0.000005631              -0.000088188               1.000000000               0.000007588              -0.000098637               1.000000000               0.000010035              -0.000110055               1.000000000               0.000012820              -0.000122343               1.000000000               0.000016038              -0.000135490               1.000000000               0.000019656              -0.000149568               1.000000000               0.000023560              -0.000164621               1.000000000               0.000027912              -0.000180712               1.000000000               0.000032680              -0.000197730               1.000000000              -0.000000670              -0.000053056               1.000000000              -0.000003243              -0.000050908               1.000000000              -0.000003676              -0.000051620               1.000000000              -0.000003085              -0.000054463               1.000000000              -0.000001977              -0.000059037               1.000000000              -0.000000566              -0.000065224               1.000000000               0.000001068              -0.000072681               1.000000000               0.000002634              -0.000081105               1.000000000               0.000004018              -0.000090293               1.000000000               0.000005419              -0.000100347               1.000000000               0.000007084              -0.000111304               1.000000000               0.000009033              -0.000123143               1.000000000               0.000011230              -0.000135723               1.000000000               0.000013708              -0.000149038               1.000000000               0.000016436              -0.000163202               1.000000000               0.000019365              -0.000178296               1.000000000               0.000022535              -0.000194224               1.000000000              -0.000000554              -0.000056050               1.000000000              -0.000002992              -0.000054562               1.000000000              -0.000003494              -0.000055349               1.000000000              -0.000003088              -0.000058048               1.000000000              -0.000002287              -0.000062420               1.000000000              -0.000001146              -0.000068247               1.000000000               0.000000193              -0.000075265               1.000000000               0.000001501              -0.000083296               1.000000000               0.000002659              -0.000092276               1.000000000               0.000003686              -0.000102109               1.000000000               0.000004769              -0.000112832               1.000000000               0.000006054              -0.000124332               1.000000000               0.000007439              -0.000136558               1.000000000               0.000008976              -0.000149438               1.000000000               0.000010686              -0.000162974               1.000000000               0.000012424              -0.000177192               1.000000000               0.000014275              -0.000192216               1.000000000              -0.000000441              -0.000058469               1.000000000              -0.000002481              -0.000057669               1.000000000              -0.000002987              -0.000058619               1.000000000              -0.000002793              -0.000061294               1.000000000              -0.000002185              -0.000065458               1.000000000              -0.000001343              -0.000070943               1.000000000              -0.000000395              -0.000077646               1.000000000               0.000000604              -0.000085404               1.000000000               0.000001546              -0.000094173               1.000000000               0.000002344              -0.000103834               1.000000000               0.000003022              -0.000114324               1.000000000               0.000003770              -0.000125557               1.000000000               0.000004579              -0.000137538               1.000000000               0.000005443              -0.000150184               1.000000000               0.000006366              -0.000163383               1.000000000               0.000007313              -0.000177112               1.000000000               0.000008228              -0.000191550               1.000000000              -0.000000310              -0.000060274               1.000000000              -0.000001786              -0.000060075               1.000000000              -0.000002200              -0.000061209               1.000000000              -0.000002099              -0.000063848               1.000000000              -0.000001699              -0.000067874               1.000000000              -0.000001217              -0.000073171               1.000000000              -0.000000592              -0.000079617               1.000000000               0.000000117              -0.000087188               1.000000000               0.000000774              -0.000095775               1.000000000               0.000001292              -0.000105248               1.000000000               0.000001688              -0.000115507               1.000000000               0.000002089              -0.000126543               1.000000000               0.000002534              -0.000138388               1.000000000               0.000002983              -0.000150851               1.000000000               0.000003418              -0.000163844               1.000000000               0.000003882              -0.000177358               1.000000000               0.000004277              -0.000191451               1.000000000              -0.000000167              -0.000061394               1.000000000              -0.000000941              -0.000061584               1.000000000              -0.000001163              -0.000062856               1.000000000              -0.000001110              -0.000065505               1.000000000              -0.000000970              -0.000069449               1.000000000              -0.000000707              -0.000074635               1.000000000              -0.000000383              -0.000080958               1.000000000              -0.000000043              -0.000088379               1.000000000               0.000000282              -0.000096771               1.000000000               0.000000538              -0.000106087               1.000000000               0.000000733              -0.000116243               1.000000000               0.000000917              -0.000127161               1.000000000               0.000001109              -0.000138844               1.000000000               0.000001290              -0.000151138               1.000000000               0.000001470              -0.000163988               1.000000000               0.000001669              -0.000177396               1.000000000               0.000001837              -0.000191310               1.000000000              -0.000000000              -0.000061750               1.000000000              -0.000000000              -0.000062070               1.000000000               0.000000000              -0.000063423               1.000000000              -0.000000000              -0.000066107               1.000000000              -0.000000000              -0.000069986               1.000000000               0.000000000              -0.000075136               1.000000000               0.000000000              -0.000081443               1.000000000              -0.000000000              -0.000088786               1.000000000              -0.000000000              -0.000097134               1.000000000              -0.000000000              -0.000106413               1.000000000              -0.000000000              -0.000116479               1.000000000              -0.000000000              -0.000127318               1.000000000              -0.000000000              -0.000138948               1.000000000               0.000000000              -0.000151185               1.000000000               0.000000000              -0.000163976               1.000000000               0.000000000              -0.000177346               1.000000000               0.000000000              -0.000191207               1.000000000              -0.000003790              -0.000000000               1.000000000              -0.000001472              -0.000000000               1.000000000              -0.000000440               0.000000000               1.000000000              -0.000000033              -0.000000000               1.000000000               0.000000128              -0.000000000               1.000000000               0.000000177              -0.000000000               1.000000000               0.000000204               0.000000000               1.000000000               0.000000184               0.000000000               1.000000000               0.000000059               0.000000000               1.000000000              -0.000000095               0.000000000               1.000000000              -0.000000206              -0.000000000               1.000000000              -0.000000243              -0.000000000               1.000000000              -0.000000073              -0.000000000               1.000000000               0.000000416              -0.000000000               1.000000000               0.000001276              -0.000000000               1.000000000               0.000002607              -0.000000000               1.000000000               0.000004475              -0.000000000               1.000000000              -0.000003667               0.000005712               1.000000000              -0.000001457               0.000005323               1.000000000              -0.000000506               0.000005297               1.000000000              -0.000000076               0.000005589               1.000000000               0.000000081               0.000006009               1.000000000               0.000000129               0.000006636               1.000000000               0.000000193               0.000007253               1.000000000               0.000000280               0.000007832               1.000000000               0.000000280               0.000008209               1.000000000               0.000000203               0.000008673               1.000000000               0.000000233               0.000009300               1.000000000               0.000000456               0.000010056               1.000000000               0.000000905               0.000011066               1.000000000               0.000001685               0.000012318               1.000000000               0.000002857               0.000013807               1.000000000               0.000004445               0.000015552               1.000000000               0.000006496               0.000017570               1.000000000              -0.000003505               0.000011427               1.000000000              -0.000001476               0.000010538               1.000000000              -0.000000598               0.000010573               1.000000000              -0.000000209               0.000011133               1.000000000              -0.000000059               0.000012038               1.000000000               0.000000084               0.000013248               1.000000000               0.000000247               0.000014578               1.000000000               0.000000438               0.000015793               1.000000000               0.000000670               0.000016661               1.000000000               0.000001023               0.000017739               1.000000000               0.000001564               0.000019084               1.000000000               0.000002306               0.000020702               1.000000000               0.000003326               0.000022755               1.000000000               0.000004703               0.000025229               1.000000000               0.000006453               0.000028140               1.000000000               0.000008588               0.000031490               1.000000000               0.000011157               0.000035252               1.000000000              -0.000003253               0.000017037               1.000000000              -0.000001496               0.000015629               1.000000000              -0.000000756               0.000015726               1.000000000              -0.000000428               0.000016593               1.000000000              -0.000000203               0.000018036               1.000000000               0.000000056               0.000019921               1.000000000               0.000000417               0.000021994               1.000000000               0.000000866               0.000023871               1.000000000               0.000001444               0.000025491               1.000000000               0.000002224               0.000027479               1.000000000               0.000003272               0.000029793               1.000000000               0.000004722               0.000032484               1.000000000               0.000006583               0.000035720               1.000000000               0.000008851               0.000039492               1.000000000               0.000011544               0.000043849               1.000000000               0.000014602               0.000048807               1.000000000               0.000018061               0.000054400               1.000000000              -0.000002857               0.000022446               1.000000000              -0.000001599               0.000020565               1.000000000              -0.000001033               0.000020779               1.000000000              -0.000000681               0.000022005               1.000000000              -0.000000348               0.000024040               1.000000000               0.000000146               0.000026659               1.000000000               0.000000844               0.000029502               1.000000000               0.000001583               0.000032226               1.000000000               0.000002538               0.000034863               1.000000000               0.000003844               0.000038015               1.000000000               0.000005608               0.000041678               1.000000000               0.000007875               0.000045844               1.000000000               0.000010616               0.000050643               1.000000000               0.000013877               0.000056088               1.000000000               0.000017596               0.000062223               1.000000000               0.000021715               0.000069101               1.000000000               0.000026252               0.000076725               1.000000000              -0.000002478               0.000027686               1.000000000              -0.000001759               0.000025300               1.000000000              -0.000001350               0.000025696               1.000000000              -0.000001009               0.000027391               1.000000000              -0.000000415               0.000030131               1.000000000               0.000000454               0.000033496               1.000000000               0.000001478               0.000037301               1.000000000               0.000002716               0.000040972               1.000000000               0.000004238               0.000044961               1.000000000               0.000006124               0.000049687               1.000000000               0.000008539               0.000055132               1.000000000               0.000011535               0.000061257               1.000000000               0.000015129               0.000068147               1.000000000               0.000019285               0.000075825               1.000000000               0.000023928               0.000084266               1.000000000               0.000029029               0.000093496               1.000000000               0.000034576               0.000103493               1.000000000              -0.000002088               0.000032697               1.000000000              -0.000002002               0.000029831               1.000000000              -0.000001797               0.000030497               1.000000000              -0.000001302               0.000032781               1.000000000              -0.000000385               0.000036339               1.000000000               0.000000878               0.000040692               1.000000000               0.000002420               0.000045508               1.000000000               0.000004049               0.000050669               1.000000000               0.000005981               0.000056385               1.000000000               0.000008462               0.000063153               1.000000000               0.000011603               0.000070767               1.000000000               0.000015374               0.000079239               1.000000000               0.000019786               0.000088625               1.000000000               0.000024771               0.000098871               1.000000000               0.000030239               0.000109998               1.000000000               0.000036242               0.000121895               1.000000000               0.000042733               0.000134548               1.000000000              -0.000001709               0.000037374               1.000000000              -0.000002401               0.000034210               1.000000000              -0.000002257               0.000035208               1.000000000              -0.000001520               0.000038238               1.000000000              -0.000000210               0.000042724               1.000000000               0.000001464               0.000048306               1.000000000               0.000003254               0.000054710               1.000000000               0.000005243               0.000061700               1.000000000               0.000007707               0.000069507               1.000000000               0.000010847               0.000078640               1.000000000               0.000014709               0.000088741               1.000000000               0.000019259               0.000099788               1.000000000               0.000024415               0.000111924               1.000000000               0.000030118               0.000125008               1.000000000               0.000036361               0.000138985               1.000000000               0.000043193               0.000153846               1.000000000               0.000050467               0.000169365               1.000000000              -0.000001398               0.000041663               1.000000000              -0.000002851               0.000038431               1.000000000              -0.000002649               0.000039854               1.000000000              -0.000001625               0.000043729               1.000000000               0.000000064               0.000049457               1.000000000               0.000002053               0.000056575               1.000000000               0.000004209               0.000064804               1.000000000               0.000006616               0.000073872               1.000000000               0.000009526               0.000084209               1.000000000               0.000013285               0.000095904               1.000000000               0.000017759               0.000108681               1.000000000               0.000022912               0.000122579               1.000000000               0.000028655               0.000137707               1.000000000               0.000034953               0.000153994               1.000000000               0.000041885               0.000171295               1.000000000               0.000049257               0.000189503               1.000000000               0.000056908               0.000208456               1.000000000              -0.000001106               0.000045795               1.000000000              -0.000003122               0.000042728               1.000000000              -0.000003176               0.000043726               1.000000000              -0.000002273               0.000047155               1.000000000              -0.000000754               0.000052482               1.000000000               0.000001129               0.000059293               1.000000000               0.000003242               0.000067326               1.000000000               0.000005243               0.000076276               1.000000000               0.000007436               0.000086125               1.000000000               0.000010219               0.000097086               1.000000000               0.000013657               0.000109113               1.000000000               0.000017510               0.000122088               1.000000000               0.000021885               0.000136111               1.000000000               0.000026748               0.000151220               1.000000000               0.000032061               0.000167466               1.000000000               0.000037881               0.000184638               1.000000000               0.000044145               0.000202826               1.000000000              -0.000000864               0.000049625               1.000000000              -0.000003266               0.000046919               1.000000000              -0.000003536               0.000047667               1.000000000              -0.000002803               0.000050780               1.000000000              -0.000001465               0.000055692               1.000000000               0.000000272               0.000062172               1.000000000               0.000002144               0.000069966               1.000000000               0.000003957               0.000078676               1.000000000               0.000005631               0.000088188               1.000000000               0.000007588               0.000098637               1.000000000               0.000010035               0.000110055               1.000000000               0.000012820               0.000122343               1.000000000               0.000016038               0.000135490               1.000000000               0.000019656               0.000149568               1.000000000               0.000023560               0.000164621               1.000000000               0.000027912               0.000180712               1.000000000               0.000032680               0.000197730               1.000000000              -0.000000670               0.000053056               1.000000000              -0.000003243               0.000050908               1.000000000              -0.000003676               0.000051620               1.000000000              -0.000003085               0.000054463               1.000000000              -0.000001977               0.000059037               1.000000000              -0.000000566               0.000065224               1.000000000               0.000001068               0.000072681               1.000000000               0.000002634               0.000081105               1.000000000               0.000004018               0.000090293               1.000000000               0.000005419               0.000100347               1.000000000               0.000007084               0.000111304               1.000000000               0.000009033               0.000123143               1.000000000               0.000011230               0.000135723               1.000000000               0.000013708               0.000149038               1.000000000               0.000016436               0.000163202               1.000000000               0.000019365               0.000178296               1.000000000               0.000022535               0.000194224               1.000000000              -0.000000554               0.000056050               1.000000000              -0.000002992               0.000054562               1.000000000              -0.000003494               0.000055349               1.000000000              -0.000003088               0.000058048               1.000000000              -0.000002287               0.000062420               1.000000000              -0.000001146               0.000068247               1.000000000               0.000000193               0.000075265               1.000000000               0.000001501               0.000083296               1.000000000               0.000002659               0.000092276               1.000000000               0.000003686               0.000102109               1.000000000               0.000004769               0.000112832               1.000000000               0.000006054               0.000124332               1.000000000               0.000007439               0.000136558               1.000000000               0.000008976               0.000149438               1.000000000               0.000010686               0.000162974               1.000000000               0.000012424               0.000177192               1.000000000               0.000014275               0.000192216               1.000000000              -0.000000441               0.000058469               1.000000000              -0.000002481               0.000057669               1.000000000              -0.000002987               0.000058619               1.000000000              -0.000002793               0.000061294               1.000000000              -0.000002185               0.000065458               1.000000000              -0.000001343               0.000070943               1.000000000              -0.000000395               0.000077646               1.000000000               0.000000604               0.000085404               1.000000000               0.000001546               0.000094173               1.000000000               0.000002344               0.000103834               1.000000000               0.000003022               0.000114324               1.000000000               0.000003770               0.000125557               1.000000000               0.000004579               0.000137538               1.000000000               0.000005443               0.000150184               1.000000000               0.000006366               0.000163383               1.000000000               0.000007313               0.000177112               1.000000000               0.000008228               0.000191550               1.000000000              -0.000000310               0.000060274               1.000000000              -0.000001786               0.000060075               1.000000000              -0.000002200               0.000061209               1.000000000              -0.000002099               0.000063848               1.000000000              -0.000001699               0.000067874               1.000000000              -0.000001217               0.000073171               1.000000000              -0.000000592               0.000079617               1.000000000               0.000000117               0.000087188               1.000000000               0.000000774               0.000095775               1.000000000               0.000001292               0.000105248               1.000000000               0.000001688               0.000115507               1.000000000               0.000002089               0.000126543               1.000000000               0.000002534               0.000138388               1.000000000               0.000002983               0.000150851               1.000000000               0.000003418               0.000163844               1.000000000               0.000003882               0.000177358               1.000000000               0.000004277               0.000191451               1.000000000              -0.000000167               0.000061394               1.000000000              -0.000000941               0.000061584               1.000000000              -0.000001163               0.000062856               1.000000000              -0.000001110               0.000065505               1.000000000              -0.000000970               0.000069449               1.000000000              -0.000000707               0.000074635               1.000000000              -0.000000383               0.000080958               1.000000000              -0.000000043               0.000088379               1.000000000               0.000000282               0.000096771               1.000000000               0.000000538               0.000106087               1.000000000               0.000000733               0.000116243               1.000000000               0.000000917               0.000127161               1.000000000               0.000001109               0.000138844               1.000000000               0.000001290               0.000151138               1.000000000               0.000001470               0.000163988               1.000000000               0.000001669               0.000177396               1.000000000               0.000001837               0.000191310               1.000000000               0.000000000               0.000061750               1.000000000               0.000000000               0.000062070               1.000000000               0.000000000               0.000063423               1.000000000               0.000000000               0.000066107               1.000000000              -0.000000000               0.000069986               1.000000000              -0.000000000               0.000075136               1.000000000               0.000000000               0.000081443               1.000000000               0.000000000               0.000088786               1.000000000              -0.000000000               0.000097134               1.000000000              -0.000000000               0.000106413               1.000000000              -0.000000000               0.000116479               1.000000000              -0.000000000               0.000127318               1.000000000              -0.000000000               0.000138948               1.000000000               0.000000000               0.000151185               1.000000000               0.000000000               0.000163976               1.000000000               0.000000000               0.000177346               1.000000000              -0.000000000               0.000191207               1.000000000 </DataArray>
<DataArray type="Float64"                                    Name="stress"                                                      NumberOfComponents="10" format="ascii">
              0.000098999               0.001088537               0.000000000              -0.000098942               0.000395823               0.000296881               0.000000000               0.000000000               0.000000000               0.000000000               0.000124158               0.000929787               0.000000000              -0.000069664               0.000333147               0.000263483               0.000000000               0.000000000               0.000000000               0.000000000               0.000187096               0.000803881               0.000000000              -0.000030324               0.000278066               0.000247742               0.000000000               0.000000000               0.000000000               0.000000000               0.000214307               0.000741664               0.000000000              -0.000012343               0.000251333               0.000238990               0.000000000               0.000000000               0.000000000               0.000000000               0.000224342               0.000709100               0.000000000              -0.000004509               0.000237867               0.000233358               0.000000000               0.000000000               0.000000000               0.000000000               0.000226913               0.000696514               0.000000000              -0.000001972               0.000232826               0.000230854               0.000000000               0.000000000               0.000000000               0.000000000               0.000225889               0.000687071               0.000000000              -0.000001175               0.000229413               0.000228238               0.000000000               0.000000000               0.000000000               0.000000000               0.000229864               0.000676227              -0.000000000               0.000001671               0.000224850               0.000226521               0.000000000               0.000000000               0.000000000               0.000000000               0.000232359               0.000657996               0.000000000               0.000004885               0.000217702               0.000222587               0.000000000               0.000000000               0.000000000               0.000000000               0.000226399               0.000643267               0.000000000               0.000004491               0.000212923               0.000217414               0.000000000               0.000000000               0.000000000               0.000000000               0.000214280               0.000637020              -0.000000000               0.000000727               0.000212096               0.000212823               0.000000000               0.000000000               0.000000000               0.000000000               0.000195967               0.000637792               0.000000000              -0.000006236               0.000214674               0.000208438               0.000000000               0.000000000               0.000000000               0.000000000               0.000168266               0.000646912               0.000000000              -0.000017764               0.000221556               0.000203792               0.000000000               0.000000000               0.000000000               0.000000000               0.000133611               0.000663717              -0.000000000              -0.000032860               0.000232190               0.000199330               0.000000000               0.000000000               0.000000000               0.000000000               0.000093555               0.000687020              -0.000000000              -0.000050794               0.000245936               0.000195142               0.000000000               0.000000000               0.000000000               0.000000000               0.000047476               0.000715990              -0.000000000              -0.000071695               0.000262559               0.000190864               0.000000000               0.000000000               0.000000000               0.000000000               0.000027063               0.000742071               0.000000000              -0.000082610               0.000274891               0.000192281               0.000000000               0.000000000               0.000000000               0.000000000               0.000109994               0.001076759              -0.000085094              -0.000093347               0.000390032               0.000296685               0.000000000               0.000000000               0.000000000               0.000000000               0.000130180               0.000918172              -0.000058195              -0.000065954               0.000328039               0.000262085               0.000000000               0.000000000               0.000000000               0.000000000               0.000187618               0.000798572              -0.000028950              -0.000029465               0.000276010               0.000246545               0.000000000               0.000000000               0.000000000               0.000000000               0.000212063               0.000738370              -0.000014564              -0.000012773               0.000250378               0.000237606               0.000000000               0.000000000               0.000000000               0.000000000               0.000222413               0.000708763              -0.000005874              -0.000005190               0.000237982               0.000232792               0.000000000               0.000000000               0.000000000               0.000000000               0.000223431               0.000695895              -0.000002706              -0.000003200               0.000233029               0.000229829               0.000000000               0.000000000               0.000000000               0.000000000               0.000220628               0.000688575              -0.000005533              -0.000003336               0.000230635               0.000227298               0.000000000               0.000000000               0.000000000               0.000000000               0.000222037               0.000679107              -0.000013416              -0.000001625               0.000226908               0.000225284               0.000000000               0.000000000               0.000000000               0.000000000               0.000224852               0.000664332              -0.000019014               0.000001278               0.000221016               0.000222294               0.000000000               0.000000000               0.000000000               0.000000000               0.000219227               0.000653598              -0.000018821               0.000000510               0.000217694               0.000218204               0.000000000               0.000000000               0.000000000               0.000000000               0.000203781               0.000648643              -0.000019175              -0.000004663               0.000217766               0.000213104               0.000000000               0.000000000               0.000000000               0.000000000               0.000183547               0.000650505              -0.000018359              -0.000012483               0.000220994               0.000208511               0.000000000               0.000000000               0.000000000               0.000000000               0.000156427               0.000659753              -0.000015781              -0.000023809               0.000227852               0.000204043               0.000000000               0.000000000               0.000000000               0.000000000               0.000122334               0.000675129              -0.000013395              -0.000038516               0.000237879               0.000199363               0.000000000               0.000000000               0.000000000               0.000000000               0.000085007               0.000696708              -0.000010255              -0.000055211               0.000250637               0.000195427               0.000000000               0.000000000               0.000000000               0.000000000               0.000043884               0.000723152              -0.000005764              -0.000073937               0.000265694               0.000191757               0.000000000               0.000000000               0.000000000               0.000000000               0.000025617               0.000746076              -0.000004033              -0.000083653               0.000276574               0.000192921               0.000000000               0.000000000               0.000000000               0.000000000               0.000129977               0.001033815              -0.000161789              -0.000080485               0.000371430               0.000290945               0.000000000               0.000000000               0.000000000               0.000000000               0.000139257               0.000884006              -0.000110309              -0.000058279               0.000314092               0.000255813               0.000000000               0.000000000               0.000000000               0.000000000               0.000187117               0.000780211              -0.000055571              -0.000027358               0.000269187               0.000241829               0.000000000               0.000000000               0.000000000               0.000000000               0.000207187               0.000728314              -0.000027792              -0.000013344               0.000247217               0.000233873               0.000000000               0.000000000               0.000000000               0.000000000               0.000214181               0.000705771              -0.000012683              -0.000007904               0.000237889               0.000229986               0.000000000               0.000000000               0.000000000               0.000000000               0.000213066               0.000696748              -0.000006915              -0.000007194               0.000234645               0.000227451               0.000000000               0.000000000               0.000000000               0.000000000               0.000211538               0.000693799              -0.000011682              -0.000007398               0.000233730               0.000226332               0.000000000               0.000000000               0.000000000               0.000000000               0.000209025               0.000686818              -0.000025595              -0.000007468               0.000231426               0.000223959               0.000000000               0.000000000               0.000000000               0.000000000               0.000204073               0.000680282              -0.000033953              -0.000008508               0.000229594               0.000221087               0.000000000               0.000000000               0.000000000               0.000000000               0.000193795               0.000680329              -0.000033216              -0.000012368               0.000230897               0.000218529               0.000000000               0.000000000               0.000000000               0.000000000               0.000177728               0.000683789              -0.000032823              -0.000018826               0.000234203               0.000215377               0.000000000               0.000000000               0.000000000               0.000000000               0.000157883               0.000691593              -0.000030128              -0.000027243               0.000239610               0.000212367               0.000000000               0.000000000               0.000000000               0.000000000               0.000132221               0.000703077              -0.000025255              -0.000038302               0.000247124               0.000208822               0.000000000               0.000000000               0.000000000               0.000000000               0.000101980               0.000718024              -0.000020193              -0.000051511               0.000256509               0.000204998               0.000000000               0.000000000               0.000000000               0.000000000               0.000071231               0.000737816              -0.000014061              -0.000065515               0.000267775               0.000202260               0.000000000               0.000000000               0.000000000               0.000000000               0.000037788               0.000761146              -0.000007064              -0.000080972               0.000280703               0.000199731               0.000000000               0.000000000               0.000000000               0.000000000               0.000023420               0.000781187              -0.000005232              -0.000088866               0.000290015               0.000201149               0.000000000               0.000000000               0.000000000               0.000000000               0.000157207               0.000960699              -0.000226748              -0.000061135               0.000340608               0.000279473               0.000000000               0.000000000               0.000000000               0.000000000               0.000151215               0.000833997              -0.000152524              -0.000047544               0.000293844               0.000246300               0.000000000               0.000000000               0.000000000               0.000000000               0.000184385               0.000754028              -0.000075854              -0.000025109               0.000259710               0.000234601               0.000000000               0.000000000               0.000000000               0.000000000               0.000197748               0.000715765              -0.000039072              -0.000015315               0.000243691               0.000228376               0.000000000               0.000000000               0.000000000               0.000000000               0.000201068               0.000702840              -0.000019331              -0.000012455               0.000238429               0.000225975               0.000000000               0.000000000               0.000000000               0.000000000               0.000198850               0.000700836              -0.000012684              -0.000013036               0.000237955               0.000224919               0.000000000               0.000000000               0.000000000               0.000000000               0.000197408               0.000700963              -0.000020551              -0.000013592               0.000238183               0.000224590               0.000000000               0.000000000               0.000000000               0.000000000               0.000193807               0.000700955              -0.000037099              -0.000014942               0.000238630               0.000223688               0.000000000               0.000000000               0.000000000               0.000000000               0.000185678               0.000708831              -0.000044191              -0.000018975               0.000242600               0.000223625               0.000000000               0.000000000               0.000000000               0.000000000               0.000172881               0.000724193              -0.000041928              -0.000025694               0.000249960               0.000224266               0.000000000               0.000000000               0.000000000               0.000000000               0.000152678               0.000741545              -0.000041695              -0.000035439               0.000258992               0.000223553               0.000000000               0.000000000               0.000000000               0.000000000               0.000128102               0.000760606              -0.000039091              -0.000047038               0.000269212               0.000222175               0.000000000               0.000000000               0.000000000               0.000000000               0.000102530               0.000781236              -0.000033849              -0.000059206               0.000280145               0.000220939               0.000000000               0.000000000               0.000000000               0.000000000               0.000075913               0.000803299              -0.000027827              -0.000071945               0.000291745               0.000219800               0.000000000               0.000000000               0.000000000               0.000000000               0.000052005               0.000828507              -0.000019974              -0.000084061               0.000304187               0.000220125               0.000000000               0.000000000               0.000000000               0.000000000               0.000028463               0.000856647              -0.000010518              -0.000096407               0.000317682               0.000221275               0.000000000               0.000000000               0.000000000               0.000000000               0.000020189               0.000879188              -0.000008054              -0.000102327               0.000327169               0.000224842               0.000000000               0.000000000               0.000000000               0.000000000               0.000192015               0.000873655              -0.000269812              -0.000037202               0.000303616               0.000266414               0.000000000               0.000000000               0.000000000               0.000000000               0.000165939               0.000774465              -0.000180838              -0.000034581               0.000269680               0.000235098               0.000000000               0.000000000               0.000000000               0.000000000               0.000178049               0.000725415              -0.000090653              -0.000023909               0.000249772               0.000225863               0.000000000               0.000000000               0.000000000               0.000000000               0.000183529               0.000706125              -0.000048596              -0.000019442               0.000241853               0.000222411               0.000000000               0.000000000               0.000000000               0.000000000               0.000184723               0.000705596              -0.000027460              -0.000018928               0.000241506               0.000222577               0.000000000               0.000000000               0.000000000               0.000000000               0.000181869               0.000709540              -0.000021779              -0.000020491               0.000243341               0.000222850               0.000000000               0.000000000               0.000000000               0.000000000               0.000184251               0.000718159              -0.000030891              -0.000020676               0.000246276               0.000225600               0.000000000               0.000000000               0.000000000               0.000000000               0.000185564               0.000730309              -0.000046788              -0.000021702               0.000250668               0.000228966               0.000000000               0.000000000               0.000000000               0.000000000               0.000178243               0.000756042              -0.000052426              -0.000027664               0.000261233               0.000233569               0.000000000               0.000000000               0.000000000               0.000000000               0.000161458               0.000788968              -0.000049290              -0.000038074               0.000275678               0.000237604               0.000000000               0.000000000               0.000000000               0.000000000               0.000137243               0.000824561              -0.000048500              -0.000051604               0.000292052               0.000240448               0.000000000               0.000000000               0.000000000               0.000000000               0.000111627               0.000862195              -0.000045770              -0.000065914               0.000309367               0.000243453               0.000000000               0.000000000               0.000000000               0.000000000               0.000085604               0.000899934              -0.000040251              -0.000080390               0.000326772               0.000246382               0.000000000               0.000000000               0.000000000               0.000000000               0.000060809               0.000937920              -0.000033410              -0.000094436               0.000344116               0.000249679               0.000000000               0.000000000               0.000000000               0.000000000               0.000040892               0.000976373              -0.000023902              -0.000106712               0.000361025               0.000254313               0.000000000               0.000000000               0.000000000               0.000000000               0.000021717               0.001013670              -0.000012461              -0.000118564               0.000377408               0.000258844               0.000000000               0.000000000               0.000000000               0.000000000               0.000016522               0.001039857              -0.000009490              -0.000123786               0.000387878               0.000264091               0.000000000               0.000000000               0.000000000               0.000000000               0.000218799               0.000776875              -0.000293314              -0.000015060               0.000263976               0.000248916               0.000000000               0.000000000               0.000000000               0.000000000               0.000175349               0.000709196              -0.000196923              -0.000022894               0.000244027               0.000221134               0.000000000               0.000000000               0.000000000               0.000000000               0.000168886               0.000697636              -0.000099357              -0.000023872               0.000240500               0.000216628               0.000000000               0.000000000               0.000000000               0.000000000               0.000166875               0.000701516              -0.000056736              -0.000025112               0.000242207               0.000217095               0.000000000               0.000000000               0.000000000               0.000000000               0.000165219               0.000716455              -0.000037927              -0.000027600               0.000248016               0.000220416               0.000000000               0.000000000               0.000000000               0.000000000               0.000168550               0.000733986              -0.000033100              -0.000028542               0.000254174               0.000225632               0.000000000               0.000000000               0.000000000               0.000000000               0.000176423               0.000755254              -0.000042065              -0.000028248               0.000261165               0.000232917               0.000000000               0.000000000               0.000000000               0.000000000               0.000180681               0.000788026              -0.000055161              -0.000030748               0.000272922               0.000242174               0.000000000               0.000000000               0.000000000               0.000000000               0.000177349               0.000837080              -0.000055875              -0.000038129               0.000291733               0.000253605               0.000000000               0.000000000               0.000000000               0.000000000               0.000163043               0.000892497              -0.000051453              -0.000050421               0.000314303               0.000263882               0.000000000               0.000000000               0.000000000               0.000000000               0.000139130               0.000946280              -0.000049385              -0.000066111               0.000337460               0.000271349               0.000000000               0.000000000               0.000000000               0.000000000               0.000112183               0.000999776              -0.000045890              -0.000082903               0.000360890               0.000277987               0.000000000               0.000000000               0.000000000               0.000000000               0.000085454               0.001052492              -0.000039903              -0.000099516               0.000383999               0.000284483               0.000000000               0.000000000               0.000000000               0.000000000               0.000062350               0.001103932              -0.000032236              -0.000114610               0.000406177               0.000291567               0.000000000               0.000000000               0.000000000               0.000000000               0.000042027               0.001152915              -0.000022756              -0.000128354               0.000427086               0.000298732               0.000000000               0.000000000               0.000000000               0.000000000               0.000021235               0.001196290              -0.000011843              -0.000141573               0.000445950               0.000304378               0.000000000               0.000000000               0.000000000               0.000000000               0.000016125               0.001225062              -0.000009345              -0.000147085               0.000457378               0.000310293               0.000000000               0.000000000               0.000000000               0.000000000               0.000236900               0.000673696              -0.000297784               0.000004625               0.000223021               0.000227646               0.000000000               0.000000000               0.000000000               0.000000000               0.000178819               0.000646669              -0.000200993              -0.000013777               0.000220146               0.000206370               0.000000000               0.000000000               0.000000000               0.000000000               0.000156315               0.000676724              -0.000104649              -0.000025972               0.000234230               0.000208258               0.000000000               0.000000000               0.000000000               0.000000000               0.000151435               0.000706152              -0.000066185              -0.000031481               0.000245875               0.000214395               0.000000000               0.000000000               0.000000000               0.000000000               0.000152393               0.000739926              -0.000048543              -0.000035343               0.000258421               0.000223077               0.000000000               0.000000000               0.000000000               0.000000000               0.000160859               0.000779253              -0.000044836              -0.000037084               0.000272110               0.000235025               0.000000000               0.000000000               0.000000000               0.000000000               0.000176510               0.000826990              -0.000050078              -0.000037182               0.000288055               0.000250872               0.000000000               0.000000000               0.000000000               0.000000000               0.000188775               0.000888739              -0.000057293              -0.000040302               0.000309677               0.000269376               0.000000000               0.000000000               0.000000000               0.000000000               0.000184429               0.000957691              -0.000054496              -0.000050550               0.000336077               0.000285527               0.000000000               0.000000000               0.000000000               0.000000000               0.000167323               0.001028507              -0.000049893              -0.000065817               0.000364771               0.000298954               0.000000000               0.000000000               0.000000000               0.000000000               0.000144092               0.001093849              -0.000048653              -0.000082696               0.000392178               0.000309482               0.000000000               0.000000000               0.000000000               0.000000000               0.000119049               0.001155798              -0.000044152              -0.000099831               0.000418539               0.000318708               0.000000000               0.000000000               0.000000000               0.000000000               0.000093502               0.001215504              -0.000037104              -0.000116875               0.000444122               0.000327248               0.000000000               0.000000000               0.000000000               0.000000000               0.000070973               0.001271714              -0.000028352              -0.000132349               0.000468017               0.000335668               0.000000000               0.000000000               0.000000000               0.000000000               0.000047098               0.001322472              -0.000018878              -0.000147647               0.000490035               0.000342388               0.000000000               0.000000000               0.000000000               0.000000000               0.000021908               0.001367197              -0.000010063              -0.000162684               0.000509956               0.000347272               0.000000000               0.000000000               0.000000000               0.000000000               0.000015038               0.001396244              -0.000008572              -0.000168891               0.000521707               0.000352816               0.000000000               0.000000000               0.000000000               0.000000000               0.000247497               0.000575670              -0.000282165               0.000020852               0.000184937               0.000205789               0.000000000               0.000000000               0.000000000               0.000000000               0.000178591               0.000592450              -0.000197183              -0.000007085               0.000199843               0.000192758               0.000000000               0.000000000               0.000000000               0.000000000               0.000146159               0.000665210              -0.000111277              -0.000028342               0.000231182               0.000202840               0.000000000               0.000000000               0.000000000               0.000000000               0.000142023               0.000721675              -0.000076430              -0.000036951               0.000252873               0.000215922               0.000000000               0.000000000               0.000000000               0.000000000               0.000149931               0.000782066              -0.000059499              -0.000041534               0.000274531               0.000232997               0.000000000               0.000000000               0.000000000               0.000000000               0.000170707               0.000850690              -0.000052445              -0.000042321               0.000297668               0.000255347               0.000000000               0.000000000               0.000000000               0.000000000               0.000194540               0.000926776              -0.000054322              -0.000042894               0.000323220               0.000280326               0.000000000               0.000000000               0.000000000               0.000000000               0.000205833               0.001006363              -0.000058866              -0.000048608               0.000351654               0.000303046               0.000000000               0.000000000               0.000000000               0.000000000               0.000197356               0.001090833              -0.000055330              -0.000062345               0.000384389               0.000322044               0.000000000               0.000000000               0.000000000               0.000000000               0.000176290               0.001168770              -0.000050269              -0.000079987               0.000416249               0.000336261               0.000000000               0.000000000               0.000000000               0.000000000               0.000150105               0.001237869              -0.000048152              -0.000098444               0.000445434               0.000346990               0.000000000               0.000000000               0.000000000               0.000000000               0.000124421               0.001303557              -0.000040868              -0.000116287               0.000473277               0.000356990               0.000000000               0.000000000               0.000000000               0.000000000               0.000100274               0.001367359              -0.000030786              -0.000133317               0.000500221               0.000366904               0.000000000               0.000000000               0.000000000               0.000000000               0.000075563               0.001427882              -0.000021960              -0.000150149               0.000526005               0.000375857               0.000000000               0.000000000               0.000000000               0.000000000               0.000048065               0.001482524              -0.000013216              -0.000167291               0.000549933               0.000382642               0.000000000               0.000000000               0.000000000               0.000000000               0.000021967               0.001532370              -0.000005670              -0.000183308               0.000571887               0.000388579               0.000000000               0.000000000               0.000000000               0.000000000               0.000014347               0.001565383              -0.000005574              -0.000190292               0.000585220               0.000394928               0.000000000               0.000000000               0.000000000               0.000000000               0.000250619               0.000493089              -0.000257337               0.000032346               0.000153579               0.000185925               0.000000000               0.000000000               0.000000000               0.000000000               0.000180035               0.000546831              -0.000191921              -0.000000841               0.000182556               0.000181714               0.000000000               0.000000000               0.000000000               0.000000000               0.000141456               0.000658362              -0.000121169              -0.000029249               0.000229201               0.000199952               0.000000000               0.000000000               0.000000000               0.000000000               0.000141941               0.000742321              -0.000087704              -0.000039562               0.000260625               0.000221063               0.000000000               0.000000000               0.000000000               0.000000000               0.000158173               0.000829586              -0.000069554              -0.000044383               0.000291320               0.000246937               0.000000000               0.000000000               0.000000000               0.000000000               0.000187074               0.000919623              -0.000060042              -0.000044800               0.000321471               0.000276671               0.000000000               0.000000000               0.000000000               0.000000000               0.000217119               0.001008151              -0.000058754              -0.000044599               0.000350914               0.000306314               0.000000000               0.000000000               0.000000000               0.000000000               0.000228874               0.001098307              -0.000057767              -0.000051461               0.000383252               0.000331792               0.000000000               0.000000000               0.000000000               0.000000000               0.000217474               0.001190396              -0.000053386              -0.000067247               0.000419210               0.000351963               0.000000000               0.000000000               0.000000000               0.000000000               0.000192863               0.001268663              -0.000048906              -0.000086259               0.000451636               0.000365377               0.000000000               0.000000000               0.000000000               0.000000000               0.000166719               0.001338653              -0.000044073              -0.000104812               0.000481151               0.000376339               0.000000000               0.000000000               0.000000000               0.000000000               0.000139612               0.001408832              -0.000034238              -0.000123749               0.000510856               0.000387106               0.000000000               0.000000000               0.000000000               0.000000000               0.000114873               0.001479421              -0.000022275              -0.000141850               0.000540419               0.000398569               0.000000000               0.000000000               0.000000000               0.000000000               0.000089320               0.001547876              -0.000012973              -0.000159989               0.000569283               0.000409294               0.000000000               0.000000000               0.000000000               0.000000000               0.000064199               0.001613219              -0.000005781              -0.000177577               0.000596927               0.000419349               0.000000000               0.000000000               0.000000000               0.000000000               0.000045460               0.001675719               0.000000825              -0.000192417               0.000622706               0.000430290               0.000000000               0.000000000               0.000000000               0.000000000               0.000037669               0.001711796               0.000002543              -0.000199848               0.000637209               0.000437361               0.000000000               0.000000000               0.000000000               0.000000000               0.000245828               0.000409591              -0.000231735               0.000040986               0.000122867               0.000163853               0.000000000               0.000000000               0.000000000               0.000000000               0.000182462               0.000486641              -0.000188205               0.000007593               0.000159681               0.000167274               0.000000000               0.000000000               0.000000000               0.000000000               0.000145794               0.000628154              -0.000137432              -0.000023846               0.000217331               0.000193485               0.000000000               0.000000000               0.000000000               0.000000000               0.000151559               0.000738715              -0.000107594              -0.000035505               0.000258071               0.000222566               0.000000000               0.000000000               0.000000000               0.000000000               0.000171833               0.000844328              -0.000088352              -0.000041104               0.000295141               0.000254037               0.000000000               0.000000000               0.000000000               0.000000000               0.000202634               0.000949490              -0.000077277              -0.000042699               0.000330726               0.000288028               0.000000000               0.000000000               0.000000000               0.000000000               0.000233108               0.001045822              -0.000068387              -0.000043312               0.000363041               0.000319729               0.000000000               0.000000000               0.000000000               0.000000000               0.000249374               0.001132132              -0.000059440              -0.000048001               0.000393374               0.000345373               0.000000000               0.000000000               0.000000000               0.000000000               0.000244169               0.001215903              -0.000053211              -0.000060424               0.000425438               0.000365014               0.000000000               0.000000000               0.000000000               0.000000000               0.000224467               0.001295052              -0.000049390              -0.000077706               0.000457582               0.000379875               0.000000000               0.000000000               0.000000000               0.000000000               0.000200983               0.001366243              -0.000043132              -0.000095412               0.000487213               0.000391802               0.000000000               0.000000000               0.000000000               0.000000000               0.000176165               0.001436213              -0.000033992              -0.000113465               0.000516554               0.000403090               0.000000000               0.000000000               0.000000000               0.000000000               0.000154091               0.001510310              -0.000024945              -0.000131004               0.000547100               0.000416095               0.000000000               0.000000000               0.000000000               0.000000000               0.000134625               0.001588080              -0.000015237              -0.000148025               0.000578696               0.000430671               0.000000000               0.000000000               0.000000000               0.000000000               0.000113479               0.001662548              -0.000007206              -0.000165264               0.000609265               0.000444001               0.000000000               0.000000000               0.000000000               0.000000000               0.000097320               0.001738310              -0.000002613              -0.000180793               0.000639695               0.000458902               0.000000000               0.000000000               0.000000000               0.000000000               0.000085538               0.001774690               0.000001591              -0.000189759               0.000654810               0.000465051               0.000000000               0.000000000               0.000000000               0.000000000               0.000233286               0.000326836              -0.000201136               0.000046627               0.000093402               0.000140029               0.000000000               0.000000000               0.000000000               0.000000000               0.000185968               0.000423359              -0.000181687               0.000016818               0.000135512               0.000152330               0.000000000               0.000000000               0.000000000               0.000000000               0.000160021               0.000589963              -0.000153796              -0.000013738               0.000201232               0.000187494               0.000000000               0.000000000               0.000000000               0.000000000               0.000169407               0.000719858              -0.000128710              -0.000026455               0.000248768               0.000222314               0.000000000               0.000000000               0.000000000               0.000000000               0.000188482               0.000838777              -0.000108199              -0.000034166               0.000290978               0.000256812               0.000000000               0.000000000               0.000000000               0.000000000               0.000213291               0.000954927              -0.000092160              -0.000039382               0.000331433               0.000292051               0.000000000               0.000000000               0.000000000               0.000000000               0.000238286               0.001053197              -0.000076836              -0.000042292               0.000365159               0.000322867               0.000000000               0.000000000               0.000000000               0.000000000               0.000259242               0.001134319              -0.000061695              -0.000044574               0.000392961               0.000348387               0.000000000               0.000000000               0.000000000               0.000000000               0.000267394               0.001214512              -0.000051110              -0.000051541               0.000422014               0.000370472               0.000000000               0.000000000               0.000000000               0.000000000               0.000260597               0.001296825              -0.000046847              -0.000064379               0.000453730               0.000389351               0.000000000               0.000000000               0.000000000               0.000000000               0.000245699               0.001373243              -0.000042108              -0.000079518               0.000484249               0.000404731               0.000000000               0.000000000               0.000000000               0.000000000               0.000229681               0.001445106              -0.000037010              -0.000094508               0.000513200               0.000418692               0.000000000               0.000000000               0.000000000               0.000000000               0.000212450               0.001516654              -0.000031631              -0.000109913               0.000542184               0.000432271               0.000000000               0.000000000               0.000000000               0.000000000               0.000196272               0.001591637              -0.000022513              -0.000125352               0.000572325               0.000446972               0.000000000               0.000000000               0.000000000               0.000000000               0.000180947               0.001670201              -0.000013375              -0.000140919               0.000603701               0.000462782               0.000000000               0.000000000               0.000000000               0.000000000               0.000163750               0.001747607              -0.000006660              -0.000157044               0.000634878               0.000477834               0.000000000               0.000000000               0.000000000               0.000000000               0.000145034               0.001777050               0.000000608              -0.000167743               0.000648258               0.000480515               0.000000000               0.000000000               0.000000000               0.000000000               0.000210183               0.000251314              -0.000165365               0.000047404               0.000067969               0.000115373               0.000000000               0.000000000               0.000000000               0.000000000               0.000190048               0.000362664              -0.000169046               0.000025935               0.000112242               0.000138177               0.000000000               0.000000000               0.000000000               0.000000000               0.000180478               0.000543177              -0.000163114              -0.000000218               0.000181130               0.000180912               0.000000000               0.000000000               0.000000000               0.000000000               0.000192302               0.000687268              -0.000143320              -0.000013795               0.000233685               0.000219890               0.000000000               0.000000000               0.000000000               0.000000000               0.000209103               0.000820741              -0.000121884              -0.000024179               0.000281637               0.000257458               0.000000000               0.000000000               0.000000000               0.000000000               0.000227961               0.000941855              -0.000102990              -0.000032246               0.000324697               0.000292451               0.000000000               0.000000000               0.000000000               0.000000000               0.000247494               0.001039655              -0.000084026              -0.000037147               0.000358930               0.000321784               0.000000000               0.000000000               0.000000000               0.000000000               0.000267343               0.001122392              -0.000064593              -0.000040045               0.000387475               0.000347430               0.000000000               0.000000000               0.000000000               0.000000000               0.000285825               0.001206840              -0.000050913              -0.000043671               0.000416833               0.000373162               0.000000000               0.000000000               0.000000000               0.000000000               0.000294370               0.001296016              -0.000044640              -0.000051613               0.000449205               0.000397592               0.000000000               0.000000000               0.000000000               0.000000000               0.000292953               0.001382265              -0.000041821              -0.000062926               0.000481726               0.000418800               0.000000000               0.000000000               0.000000000               0.000000000               0.000286626               0.001459295              -0.000038835              -0.000074927               0.000511402               0.000436476               0.000000000               0.000000000               0.000000000               0.000000000               0.000274195               0.001528086              -0.000034857              -0.000088187               0.000538753               0.000450565               0.000000000               0.000000000               0.000000000               0.000000000               0.000260726               0.001598715              -0.000028927              -0.000102067               0.000566922               0.000464855               0.000000000               0.000000000               0.000000000               0.000000000               0.000249260               0.001675705              -0.000020023              -0.000115990               0.000597226               0.000481236               0.000000000               0.000000000               0.000000000               0.000000000               0.000232878               0.001749364              -0.000009080              -0.000131341               0.000626896               0.000495555               0.000000000               0.000000000               0.000000000               0.000000000               0.000213621               0.001777186              -0.000000231              -0.000142040               0.000639736               0.000497696               0.000000000               0.000000000               0.000000000               0.000000000               0.000181015               0.000185811              -0.000128803               0.000044654               0.000047052               0.000091705               0.000000000               0.000000000               0.000000000               0.000000000               0.000194654               0.000303122              -0.000149652               0.000035105               0.000089338               0.000124443               0.000000000               0.000000000               0.000000000               0.000000000               0.000204610               0.000487633              -0.000159143               0.000015774               0.000157284               0.000173059               0.000000000               0.000000000               0.000000000               0.000000000               0.000218144               0.000643937              -0.000144545               0.000001312               0.000214206               0.000215518               0.000000000               0.000000000               0.000000000               0.000000000               0.000234627               0.000784030              -0.000125375              -0.000010019               0.000264680               0.000254662               0.000000000               0.000000000               0.000000000               0.000000000               0.000249329               0.000904387              -0.000106450              -0.000019550               0.000307976               0.000288426               0.000000000               0.000000000               0.000000000               0.000000000               0.000262225               0.001006707              -0.000086605              -0.000027504               0.000344734               0.000317230               0.000000000               0.000000000               0.000000000               0.000000000               0.000281622               0.001103797              -0.000067321              -0.000032366               0.000378717               0.000346351               0.000000000               0.000000000               0.000000000               0.000000000               0.000306070               0.001201697              -0.000052510              -0.000035436               0.000412373               0.000376938               0.000000000               0.000000000               0.000000000               0.000000000               0.000325776               0.001298876              -0.000043388              -0.000040194               0.000446352               0.000406159               0.000000000               0.000000000               0.000000000               0.000000000               0.000334525               0.001388949              -0.000039518              -0.000048172               0.000479035               0.000430864               0.000000000               0.000000000               0.000000000               0.000000000               0.000335754               0.001468184              -0.000036115              -0.000057615               0.000508595               0.000450980               0.000000000               0.000000000               0.000000000               0.000000000               0.000332633               0.001540270              -0.000032307              -0.000067796               0.000536017               0.000468221               0.000000000               0.000000000               0.000000000               0.000000000               0.000325769               0.001607571              -0.000029030              -0.000078783               0.000562112               0.000483330               0.000000000               0.000000000               0.000000000               0.000000000               0.000317199               0.001673490              -0.000021657              -0.000090236               0.000587903               0.000497667               0.000000000               0.000000000               0.000000000               0.000000000               0.000308954               0.001743867              -0.000010943              -0.000102126               0.000615325               0.000513199               0.000000000               0.000000000               0.000000000               0.000000000               0.000297740               0.001776542              -0.000003355              -0.000110415               0.000628980               0.000518565               0.000000000               0.000000000               0.000000000               0.000000000               0.000152553               0.000134776              -0.000093752               0.000040360               0.000031472               0.000071832               0.000000000               0.000000000               0.000000000               0.000000000               0.000196398               0.000248816              -0.000122036               0.000042547               0.000068755               0.000111302               0.000000000               0.000000000               0.000000000               0.000000000               0.000227647               0.000430267              -0.000138825               0.000031584               0.000132893               0.000164477               0.000000000               0.000000000               0.000000000               0.000000000               0.000246757               0.000591021              -0.000130093               0.000018656               0.000190786               0.000209442               0.000000000               0.000000000               0.000000000               0.000000000               0.000262707               0.000732098              -0.000114760               0.000007003               0.000241696               0.000248699               0.000000000               0.000000000               0.000000000               0.000000000               0.000273001               0.000858053              -0.000097245              -0.000004881               0.000287642               0.000282761               0.000000000               0.000000000               0.000000000               0.000000000               0.000284401               0.000973672              -0.000080902              -0.000015059               0.000329574               0.000314515               0.000000000               0.000000000               0.000000000               0.000000000               0.000303272               0.001085614              -0.000066384              -0.000021975               0.000369193               0.000347218               0.000000000               0.000000000               0.000000000               0.000000000               0.000326849               0.001192764              -0.000052295              -0.000026527               0.000406426               0.000379899               0.000000000               0.000000000               0.000000000               0.000000000               0.000348864               0.001292030              -0.000039937              -0.000030680               0.000440899               0.000410219               0.000000000               0.000000000               0.000000000               0.000000000               0.000364207               0.001382136              -0.000032355              -0.000036189               0.000472771               0.000436581               0.000000000               0.000000000               0.000000000               0.000000000               0.000374751               0.001467327              -0.000028531              -0.000042884               0.000503399               0.000460515               0.000000000               0.000000000               0.000000000               0.000000000               0.000383370               0.001547552              -0.000025595              -0.000049680               0.000532406               0.000482725               0.000000000               0.000000000               0.000000000               0.000000000               0.000386597               0.001615651              -0.000022824              -0.000056982               0.000557539               0.000500557               0.000000000               0.000000000               0.000000000               0.000000000               0.000385917               0.001676099              -0.000018508              -0.000064793               0.000580292               0.000515499               0.000000000               0.000000000               0.000000000               0.000000000               0.000388781               0.001744745              -0.000011702              -0.000072300               0.000605676               0.000533376               0.000000000               0.000000000               0.000000000               0.000000000               0.000386827               0.001780189              -0.000006096              -0.000077463               0.000619212               0.000541748               0.000000000               0.000000000               0.000000000               0.000000000               0.000127048               0.000099914              -0.000060769               0.000035153               0.000021587               0.000056740               0.000000000               0.000000000               0.000000000               0.000000000               0.000195145               0.000204671              -0.000086389               0.000047595               0.000052358               0.000099953               0.000000000               0.000000000               0.000000000               0.000000000               0.000246684               0.000376634              -0.000103646               0.000045427               0.000110401               0.000155828               0.000000000               0.000000000               0.000000000               0.000000000               0.000272435               0.000538340              -0.000099194               0.000034870               0.000167822               0.000202692               0.000000000               0.000000000               0.000000000               0.000000000               0.000285731               0.000683357              -0.000087408               0.000021729               0.000220540               0.000242270               0.000000000               0.000000000               0.000000000               0.000000000               0.000297124               0.000816650              -0.000075255               0.000009340               0.000269101               0.000278441               0.000000000               0.000000000               0.000000000               0.000000000               0.000310632               0.000943118              -0.000065001              -0.000001403               0.000314837               0.000313434               0.000000000               0.000000000               0.000000000               0.000000000               0.000326852               0.001063871              -0.000054264              -0.000010414               0.000358092               0.000347677               0.000000000               0.000000000               0.000000000               0.000000000               0.000345110               0.001174272              -0.000041608              -0.000017368               0.000397209               0.000379842               0.000000000               0.000000000               0.000000000               0.000000000               0.000364976               0.001274600              -0.000029769              -0.000022459               0.000432349               0.000409890               0.000000000               0.000000000               0.000000000               0.000000000               0.000385616               0.001368951              -0.000022548              -0.000026513               0.000465150               0.000438637               0.000000000               0.000000000               0.000000000               0.000000000               0.000406011               0.001463431              -0.000019449              -0.000030675               0.000498030               0.000467356               0.000000000               0.000000000               0.000000000               0.000000000               0.000423151               0.001548818              -0.000016912              -0.000034920               0.000527908               0.000492987               0.000000000               0.000000000               0.000000000               0.000000000               0.000434661               0.001618042              -0.000013682              -0.000039257               0.000552428               0.000513171               0.000000000               0.000000000               0.000000000               0.000000000               0.000444260               0.001681434              -0.000011189              -0.000043581               0.000575000               0.000531418               0.000000000               0.000000000               0.000000000               0.000000000               0.000456021               0.001748555              -0.000007721              -0.000047562               0.000598700               0.000551138               0.000000000               0.000000000               0.000000000               0.000000000               0.000460773               0.001782299              -0.000004242              -0.000049997               0.000610759               0.000560762               0.000000000               0.000000000               0.000000000               0.000000000               0.000110335               0.000077958              -0.000028762               0.000031630               0.000015442               0.000047073               0.000000000               0.000000000               0.000000000               0.000000000               0.000195255               0.000175116              -0.000044011               0.000051331               0.000041261               0.000092592               0.000000000               0.000000000               0.000000000               0.000000000               0.000259581               0.000339449              -0.000055657               0.000054911               0.000094845               0.000149756               0.000000000               0.000000000               0.000000000               0.000000000               0.000287839               0.000499977              -0.000053754               0.000045442               0.000151510               0.000196952               0.000000000               0.000000000               0.000000000               0.000000000               0.000303201               0.000648505              -0.000047268               0.000032637               0.000205287               0.000237924               0.000000000               0.000000000               0.000000000               0.000000000               0.000317285               0.000788523              -0.000041847               0.000020416               0.000256033               0.000276449               0.000000000               0.000000000               0.000000000               0.000000000               0.000329694               0.000919485              -0.000036584               0.000008699               0.000303592               0.000312291               0.000000000               0.000000000               0.000000000               0.000000000               0.000342058               0.001041510              -0.000030041              -0.000001917               0.000347806               0.000345889               0.000000000               0.000000000               0.000000000               0.000000000               0.000357898               0.001155117              -0.000022684              -0.000010178               0.000388428               0.000378250               0.000000000               0.000000000               0.000000000               0.000000000               0.000378618               0.001261428              -0.000016029              -0.000015697               0.000425704               0.000410007               0.000000000               0.000000000               0.000000000               0.000000000               0.000401965               0.001360278              -0.000011732              -0.000019298               0.000459854               0.000440556               0.000000000               0.000000000               0.000000000               0.000000000               0.000426038               0.001456928              -0.000009434              -0.000022352               0.000493088               0.000470737               0.000000000               0.000000000               0.000000000               0.000000000               0.000446900               0.001543359              -0.000007331              -0.000025332               0.000522892               0.000497560               0.000000000               0.000000000               0.000000000               0.000000000               0.000463804               0.001615721              -0.000005205              -0.000028039               0.000547915               0.000519876               0.000000000               0.000000000               0.000000000               0.000000000               0.000480585               0.001685057              -0.000004121              -0.000030413               0.000571818               0.000541405               0.000000000               0.000000000               0.000000000               0.000000000               0.000497213               0.001752338              -0.000002815              -0.000032587               0.000594969               0.000562382               0.000000000               0.000000000               0.000000000               0.000000000               0.000504723               0.001783962              -0.000001366              -0.000033724               0.000605889               0.000572165               0.000000000               0.000000000               0.000000000               0.000000000               0.000105224               0.000070514               0.000000000               0.000030645               0.000013290               0.000043934               0.000000000               0.000000000               0.000000000               0.000000000               0.000196150               0.000165783               0.000000000               0.000052833               0.000037649               0.000090482               0.000000000               0.000000000               0.000000000               0.000000000               0.000264100               0.000327687               0.000000000               0.000058076               0.000089869               0.000147945               0.000000000               0.000000000               0.000000000               0.000000000               0.000292449               0.000485336               0.000000000               0.000049001               0.000145444               0.000194444               0.000000000               0.000000000               0.000000000               0.000000000               0.000311194               0.000635315              -0.000000000               0.000037283               0.000199342               0.000236625               0.000000000               0.000000000               0.000000000               0.000000000               0.000324672               0.000778950              -0.000000000               0.000024383               0.000251520               0.000275903               0.000000000               0.000000000               0.000000000               0.000000000               0.000335261               0.000909902               0.000000000               0.000011985               0.000299303               0.000311288               0.000000000               0.000000000               0.000000000               0.000000000               0.000347530               0.001032490              -0.000000000               0.000001262               0.000343739               0.000345002               0.000000000               0.000000000               0.000000000               0.000000000               0.000363865               0.001149154              -0.000000000              -0.000007195               0.000385446               0.000378251               0.000000000               0.000000000               0.000000000               0.000000000               0.000384249               0.001256177               0.000000000              -0.000012929               0.000423031               0.000410102               0.000000000               0.000000000               0.000000000               0.000000000               0.000407272               0.001354927              -0.000000000              -0.000016639               0.000457184               0.000440545               0.000000000               0.000000000               0.000000000               0.000000000               0.000432303               0.001453141               0.000000000              -0.000019529               0.000490885               0.000471356               0.000000000               0.000000000               0.000000000               0.000000000               0.000454771               0.001541063               0.000000000              -0.000022094               0.000521047               0.000498953               0.000000000               0.000000000               0.000000000               0.000000000               0.000473618               0.001614738               0.000000000              -0.000024235               0.000546319               0.000522084               0.000000000               0.000000000               0.000000000               0.000000000               0.000492369               0.001686365              -0.000000000              -0.000026157               0.000570835               0.000544678               0.000000000               0.000000000               0.000000000               0.000000000               0.000510027               0.001754117              -0.000000000              -0.000028004               0.000594035               0.000566030               0.000000000               0.000000000               0.000000000               0.000000000               0.000517728               0.001784950              -0.000000000              -0.000028971               0.000604634               0.000575664               0.000000000               0.000000000               0.000000000               0.000000000               0.000000000               0.000000000               0.000000000               0.000000000               0.000000000               0.000000000               0.000000000               0.000000000               0.000000000               0.000000000               0.000000000               0.000000000               0.000000000               0.000000000               0.000000000               0.000000000               0.000000000               0.000000000               0.000000000               0.000000000               0.000000000               0.000000000               0.000000000               0.000000000               0.000000000               0.000000000               0.000000000               0.000000000               0.000000000               0.000000000               0.000000000               0.000000000               0.000000000               0.000000000               0.000000000               0.000000000               0.000000000               0.000000000               0.000000000               0.000000000               0.000000000               0.000000000               0.000000000               0.000000000               0.000000000               0.000000000               0.000000000               0.000000000               0.000000000               0.000000000               0.000000000               0.000000000               0.000000000               0.000000000               0.000000000               0.000000000               0.000000000               0.000000000               0.000000000               0.000000000               0.000000000               0.000000000               0.000000000               0.000000000               0.000000000               0.000000000               0.000000000               0.000000000               0.000000000               0.000000000               0.000000000               0.000000000               0.000000000               0.000000000               0.000000000               0.000000000               0.000000000               0.000000000               0.000000000               0.000000000               0.000000000               0.000000000               0.000000000               0.000000000               0.000000000               0.000000000               0.000000000               0.000000000               0.000000000               0.000000000               0.000000000               0.000000000               0.000000000               0.000000000               0.000000000               0.000000000               0.000000000               0.000000000               0.000000000               0.000000000               0.000000000               0.000000000               0.000000000               0.000000000               0.000000000               0.000000000               0.000000000               0.000000000               0.000000000               0.000000000               0.000000000               0.000000000               0.000000000               0.000000000               0.000000000               0.000000000               0.000000000               0.000000000               0.000000000               0.000000000               0.000000000               0.000000000               0.000000000               0.000000000               0.000000000               0.000000000               0.000000000               0.000000000               0.000000000               0.000000000               0.000000000               0.000000000               0.000000000               0.000000000               0.000000000               0.000000000               0.000000000               0.000000000               0.000000000               0.000000000               0.000000000               0.000000000               0.000000000               0.000000000               0.000000000               0.000000000               0.000000000               0.000000000               0.000000000               0.000000000               0.000000000               0.000000000               0.000000000               0.000000000               0.000000000               0.000000000               0.000000000               0.000000000               0.000000000               0.000000000               0.000000000               0.000000000               0.000000000               0.000000000               0.000000000               0.000000000               0.000000000               0.000000000               0.000000000               0.000000000               0.000109994               0.001076759               0.000085094              -0.000093347               0.000390032               0.000296685               0.000000000               0.000000000               0.000000000               0.000000000               0.000130180               0.000918172               0.000058195              -0.000065954               0.000328039               0.000262085               0.000000000               0.000000000               0.000000000               0.000000000               0.000187618               0.000798572               0.000028950              -0.000029465               0.000276010               0.000246545               0.000000000               0.000000000               0.000000000               0.000000000               0.000212063               0.000738370               0.000014564              -0.000012773               0.000250378               0.000237606               0.000000000               0.000000000               0.000000000               0.000000000               0.000222413               0.000708763               0.000005874              -0.000005190               0.000237982               0.000232792               0.000000000               0.000000000               0.000000000               0.000000000               0.000223431               0.000695895               0.000002706              -0.000003200               0.000233029               0.000229829               0.000000000               0.000000000               0.000000000               0.000000000               0.000220628               0.000688575               0.000005533              -0.000003336               0.000230635               0.000227298               0.000000000               0.000000000               0.000000000               0.000000000               0.000222037               0.000679107               0.000013416              -0.000001625               0.000226908               0.000225284               0.000000000               0.000000000               0.000000000               0.000000000               0.000224852               0.000664332               0.000019014               0.000001278               0.000221016               0.000222294               0.000000000               0.000000000               0.000000000               0.000000000               0.000219227               0.000653598               0.000018821               0.000000510               0.000217694               0.000218204               0.000000000               0.000000000               0.000000000               0.000000000               0.000203781               0.000648643               0.000019175              -0.000004663               0.000217766               0.000213104               0.000000000               0.000000000               0.000000000               0.000000000               0.000183547               0.000650505               0.000018359              -0.000012483               0.000220994               0.000208511               0.000000000               0.000000000               0.000000000               0.000000000               0.000156427               0.000659753               0.000015781              -0.000023809               0.000227852               0.000204043               0.000000000               0.000000000               0.000000000               0.000000000               0.000122334               0.000675129               0.000013395              -0.000038516               0.000237879               0.000199363               0.000000000               0.000000000               0.000000000               0.000000000               0.000085007               0.000696708               0.000010255              -0.000055211               0.000250637               0.000195427               0.000000000               0.000000000               0.000000000               0.000000000               0.000043884               0.000723152               0.000005764              -0.000073937               0.000265694               0.000191757               0.000000000               0.000000000               0.000000000               0.000000000               0.000025617               0.000746076               0.000004033              -0.000083653               0.000276574               0.000192921               0.000000000               0.000000000               0.000000000               0.000000000               0.000129977               0.001033815               0.000161789              -0.000080485               0.000371430               0.000290945               0.000000000               0.000000000               0.000000000               0.000000000               0.000139257               0.000884006               0.000110309              -0.000058279               0.000314092               0.000255813               0.000000000               0.000000000               0.000000000               0.000000000               0.000187117               0.000780211               0.000055571              -0.000027358               0.000269187               0.000241829               0.000000000               0.000000000               0.000000000               0.000000000               0.000207187               0.000728314               0.000027792              -0.000013344               0.000247217               0.000233873               0.000000000               0.000000000               0.000000000               0.000000000               0.000214181               0.000705771               0.000012683              -0.000007904               0.000237889               0.000229986               0.000000000               0.000000000               0.000000000               0.000000000               0.000213066               0.000696748               0.000006915              -0.000007194               0.000234645               0.000227451               0.000000000               0.000000000               0.000000000               0.000000000               0.000211538               0.000693799               0.000011682              -0.000007398               0.000233730               0.000226332               0.000000000               0.000000000               0.000000000               0.000000000               0.000209025               0.000686818               0.000025595              -0.000007468               0.000231426               0.000223959               0.000000000               0.000000000               0.000000000               0.000000000               0.000204073               0.000680282               0.000033953              -0.000008508               0.000229594               0.000221087               0.000000000               0.000000000               0.000000000               0.000000000               0.000193795               0.000680329               0.000033216              -0.000012368               0.000230897               0.000218529               0.000000000               0.000000000               0.000000000               0.000000000               0.000177728               0.000683789               0.000032823              -0.000018826               0.000234203               0.000215377               0.000000000               0.000000000               0.000000000               0.000000000               0.000157883               0.000691593               0.000030128              -0.000027243               0.000239610               0.000212367               0.000000000               0.000000000               0.000000000               0.000000000               0.000132221               0.000703077               0.000025255              -0.000038302               0.000247124               0.000208822               0.000000000               0.000000000               0.000000000               0.000000000               0.000101980               0.000718024               0.000020193              -0.000051511               0.000256509               0.000204998               0.000000000               0.000000000               0.000000000               0.000000000               0.000071231               0.000737816               0.000014061              -0.000065515               0.000267775               0.000202260               0.000000000               0.000000000               0.000000000               0.000000000               0.000037788               0.000761146               0.000007064              -0.000080972               0.000280703               0.000199731               0.000000000               0.000000000               0.000000000               0.000000000               0.000023420               0.000781187               0.000005232              -0.000088866               0.000290015               0.000201149               0.000000000               0.000000000               0.000000000               0.000000000               0.000157207               0.000960699               0.000226748              -0.000061135               0.000340608               0.000279473               0.000000000               0.000000000               0.000000000               0.000000000               0.000151215               0.000833997               0.000152524              -0.000047544               0.000293844               0.000246300               0.000000000               0.000000000               0.000000000               0.000000000               0.000184385               0.000754028               0.000075854              -0.000025109               0.000259710               0.000234601               0.000000000               0.000000000               0.000000000               0.000000000               0.000197748               0.000715765               0.000039072              -0.000015315               0.000243691               0.000228376               0.000000000               0.000000000               0.000000000               0.000000000               0.000201068               0.000702840               0.000019331              -0.000012455               0.000238429               0.000225975               0.000000000               0.000000000               0.000000000               0.000000000               0.000198850               0.000700836               0.000012684              -0.000013036               0.000237955               0.000224919               0.000000000               0.000000000               0.000000000               0.000000000               0.000197408               0.000700963               0.000020551              -0.000013592               0.000238183               0.000224590               0.000000000               0.000000000               0.000000000               0.000000000               0.000193807               0.000700955               0.000037099              -0.000014942               0.000238630               0.000223688               0.000000000               0.000000000               0.000000000               0.000000000               0.000185678               0.000708831               0.000044191              -0.000018975               0.000242600               0.000223625               0.000000000               0.000000000               0.000000000               0.000000000               0.000172881               0.000724193               0.000041928              -0.000025694               0.000249960               0.000224266               0.000000000               0.000000000               0.000000000               0.000000000               0.000152678               0.000741545               0.000041695              -0.000035439               0.000258992               0.000223553               0.000000000               0.000000000               0.000000000               0.000000000               0.000128102               0.000760606               0.000039091              -0.000047038               0.000269212               0.000222175               0.000000000               0.000000000               0.000000000               0.000000000               0.000102530               0.000781236               0.000033849              -0.000059206               0.000280145               0.000220939               0.000000000               0.000000000               0.000000000               0.000000000               0.000075913               0.000803299               0.000027827              -0.000071945               0.000291745               0.000219800               0.000000000               0.000000000               0.000000000               0.000000000               0.000052005               0.000828507               0.000019974              -0.000084061               0.000304187               0.000220125               0.000000000               0.000000000               0.000000000               0.000000000               0.000028463               0.000856647               0.000010518              -0.000096407               0.000317682               0.000221275               0.000000000               0.000000000               0.000000000               0.000000000               0.000020189               0.000879188               0.000008054              -0.000102327               0.000327169               0.000224842               0.000000000               0.000000000               0.000000000               0.000000000               0.000192015               0.000873655               0.000269812              -0.000037202               0.000303616               0.000266414               0.000000000               0.000000000               0.000000000               0.000000000               0.000165939               0.000774465               0.000180838              -0.000034581               0.000269680               0.000235098               0.000000000               0.000000000               0.000000000               0.000000000               0.000178049               0.000725415               0.000090653              -0.000023909               0.000249772               0.000225863               0.000000000               0.000000000               0.000000000               0.000000000               0.000183529               0.000706125               0.000048596              -0.000019442               0.000241853               0.000222411               0.000000000               0.000000000               0.000000000               0.000000000               0.000184723               0.000705596               0.000027460              -0.000018928               0.000241506               0.000222577               0.000000000               0.000000000               0.000000000               0.000000000               0.000181869               0.000709540               0.000021779              -0.000020491               0.000243341               0.000222850               0.000000000               0.000000000               0.000000000               0.000000000               0.000184251               0.000718159               0.000030891              -0.000020676               0.000246276               0.000225600               0.000000000               0.000000000               0.000000000               0.000000000               0.000185564               0.000730309               0.000046788              -0.000021702               0.000250668               0.000228966               0.000000000               0.000000000               0.000000000               0.000000000               0.000178243               0.000756042               0.000052426              -0.000027664               0.000261233               0.000233569               0.000000000               0.000000000               0.000000000               0.000000000               0.000161458               0.000788968               0.000049290              -0.000038074               0.000275678               0.000237604               0.000000000               0.000000000               0.000000000               0.000000000               0.000137243               0.000824561               0.000048500              -0.000051604               0.000292052               0.000240448               0.000000000               0.000000000               0.000000000               0.000000000               0.000111627               0.000862195               0.000045770              -0.000065914               0.000309367               0.000243453               0.000000000               0.000000000               0.000000000               0.000000000               0.000085604               0.000899934               0.000040251              -0.000080390               0.000326772               0.000246382               0.000000000               0.000000000               0.000000000               0.000000000               0.000060809               0.000937920               0.000033410              -0.000094436               0.000344116               0.000249679               0.000000000               0.000000000               0.000000000               0.000000000               0.000040892               0.000976373               0.000023902              -0.000106712               0.000361025               0.000254313               0.000000000               0.000000000               0.000000000               0.000000000               0.000021717               0.001013670               0.000012461              -0.000118564               0.000377408               0.000258844               0.000000000               0.000000000               0.000000000               0.000000000               0.000016522               0.001039857               0.000009490              -0.000123786               0.000387878               0.000264091               0.000000000               0.000000000               0.000000000               0.000000000               0.000218799               0.000776875               0.000293314              -0.000015060               0.000263976               0.000248916               0.000000000               0.000000000               0.000000000               0.000000000               0.000175349               0.000709196               0.000196923              -0.000022894               0.000244027               0.000221134               0.000000000               0.000000000               0.000000000               0.000000000               0.000168886               0.000697636               0.000099357              -0.000023872               0.000240500               0.000216628               0.000000000               0.000000000               0.000000000               0.000000000               0.000166875               0.000701516               0.000056736              -0.000025112               0.000242207               0.000217095               0.000000000               0.000000000               0.000000000               0.000000000               0.000165219               0.000716455               0.000037927              -0.000027600               0.000248016               0.000220416               0.000000000               0.000000000               0.000000000               0.000000000               0.000168550               0.000733986               0.000033100              -0.000028542               0.000254174               0.000225632               0.000000000               0.000000000               0.000000000               0.000000000               0.000176423               0.000755254               0.000042065              -0.000028248               0.000261165               0.000232917               0.000000000               0.000000000               0.000000000               0.000000000               0.000180681               0.000788026               0.000055161              -0.000030748               0.000272922               0.000242174               0.000000000               0.000000000               0.000000000               0.000000000               0.000177349               0.000837080               0.000055875              -0.000038129               0.000291733               0.000253605               0.000000000               0.000000000               0.000000000               0.000000000               0.000163043               0.000892497               0.000051453              -0.000050421               0.000314303               0.000263882               0.000000000               0.000000000               0.000000000               0.000000000               0.000139130               0.000946280               0.000049385              -0.000066111               0.000337460               0.000271349               0.000000000               0.000000000               0.000000000               0.000000000               0.000112183               0.000999776               0.000045890              -0.000082903               0.000360890               0.000277987               0.000000000               0.000000000               0.000000000               0.000000000               0.000085454               0.001052492               0.000039903              -0.000099516               0.000383999               0.000284483               0.000000000               0.000000000               0.000000000               0.000000000               0.000062350               0.001103932               0.000032236              -0.000114610               0.000406177               0.000291567               0.000000000               0.000000000               0.000000000               0.000000000               0.000042027               0.001152915               0.000022756              -0.000128354               0.000427086               0.000298732               0.000000000               0.000000000               0.000000000               0.000000000               0.000021235               0.001196290               0.000011843              -0.000141573               0.000445950               0.000304378               0.000000000               0.000000000               0.000000000               0.000000000               0.000016125               0.001225062               0.000009345              -0.000147085               0.000457378               0.000310293               0.000000000               0.000000000               0.000000000               0.000000000               0.000236900               0.000673696               0.000297784               0.000004625               0.000223021               0.000227646               0.000000000               0.000000000               0.000000000               0.000000000               0.000178819               0.000646669               0.000200993              -0.000013777               0.000220146               0.000206370               0.000000000               0.000000000               0.000000000               0.000000000               0.000156315               0.000676724               0.000104649              -0.000025972               0.000234230               0.000208258               0.000000000               0.000000000               0.000000000               0.000000000               0.000151435               0.000706152               0.000066185              -0.000031481               0.000245875               0.000214395               0.000000000               0.000000000               0.000000000               0.000000000               0.000152393               0.000739926               0.000048543              -0.000035343               0.000258421               0.000223077               0.000000000               0.000000000               0.000000000               0.000000000               0.000160859               0.000779253               0.000044836              -0.000037084               0.000272110               0.000235025               0.000000000               0.000000000               0.000000000               0.000000000               0.000176510               0.000826990               0.000050078              -0.000037182               0.000288055               0.000250872               0.000000000               0.000000000               0.000000000               0.000000000               0.000188775               0.000888739               0.000057293              -0.000040302               0.000309677               0.000269376               0.000000000               0.000000000               0.000000000               0.000000000               0.000184429               0.000957691               0.000054496              -0.000050550               0.000336077               0.000285527               0.000000000               0.000000000               0.000000000               0.000000000               0.000167323               0.001028507               0.000049893              -0.000065817               0.000364771               0.000298954               0.000000000               0.000000000               0.000000000               0.000000000               0.000144092               0.001093849               0.000048653              -0.000082696               0.000392178               0.000309482               0.000000000               0.000000000               0.000000000               0.000000000               0.000119049               0.001155798               0.000044152              -0.000099831               0.000418539               0.000318708               0.000000000               0.000000000               0.000000000               0.000000000               0.000093502               0.001215504               0.000037104              -0.000116875               0.000444122               0.000327248               0.000000000               0.000000000               0.000000000               0.000000000               0.000070973               0.001271714               0.000028352              -0.000132349               0.000468017               0.000335668               0.000000000               0.000000000               0.000000000               0.000000000               0.000047098               0.001322472               0.000018878              -0.000147647               0.000490035               0.000342388               0.000000000               0.000000000               0.000000000               0.000000000               0.000021908               0.001367197               0.000010063              -0.000162684               0.000509956               0.000347272               0.000000000               0.000000000               0.000000000               0.000000000               0.000015038               0.001396244               0.000008572              -0.000168891               0.000521707               0.000352816               0.000000000               0.000000000               0.000000000               0.000000000               0.000247497               0.000575670               0.000282165               0.000020852               0.000184937               0.000205789               0.000000000               0.000000000               0.000000000               0.000000000               0.000178591               0.000592450               0.000197183              -0.000007085               0.000199843               0.000192758               0.000000000               0.000000000               0.000000000               0.000000000               0.000146159               0.000665210               0.000111277              -0.000028342               0.000231182               0.000202840               0.000000000               0.000000000               0.000000000               0.000000000               0.000142023               0.000721675               0.000076430              -0.000036951               0.000252873               0.000215922               0.000000000               0.000000000               0.000000000               0.000000000               0.000149931               0.000782066               0.000059499              -0.000041534               0.000274531               0.000232997               0.000000000               0.000000000               0.000000000               0.000000000               0.000170707               0.000850690               0.000052445              -0.000042321               0.000297668               0.000255347               0.000000000               0.000000000               0.000000000               0.000000000               0.000194540               0.000926776               0.000054322              -0.000042894               0.000323220               0.000280326               0.000000000               0.000000000               0.000000000               0.000000000               0.000205833               0.001006363               0.000058866              -0.000048608               0.000351654               0.000303046               0.000000000               0.000000000               0.000000000               0.000000000               0.000197356               0.001090833               0.000055330              -0.000062345               0.000384389               0.000322044               0.000000000               0.000000000               0.000000000               0.000000000               0.000176290               0.001168770               0.000050269              -0.000079987               0.000416249               0.000336261               0.000000000               0.000000000               0.000000000               0.000000000               0.000150105               0.001237869               0.000048152              -0.000098444               0.000445434               0.000346990               0.000000000               0.000000000               0.000000000               0.000000000               0.000124421               0.001303557               0.000040868              -0.000116287               0.000473277               0.000356990               0.000000000               0.000000000               0.000000000               0.000000000               0.000100274               0.001367359               0.000030786              -0.000133317               0.000500221               0.000366904               0.000000000               0.000000000               0.000000000               0.000000000               0.000075563               0.001427882               0.000021960              -0.000150149               0.000526005               0.000375857               0.000000000               0.000000000               0.000000000               0.000000000               0.000048065               0.001482524               0.000013216              -0.000167291               0.000549933               0.000382642               0.000000000               0.000000000               0.000000000               0.000000000               0.000021967               0.001532370               0.000005670              -0.000183308               0.000571887               0.000388579               0.000000000               0.000000000               0.000000000               0.000000000               0.000014347               0.001565383               0.000005574              -0.000190292               0.000585220               0.000394928               0.000000000               0.000000000               0.000000000               0.000000000               0.000250619               0.000493089               0.000257337               0.000032346               0.000153579               0.000185925               0.000000000               0.000000000               0.000000000               0.000000000               0.000180035               0.000546831               0.000191921              -0.000000841               0.000182556               0.000181714               0.000000000               0.000000000               0.000000000               0.000000000               0.000141456               0.000658362               0.000121169              -0.000029249               0.000229201               0.000199952               0.000000000               0.000000000               0.000000000               0.000000000               0.000141941               0.000742321               0.000087704              -0.000039562               0.000260625               0.000221063               0.000000000               0.000000000               0.000000000               0.000000000               0.000158173               0.000829586               0.000069554              -0.000044383               0.000291320               0.000246937               0.000000000               0.000000000               0.000000000               0.000000000               0.000187074               0.000919623               0.000060042              -0.000044800               0.000321471               0.000276671               0.000000000               0.000000000               0.000000000               0.000000000               0.000217119               0.001008151               0.000058754              -0.000044599               0.000350914               0.000306314               0.000000000               0.000000000               0.000000000               0.000000000               0.000228874               0.001098307               0.000057767              -0.000051461               0.000383252               0.000331792               0.000000000               0.000000000               0.000000000               0.000000000               0.000217474               0.001190396               0.000053386              -0.000067247               0.000419210               0.000351963               0.000000000               0.000000000               0.000000000               0.000000000               0.000192863               0.001268663               0.000048906              -0.000086259               0.000451636               0.000365377               0.000000000               0.000000000               0.000000000               0.000000000               0.000166719               0.001338653               0.000044073              -0.000104812               0.000481151               0.000376339               0.000000000               0.000000000               0.000000000               0.000000000               0.000139612               0.001408832               0.000034238              -0.000123749               0.000510856               0.000387106               0.000000000               0.000000000               0.000000000               0.000000000               0.000114873               0.001479421               0.000022275              -0.000141850               0.000540419               0.000398569               0.000000000               0.000000000               0.000000000               0.000000000               0.000089320               0.001547876               0.000012973              -0.000159989               0.000569283               0.000409294               0.000000000               0.000000000               0.000000000               0.000000000               0.000064199               0.001613219               0.000005781              -0.000177577               0.000596927               0.000419349               0.000000000               0.000000000               0.000000000               0.000000000               0.000045460               0.001675719              -0.000000825              -0.000192417               0.000622706               0.000430290               0.000000000               0.000000000               0.000000000               0.000000000               0.000037669               0.001711796              -0.000002543              -0.000199848               0.000637209               0.000437361               0.000000000               0.000000000               0.000000000               0.000000000               0.000245828               0.000409591               0.000231735               0.000040986               0.000122867               0.000163853               0.000000000               0.000000000               0.000000000               0.000000000               0.000182462               0.000486641               0.000188205               0.000007593               0.000159681               0.000167274               0.000000000               0.000000000               0.000000000               0.000000000               0.000145794               0.000628154               0.000137432              -0.000023846               0.000217331               0.000193485               0.000000000               0.000000000               0.000000000               0.000000000               0.000151559               0.000738715               0.000107594              -0.000035505               0.000258071               0.000222566               0.000000000               0.000000000               0.000000000               0.000000000               0.000171833               0.000844328               0.000088352              -0.000041104               0.000295141               0.000254037               0.000000000               0.000000000               0.000000000               0.000000000               0.000202634               0.000949490               0.000077277              -0.000042699               0.000330726               0.000288028               0.000000000               0.000000000               0.000000000               0.000000000               0.000233108               0.001045822               0.000068387              -0.000043312               0.000363041               0.000319729               0.000000000               0.000000000               0.000000000               0.000000000               0.000249374               0.001132132               0.000059440              -0.000048001               0.000393374               0.000345373               0.000000000               0.000000000               0.000000000               0.000000000               0.000244169               0.001215903               0.000053211              -0.000060424               0.000425438               0.000365014               0.000000000               0.000000000               0.000000000               0.000000000               0.000224467               0.001295052               0.000049390              -0.000077706               0.000457582               0.000379875               0.000000000               0.000000000               0.000000000               0.000000000               0.000200983               0.001366243               0.000043132              -0.000095412               0.000487213               0.000391802               0.000000000               0.000000000               0.000000000               0.000000000               0.000176165               0.001436213               0.000033992              -0.000113465               0.000516554               0.000403090               0.000000000               0.000000000               0.000000000               0.000000000               0.000154091               0.001510310               0.000024945              -0.000131004               0.000547100               0.000416095               0.000000000               0.000000000               0.000000000               0.000000000               0.000134625               0.001588080               0.000015237              -0.000148025               0.000578696               0.000430671               0.000000000               0.000000000               0.000000000               0.000000000               0.000113479               0.001662548               0.000007206              -0.000165264               0.000609265               0.000444001               0.000000000               0.000000000               0.000000000               0.000000000               0.000097320               0.001738310               0.000002613              -0.000180793               0.000639695               0.000458902               0.000000000               0.000000000               0.000000000               0.000000000               0.000085538               0.001774690              -0.000001591              -0.000189759               0.000654810               0.000465051               0.000000000               0.000000000               0.000000000               0.000000000               0.000233286               0.000326836               0.000201136               0.000046627               0.000093402               0.000140029               0.000000000               0.000000000               0.000000000               0.000000000               0.000185968               0.000423359               0.000181687               0.000016818               0.000135512               0.000152330               0.000000000               0.000000000               0.000000000               0.000000000               0.000160021               0.000589963               0.000153796              -0.000013738               0.000201232               0.000187494               0.000000000               0.000000000               0.000000000               0.000000000               0.000169407               0.000719858               0.000128710              -0.000026455               0.000248768               0.000222314               0.000000000               0.000000000               0.000000000               0.000000000               0.000188482               0.000838777               0.000108199              -0.000034166               0.000290978               0.000256812               0.000000000               0.000000000               0.000000000               0.000000000               0.000213291               0.000954927               0.000092160              -0.000039382               0.000331433               0.000292051               0.000000000               0.000000000               0.000000000               0.000000000               0.000238286               0.001053197               0.000076836              -0.000042292               0.000365159               0.000322867               0.000000000               0.000000000               0.000000000               0.000000000               0.000259242               0.001134319               0.000061695              -0.000044574               0.000392961               0.000348387               0.000000000               0.000000000               0.000000000               0.000000000               0.000267394               0.001214512               0.000051110              -0.000051541               0.000422014               0.000370472               0.000000000               0.000000000               0.000000000               0.000000000               0.000260597               0.001296825               0.000046847              -0.000064379               0.000453730               0.000389351               0.000000000               0.000000000               0.000000000               0.000000000               0.000245699               0.001373243               0.000042108              -0.000079518               0.000484249               0.000404731               0.000000000               0.000000000               0.000000000               0.000000000               0.000229681               0.001445106               0.000037010              -0.000094508               0.000513200               0.000418692               0.000000000               0.000000000               0.000000000               0.000000000               0.000212450               0.001516654               0.000031631              -0.000109913               0.000542184               0.000432271               0.000000000               0.000000000               0.000000000               0.000000000               0.000196272               0.001591637               0.000022513              -0.000125352               0.000572325               0.000446972               0.000000000               0.000000000               0.000000000               0.000000000               0.000180947               0.001670201               0.000013375              -0.000140919               0.000603701               0.000462782               0.000000000               0.000000000               0.000000000               0.000000000               0.000163750               0.001747607               0.000006660              -0.000157044               0.000634878               0.000477834               0.000000000               0.000000000               0.000000000               0.000000000               0.000145034               0.001777050              -0.000000608              -0.000167743               0.000648258               0.000480515               0.000000000               0.000000000               0.000000000               0.000000000               0.000210183               0.000251314               0.000165365               0.000047404               0.000067969               0.000115373               0.000000000               0.000000000               0.000000000               0.000000000               0.000190048               0.000362664               0.000169046               0.000025935               0.000112242               0.000138177               0.000000000               0.000000000               0.000000000               0.000000000               0.000180478               0.000543177               0.000163114              -0.000000218               0.000181130               0.000180912               0.000000000               0.000000000               0.000000000               0.000000000               0.000192302               0.000687268               0.000143320              -0.000013795               0.000233685               0.000219890               0.000000000               0.000000000               0.000000000               0.000000000               0.000209103               0.000820741               0.000121884              -0.000024179               0.000281637               0.000257458               0.000000000               0.000000000               0.000000000               0.000000000               0.000227961               0.000941855               0.000102990              -0.000032246               0.000324697               0.000292451               0.000000000               0.000000000               0.000000000               0.000000000               0.000247494               0.001039655               0.000084026              -0.000037147               0.000358930               0.000321784               0.000000000               0.000000000               0.000000000               0.000000000               0.000267343               0.001122392               0.000064593              -0.000040045               0.000387475               0.000347430               0.000000000               0.000000000               0.000000000               0.000000000               0.000285825               0.001206840               0.000050913              -0.000043671               0.000416833               0.000373162               0.000000000               0.000000000               0.000000000               0.000000000               0.000294370               0.001296016               0.000044640              -0.000051613               0.000449205               0.000397592               0.000000000               0.000000000               0.000000000               0.000000000               0.000292953               0.001382265               0.000041821              -0.000062926               0.000481726               0.000418800               0.000000000               0.000000000               0.000000000               0.000000000               0.000286626               0.001459295               0.000038835              -0.000074927               0.000511402               0.000436476               0.000000000               0.000000000               0.000000000               0.000000000               0.000274195               0.001528086               0.000034857              -0.000088187               0.000538753               0.000450565               0.000000000               0.000000000               0.000000000               0.000000000               0.000260726               0.001598715               0.000028927              -0.000102067               0.000566922               0.000464855               0.000000000               0.000000000               0.000000000               0.000000000               0.000249260               0.001675705               0.000020023              -0.000115990               0.000597226               0.000481236               0.000000000               0.000000000               0.000000000               0.000000000               0.000232878               0.001749364               0.000009080              -0.000131341               0.000626896               0.000495555               0.000000000               0.000000000               0.000000000               0.000000000               0.000213621               0.001777186               0.000000231              -0.000142040               0.000639736               0.000497696               0.000000000               0.000000000               0.000000000               0.000000000               0.000181015               0.000185811               0.000128803               0.000044654               0.000047052               0.000091705               0.000000000               0.000000000               0.000000000               0.000000000               0.000194654               0.000303122               0.000149652               0.000035105               0.000089338               0.000124443               0.000000000               0.000000000               0.000000000               0.000000000               0.000204610               0.000487633               0.000159143               0.000015774               0.000157284               0.000173059               0.000000000               0.000000000               0.000000000               0.000000000               0.000218144               0.000643937               0.000144545               0.000001312               0.000214206               0.000215518               0.000000000               0.000000000               0.000000000               0.000000000               0.000234627               0.000784030               0.000125375              -0.000010019               0.000264680               0.000254662               0.000000000               0.000000000               0.000000000               0.000000000               0.000249329               0.000904387               0.000106450              -0.000019550               0.000307976               0.000288426               0.000000000               0.000000000               0.000000000               0.000000000               0.000262225               0.001006707               0.000086605              -0.000027504               0.000344734               0.000317230               0.000000000               0.000000000               0.000000000               0.000000000               0.000281622               0.001103797               0.000067321              -0.000032366               0.000378717               0.000346351               0.000000000               0.000000000               0.000000000               0.000000000               0.000306070               0.001201697               0.000052510              -0.000035436               0.000412373               0.000376938               0.000000000               0.000000000               0.000000000               0.000000000               0.000325776               0.001298876               0.000043388              -0.000040194               0.000446352               0.000406159               0.000000000               0.000000000               0.000000000               0.000000000               0.000334525               0.001388949               0.000039518              -0.000048172               0.000479035               0.000430864               0.000000000               0.000000000               0.000000000               0.000000000               0.000335754               0.001468184               0.000036115              -0.000057615               0.000508595               0.000450980               0.000000000               0.000000000               0.000000000               0.000000000               0.000332633               0.001540270               0.000032307              -0.000067796               0.000536017               0.000468221               0.000000000               0.000000000               0.000000000               0.000000000               0.000325769               0.001607571               0.000029030              -0.000078783               0.000562112               0.000483330               0.000000000               0.000000000               0.000000000               0.000000000               0.000317199               0.001673490               0.000021657              -0.000090236               0.000587903               0.000497667               0.000000000               0.000000000               0.000000000               0.000000000               0.000308954               0.001743867               0.000010943              -0.000102126               0.000615325               0.000513199               0.000000000               0.000000000               0.000000000               0.000000000               0.000297740               0.001776542               0.000003355              -0.000110415               0.000628980               0.000518565               0.000000000               0.000000000               0.000000000               0.000000000               0.000152553               0.000134776               0.000093752               0.000040360               0.000031472               0.000071832               0.000000000               0.000000000               0.000000000               0.000000000               0.000196398               0.000248816               0.000122036               0.000042547               0.000068755               0.000111302               0.000000000               0.000000000               0.000000000               0.000000000               0.000227647               0.000430267               0.000138825               0.000031584               0.000132893               0.000164477               0.000000000               0.000000000               0.000000000               0.000000000               0.000246757               0.000591021               0.000130093               0.000018656               0.000190786               0.000209442               0.000000000               0.000000000               0.000000000               0.000000000               0.000262707               0.000732098               0.000114760               0.000007003               0.000241696               0.000248699               0.000000000               0.000000000               0.000000000               0.000000000               0.000273001               0.000858053               0.000097245              -0.000004881               0.000287642               0.000282761               0.000000000               0.000000000               0.000000000               0.000000000               0.000284401               0.000973672               0.000080902              -0.000015059               0.000329574               0.000314515               0.000000000               0.000000000               0.000000000               0.000000000               0.000303272               0.001085614               0.000066384              -0.000021975               0.000369193               0.000347218               0.000000000               0.000000000               0.000000000               0.000000000               0.000326849               0.001192764               0.000052295              -0.000026527               0.000406426               0.000379899               0.000000000               0.000000000               0.000000000               0.000000000               0.000348864               0.001292030               0.000039937              -0.000030680               0.000440899               0.000410219               0.000000000               0.000000000               0.000000000               0.000000000               0.000364207               0.001382136               0.000032355              -0.000036189               0.000472771               0.000436581               0.000000000               0.000000000               0.000000000               0.000000000               0.000374751               0.001467327               0.000028531              -0.000042884               0.000503399               0.000460515               0.000000000               0.000000000               0.000000000               0.000000000               0.000383370               0.001547552               0.000025595              -0.000049680               0.000532406               0.000482725               0.000000000               0.000000000               0.000000000               0.000000000               0.000386597               0.001615651               0.000022824              -0.000056982               0.000557539               0.000500557               0.000000000               0.000000000               0.000000000               0.000000000               0.000385917               0.001676099               0.000018508              -0.000064793               0.000580292               0.000515499               0.000000000               0.000000000               0.000000000               0.000000000               0.000388781               0.001744745               0.000011702              -0.000072300               0.000605676               0.000533376               0.000000000               0.000000000               0.000000000               0.000000000               0.000386827               0.001780189               0.000006096              -0.000077463               0.000619212               0.000541748               0.000000000               0.000000000               0.000000000               0.000000000               0.000127048               0.000099914               0.000060769               0.000035153               0.000021587               0.000056740               0.000000000               0.000000000               0.000000000               0.000000000               0.000195145               0.000204671               0.000086389               0.000047595               0.000052358               0.000099953               0.000000000               0.000000000               0.000000000               0.000000000               0.000246684               0.000376634               0.000103646               0.000045427               0.000110401               0.000155828               0.000000000               0.000000000               0.000000000               0.000000000               0.000272435               0.000538340               0.000099194               0.000034870               0.000167822               0.000202692               0.000000000               0.000000000               0.000000000               0.000000000               0.000285731               0.000683357               0.000087408               0.000021729               0.000220540               0.000242270               0.000000000               0.000000000               0.000000000               0.000000000               0.000297124               0.000816650               0.000075255               0.000009340               0.000269101               0.000278441               0.000000000               0.000000000               0.000000000               0.000000000               0.000310632               0.000943118               0.000065001              -0.000001403               0.000314837               0.000313434               0.000000000               0.000000000               0.000000000               0.000000000               0.000326852               0.001063871               0.000054264              -0.000010414               0.000358092               0.000347677               0.000000000               0.000000000               0.000000000               0.000000000               0.000345110               0.001174272               0.000041608              -0.000017368               0.000397209               0.000379842               0.000000000               0.000000000               0.000000000               0.000000000               0.000364976               0.001274600               0.000029769              -0.000022459               0.000432349               0.000409890               0.000000000               0.000000000               0.000000000               0.000000000               0.000385616               0.001368951               0.000022548              -0.000026513               0.000465150               0.000438637               0.000000000               0.000000000               0.000000000               0.000000000               0.000406011               0.001463431               0.000019449              -0.000030675               0.000498030               0.000467356               0.000000000               0.000000000               0.000000000               0.000000000               0.000423151               0.001548818               0.000016912              -0.000034920               0.000527908               0.000492987               0.000000000               0.000000000               0.000000000               0.000000000               0.000434661               0.001618042               0.000013682              -0.000039257               0.000552428               0.000513171               0.000000000               0.000000000               0.000000000               0.000000000               0.000444260               0.001681434               0.000011189              -0.000043581               0.000575000               0.000531418               0.000000000               0.000000000               0.000000000               0.000000000               0.000456021               0.001748555               0.000007721              -0.000047562               0.000598700               0.000551138               0.000000000               0.000000000               0.000000000               0.000000000               0.000460773               0.001782299               0.000004242              -0.000049997               0.000610759               0.000560762               0.000000000               0.000000000               0.000000000               0.000000000               0.000110335               0.000077958               0.000028762               0.000031630               0.000015442               0.000047073               0.000000000               0.000000000               0.000000000               0.000000000               0.000195255               0.000175116               0.000044011               0.000051331               0.000041261               0.000092592               0.000000000               0.000000000               0.000000000               0.000000000               0.000259581               0.000339449               0.000055657               0.000054911               0.000094845               0.000149756               0.000000000               0.000000000               0.000000000               0.000000000               0.000287839               0.000499977               0.000053754               0.000045442               0.000151510               0.000196952               0.000000000               0.000000000               0.000000000               0.000000000               0.000303201               0.000648505               0.000047268               0.000032637               0.000205287               0.000237924               0.000000000               0.000000000               0.000000000               0.000000000               0.000317285               0.000788523               0.000041847               0.000020416               0.000256033               0.000276449               0.000000000               0.000000000               0.000000000               0.000000000               0.000329694               0.000919485               0.000036584               0.000008699               0.000303592               0.000312291               0.000000000               0.000000000               0.000000000               0.000000000               0.000342058               0.001041510               0.000030041              -0.000001917               0.000347806               0.000345889               0.000000000               0.000000000               0.000000000               0.000000000               0.000357898               0.001155117               0.000022684              -0.000010178               0.000388428               0.000378250               0.000000000               0.000000000               0.000000000               0.000000000               0.000378618               0.001261428               0.000016029              -0.000015697               0.000425704               0.000410007               0.000000000               0.000000000               0.000000000               0.000000000               0.000401965               0.001360278               0.000011732              -0.000019298               0.000459854               0.000440556               0.000000000               0.000000000               0.000000000               0.000000000               0.000426038               0.001456928               0.000009434              -0.000022352               0.000493088               0.000470737               0.000000000               0.000000000               0.000000000               0.000000000               0.000446900               0.001543359               0.000007331              -0.000025332               0.000522892               0.000497560               0.000000000               0.000000000               0.000000000               0.000000000               0.000463804               0.001615721               0.000005205              -0.000028039               0.000547915               0.000519876               0.000000000               0.000000000               0.000000000               0.000000000               0.000480585               0.001685057               0.000004121              -0.000030413               0.000571818               0.000541405               0.000000000               0.000000000               0.000000000               0.000000000               0.000497213               0.001752338               0.000002815              -0.000032587               0.000594969               0.000562382               0.000000000               0.000000000               0.000000000               0.000000000               0.000504723               0.001783962               0.000001366              -0.000033724               0.000605889               0.000572165               0.000000000               0.000000000               0.000000000               0.000000000               0.000105224               0.000070514              -0.000000000               0.000030645               0.000013290               0.000043934               0.000000000               0.000000000               0.000000000               0.000000000               0.000196150               0.000165783              -0.000000000               0.000052833               0.000037649               0.000090482               0.000000000               0.000000000               0.000000000               0.000000000               0.000264100               0.000327687              -0.000000000               0.000058076               0.000089869               0.000147945               0.000000000               0.000000000               0.000000000               0.000000000               0.000292449               0.000485336              -0.000000000               0.000049001               0.000145444               0.000194444               0.000000000               0.000000000               0.000000000               0.000000000               0.000311194               0.000635315              -0.000000000               0.000037283               0.000199342               0.000236625               0.000000000               0.000000000               0.000000000               0.000000000               0.000324672               0.000778950               0.000000000               0.000024383               0.000251520               0.000275903               0.000000000               0.000000000               0.000000000               0.000000000               0.000335261               0.000909902               0.000000000               0.000011985               0.000299303               0.000311288               0.000000000               0.000000000               0.000000000               0.000000000               0.000347530               0.001032490               0.000000000               0.000001262               0.000343739               0.000345002               0.000000000               0.000000000               0.000000000               0.000000000               0.000363865               0.001149154              -0.000000000              -0.000007195               0.000385446               0.000378251               0.000000000               0.000000000               0.000000000               0.000000000               0.000384249               0.001256177              -0.000000000              -0.000012929               0.000423031               0.000410102               0.000000000               0.000000000               0.000000000               0.000000000               0.000407272               0.001354927               0.000000000              -0.000016639               0.000457184               0.000440545               0.000000000               0.000000000               0.000000000               0.000000000               0.000432303               0.001453141               0.000000000              -0.000019529               0.000490885               0.000471356               0.000000000               0.000000000               0.000000000               0.000000000               0.000454771               0.001541063              -0.000000000              -0.000022094               0.000521047               0.000498953               0.000000000               0.000000000               0.000000000               0.000000000               0.000473618               0.001614738               0.000000000              -0.000024235               0.000546319               0.000522084               0.000000000               0.000000000               0.000000000               0.000000000               0.000492369               0.001686365               0.000000000              -0.000026157               0.000570835               0.000544678               0.000000000               0.000000000               0.000000000               0.000000000               0.000510027               0.001754117               0.000000000              -0.000028004               0.000594035               0.000566030               0.000000000               0.000000000               0.000000000               0.000000000               0.000517728               0.001784950              -0.000000000              -0.000028971               0.000604634               0.000575664               0.000000000               0.000000000               0.000000000               0.000000000               0.000098999               0.001088537               0.000000000              -0.000098942               0.000395823               0.000296881               0.000000000               0.000000000               0.000000000               0.000000000               0.000124158               0.000929787               0.000000000              -0.000069664               0.000333147               0.000263483               0.000000000               0.000000000               0.000000000               0.000000000               0.000187096               0.000803881              -0.000000000              -0.000030324               0.000278066               0.000247742               0.000000000               0.000000000               0.000000000               0.000000000               0.000214307               0.000741664              -0.000000000              -0.000012343               0.000251333               0.000238990               0.000000000               0.000000000               0.000000000               0.000000000               0.000224342               0.000709100              -0.000000000              -0.000004509               0.000237867               0.000233358               0.000000000               0.000000000               0.000000000               0.000000000               0.000226913               0.000696514               0.000000000              -0.000001972               0.000232826               0.000230854               0.000000000               0.000000000               0.000000000               0.000000000               0.000225889               0.000687071               0.000000000              -0.000001175               0.000229413               0.000228238               0.000000000               0.000000000               0.000000000               0.000000000               0.000229864               0.000676227               0.000000000               0.000001671               0.000224850               0.000226521               0.000000000               0.000000000               0.000000000               0.000000000               0.000232359               0.000657996              -0.000000000               0.000004885               0.000217702               0.000222587               0.000000000               0.000000000               0.000000000               0.000000000               0.000226399               0.000643267               0.000000000               0.000004491               0.000212923               0.000217414               0.000000000               0.000000000               0.000000000               0.000000000               0.000214280               0.000637020              -0.000000000               0.000000727               0.000212096               0.000212823               0.000000000               0.000000000               0.000000000               0.000000000               0.000195967               0.000637792              -0.000000000              -0.000006236               0.000214674               0.000208438               0.000000000               0.000000000               0.000000000               0.000000000               0.000168266               0.000646912               0.000000000              -0.000017764               0.000221556               0.000203792               0.000000000               0.000000000               0.000000000               0.000000000               0.000133611               0.000663717               0.000000000              -0.000032860               0.000232190               0.000199330               0.000000000               0.000000000               0.000000000               0.000000000               0.000093555               0.000687020               0.000000000              -0.000050794               0.000245936               0.000195142               0.000000000               0.000000000               0.000000000               0.000000000               0.000047476               0.000715990               0.000000000              -0.000071695               0.000262559               0.000190864               0.000000000               0.000000000               0.000000000               0.000000000               0.000027063               0.000742071               0.000000000              -0.000082610               0.000274891               0.000192281               0.000000000               0.000000000               0.000000000               0.000000000               0.000109994               0.001076759              -0.000085094              -0.000093347               0.000390032               0.000296685               0.000000000               0.000000000               0.000000000               0.000000000               0.000130180               0.000918172              -0.000058195              -0.000065954               0.000328039               0.000262085               0.000000000               0.000000000               0.000000000               0.000000000               0.000187618               0.000798572              -0.000028950              -0.000029465               0.000276010               0.000246545               0.000000000               0.000000000               0.000000000               0.000000000               0.000212063               0.000738370              -0.000014564              -0.000012773               0.000250378               0.000237606               0.000000000               0.000000000               0.000000000               0.000000000               0.000222413               0.000708763              -0.000005874              -0.000005190               0.000237982               0.000232792               0.000000000               0.000000000               0.000000000               0.000000000               0.000223431               0.000695895              -0.000002706              -0.000003200               0.000233029               0.000229829               0.000000000               0.000000000               0.000000000               0.000000000               0.000220628               0.000688575              -0.000005533              -0.000003336               0.000230635               0.000227298               0.000000000               0.000000000               0.000000000               0.000000000               0.000222037               0.000679107              -0.000013416              -0.000001625               0.000226908               0.000225284               0.000000000               0.000000000               0.000000000               0.000000000               0.000224852               0.000664332              -0.000019014               0.000001278               0.000221016               0.000222294               0.000000000               0.000000000               0.000000000               0.000000000               0.000219227               0.000653598              -0.000018821               0.000000510               0.000217694               0.000218204               0.000000000               0.000000000               0.000000000               0.000000000               0.000203781               0.000648643              -0.000019175              -0.000004663               0.000217766               0.000213104               0.000000000               0.000000000               0.000000000               0.000000000               0.000183547               0.000650505              -0.000018359              -0.000012483               0.000220994               0.000208511               0.000000000               0.000000000               0.000000000               0.000000000               0.000156427               0.000659753              -0.000015781              -0.000023809               0.000227852               0.000204043               0.000000000               0.000000000               0.000000000               0.000000000               0.000122334               0.000675129              -0.000013395              -0.000038516               0.000237879               0.000199363               0.000000000               0.000000000               0.000000000               0.000000000               0.000085007               0.000696708              -0.000010255              -0.000055211               0.000250637               0.000195427               0.000000000               0.000000000               0.000000000               0.000000000               0.000043884               0.000723152              -0.000005764              -0.000073937               0.000265694               0.000191757               0.000000000               0.000000000               0.000000000               0.000000000               0.000025617               0.000746076              -0.000004033              -0.000083653               0.000276574               0.000192921               0.000000000               0.000000000               0.000000000               0.000000000               0.000129977               0.001033815              -0.000161789              -0.000080485               0.000371430               0.000290945               0.000000000               0.000000000               0.000000000               0.000000000               0.000139257               0.000884006              -0.000110309              -0.000058279               0.000314092               0.000255813               0.000000000               0.000000000               0.000000000               0.000000000               0.000187117               0.000780211              -0.000055571              -0.000027358               0.000269187               0.000241829               0.000000000               0.000000000               0.000000000               0.000000000               0.000207187               0.000728314              -0.000027792              -0.000013344               0.000247217               0.000233873               0.000000000               0.000000000               0.000000000               0.000000000               0.000214181               0.000705771              -0.000012683              -0.000007904               0.000237889               0.000229986               0.000000000               0.000000000               0.000000000               0.000000000               0.000213066               0.000696748              -0.000006915              -0.000007194               0.000234645               0.000227451               0.000000000               0.000000000               0.000000000               0.000000000               0.000211538               0.000693799              -0.000011682              -0.000007398               0.000233730               0.000226332               0.000000000               0.000000000               0.000000000               0.000000000               0.000209025               0.000686818              -0.000025595              -0.000007468               0.000231426               0.000223959               0.000000000               0.000000000               0.000000000               0.000000000               0.000204073               0.000680282              -0.000033953              -0.000008508               0.000229594               0.000221087               0.000000000               0.000000000               0.000000000               0.000000000               0.000193795               0.000680329              -0.000033216              -0.000012368               0.000230897               0.000218529               0.000000000               0.000000000               0.000000000               0.000000000               0.000177728               0.000683789              -0.000032823              -0.000018826               0.000234203               0.000215377               0.000000000               0.000000000               0.000000000               0.000000000               0.000157883               0.000691593              -0.000030128              -0.000027243               0.000239610               0.000212367               0.000000000               0.000000000               0.000000000               0.000000000               0.000132221               0.000703077              -0.000025255              -0.000038302               0.000247124               0.000208822               0.000000000               0.000000000               0.000000000               0.000000000               0.000101980               0.000718024              -0.000020193              -0.000051511               0.000256509               0.000204998               0.000000000               0.000000000               0.000000000               0.000000000               0.000071231               0.000737816              -0.000014061              -0.000065515               0.000267775               0.000202260               0.000000000               0.000000000               0.000000000               0.000000000               0.000037788               0.000761146              -0.000007064              -0.000080972               0.000280703               0.000199731               0.000000000               0.000000000               0.000000000               0.000000000               0.000023420               0.000781187              -0.000005232              -0.000088866               0.000290015               0.000201149               0.000000000               0.000000000               0.000000000               0.000000000               0.000157207               0.000960699              -0.000226748              -0.000061135               0.000340608               0.000279473               0.000000000               0.000000000               0.000000000               0.000000000               0.000151215               0.000833997              -0.000152524              -0.000047544               0.000293844               0.000246300               0.000000000               0.000000000               0.000000000               0.000000000               0.000184385               0.000754028              -0.000075854              -0.000025109               0.000259710               0.000234601               0.000000000               0.000000000               0.000000000               0.000000000               0.000197748               0.000715765              -0.000039072              -0.000015315               0.000243691               0.000228376               0.000000000               0.000000000               0.000000000               0.000000000               0.000201068               0.000702840              -0.000019331              -0.000012455               0.000238429               0.000225975               0.000000000               0.000000000               0.000000000               0.000000000               0.000198850               0.000700836              -0.000012684              -0.000013036               0.000237955               0.000224919               0.000000000               0.000000000               0.000000000               0.000000000               0.000197408               0.000700963              -0.000020551              -0.000013592               0.000238183               0.000224590               0.000000000               0.000000000               0.000000000               0.000000000               0.000193807               0.000700955              -0.000037099              -0.000014942               0.000238630               0.000223688               0.000000000               0.000000000               0.000000000               0.000000000               0.000185678               0.000708831              -0.000044191              -0.000018975               0.000242600               0.000223625               0.000000000               0.000000000               0.000000000               0.000000000               0.000172881               0.000724193              -0.000041928              -0.000025694               0.000249960               0.000224266               0.000000000               0.000000000               0.000000000               0.000000000               0.000152678               0.000741545              -0.000041695              -0.000035439               0.000258992               0.000223553               0.000000000               0.000000000               0.000000000               0.000000000               0.000128102               0.000760606              -0.000039091              -0.000047038               0.000269212               0.000222175               0.000000000               0.000000000               0.000000000               0.000000000               0.000102530               0.000781236              -0.000033849              -0.000059206               0.000280145               0.000220939               0.000000000               0.000000000               0.000000000               0.000000000               0.000075913               0.000803299              -0.000027827              -0.000071945               0.000291745               0.000219800               0.000000000               0.000000000               0.000000000               0.000000000               0.000052005               0.000828507              -0.000019974              -0.000084061               0.000304187               0.000220125               0.000000000               0.000000000               0.000000000               0.000000000               0.000028463               0.000856647              -0.000010518              -0.000096407               0.000317682               0.000221275               0.000000000               0.000000000               0.000000000               0.000000000               0.000020189               0.000879188              -0.000008054              -0.000102327               0.000327169               0.000224842               0.000000000               0.000000000               0.000000000               0.000000000               0.000192015               0.000873655              -0.000269812              -0.000037202               0.000303616               0.000266414               0.000000000               0.000000000               0.000000000               0.000000000               0.000165939               0.000774465              -0.000180838              -0.000034581               0.000269680               0.000235098               0.000000000               0.000000000               0.000000000               0.000000000               0.000178049               0.000725415              -0.000090653              -0.000023909               0.000249772               0.000225863               0.000000000               0.000000000               0.000000000               0.000000000               0.000183529               0.000706125              -0.000048596              -0.000019442               0.000241853               0.000222411               0.000000000               0.000000000               0.000000000               0.000000000               0.000184723               0.000705596              -0.000027460              -0.000018928               0.000241506               0.000222577               0.000000000               0.000000000               0.000000000               0.000000000               0.000181869               0.000709540              -0.000021779              -0.000020491               0.000243341               0.000222850               0.000000000               0.000000000               0.000000000               0.000000000               0.000184251               0.000718159              -0.000030891              -0.000020676               0.000246276               0.000225600               0.000000000               0.000000000               0.000000000               0.000000000               0.000185564               0.000730309              -0.000046788              -0.000021702               0.000250668               0.000228966               0.000000000               0.000000000               0.000000000               0.000000000               0.000178243               0.000756042              -0.000052426              -0.000027664               0.000261233               0.000233569               0.000000000               0.000000000               0.000000000               0.000000000               0.000161458               0.000788968              -0.000049290              -0.000038074               0.000275678               0.000237604               0.000000000               0.000000000               0.000000000               0.000000000               0.000137243               0.000824561              -0.000048500              -0.000051604               0.000292052               0.000240448               0.000000000               0.000000000               0.000000000               0.000000000               0.000111627               0.000862195              -0.000045770              -0.000065914               0.000309367               0.000243453               0.000000000               0.000000000               0.000000000               0.000000000               0.000085604               0.000899934              -0.000040251              -0.000080390               0.000326772               0.000246382               0.000000000               0.000000000               0.000000000               0.000000000               0.000060809               0.000937920              -0.000033410              -0.000094436               0.000344116               0.000249679               0.000000000               0.000000000               0.000000000               0.000000000               0.000040892               0.000976373              -0.000023902              -0.000106712               0.000361025               0.000254313               0.000000000               0.000000000               0.000000000               0.000000000               0.000021717               0.001013670              -0.000012461              -0.000118564               0.000377408               0.000258844               0.000000000               0.000000000               0.000000000               0.000000000               0.000016522               0.001039857              -0.000009490              -0.000123786               0.000387878               0.000264091               0.000000000               0.000000000               0.000000000               0.000000000               0.000218799               0.000776875              -0.000293314              -0.000015060               0.000263976               0.000248916               0.000000000               0.000000000               0.000000000               0.000000000               0.000175349               0.000709196              -0.000196923              -0.000022894               0.000244027               0.000221134               0.000000000               0.000000000               0.000000000               0.000000000               0.000168886               0.000697636              -0.000099357              -0.000023872               0.000240500               0.000216628               0.000000000               0.000000000               0.000000000               0.000000000               0.000166875               0.000701516              -0.000056736              -0.000025112               0.000242207               0.000217095               0.000000000               0.000000000               0.000000000               0.000000000               0.000165219               0.000716455              -0.000037927              -0.000027600               0.000248016               0.000220416               0.000000000               0.000000000               0.000000000               0.000000000               0.000168550               0.000733986              -0.000033100              -0.000028542               0.000254174               0.000225632               0.000000000               0.000000000               0.000000000               0.000000000               0.000176423               0.000755254              -0.000042065              -0.000028248               0.000261165               0.000232917               0.000000000               0.000000000               0.000000000               0.000000000               0.000180681               0.000788026              -0.000055161              -0.000030748               0.000272922               0.000242174               0.000000000               0.000000000               0.000000000               0.000000000               0.000177349               0.000837080              -0.000055875              -0.000038129               0.000291733               0.000253605               0.000000000               0.000000000               0.000000000               0.000000000               0.000163043               0.000892497              -0.000051453              -0.000050421               0.000314303               0.000263882               0.000000000               0.000000000               0.000000000               0.000000000               0.000139130               0.000946280              -0.000049385              -0.000066111               0.000337460               0.000271349               0.000000000               0.000000000               0.000000000               0.000000000               0.000112183               0.000999776              -0.000045890              -0.000082903               0.000360890               0.000277987               0.000000000               0.000000000               0.000000000               0.000000000               0.000085454               0.001052492              -0.000039903              -0.000099516               0.000383999               0.000284483               0.000000000               0.000000000               0.000000000               0.000000000               0.000062350               0.001103932              -0.000032236              -0.000114610               0.000406177               0.000291567               0.000000000               0.000000000               0.000000000               0.000000000               0.000042027               0.001152915              -0.000022756              -0.000128354               0.000427086               0.000298732               0.000000000               0.000000000               0.000000000               0.000000000               0.000021235               0.001196290              -0.000011843              -0.000141573               0.000445950               0.000304378               0.000000000               0.000000000               0.000000000               0.000000000               0.000016125               0.001225062              -0.000009345              -0.000147085               0.000457378               0.000310293               0.000000000               0.000000000               0.000000000               0.000000000               0.000236900               0.000673696              -0.000297784               0.000004625               0.000223021               0.000227646               0.000000000               0.000000000               0.000000000               0.000000000               0.000178819               0.000646669              -0.000200993              -0.000013777               0.000220146               0.000206370               0.000000000               0.000000000               0.000000000               0.000000000               0.000156315               0.000676724              -0.000104649              -0.000025972               0.000234230               0.000208258               0.000000000               0.000000000               0.000000000               0.000000000               0.000151435               0.000706152              -0.000066185              -0.000031481               0.000245875               0.000214395               0.000000000               0.000000000               0.000000000               0.000000000               0.000152393               0.000739926              -0.000048543              -0.000035343               0.000258421               0.000223077               0.000000000               0.000000000               0.000000000               0.000000000               0.000160859               0.000779253              -0.000044836              -0.000037084               0.000272110               0.000235025               0.000000000               0.000000000               0.000000000               0.000000000               0.000176510               0.000826990              -0.000050078              -0.000037182               0.000288055               0.000250872               0.000000000               0.000000000               0.000000000               0.000000000               0.000188775               0.000888739              -0.000057293              -0.000040302               0.000309677               0.000269376               0.000000000               0.000000000               0.000000000               0.000000000               0.000184429               0.000957691              -0.000054496              -0.000050550               0.000336077               0.000285527               0.000000000               0.000000000               0.000000000               0.000000000               0.000167323               0.001028507              -0.000049893              -0.000065817               0.000364771               0.000298954               0.000000000               0.000000000               0.000000000               0.000000000               0.000144092               0.001093849              -0.000048653              -0.000082696               0.000392178               0.000309482               0.000000000               0.000000000               0.000000000               0.000000000               0.000119049               0.001155798              -0.000044152              -0.000099831               0.000418539               0.000318708               0.000000000               0.000000000               0.000000000               0.000000000               0.000093502               0.001215504              -0.000037104              -0.000116875               0.000444122               0.000327248               0.000000000               0.000000000               0.000000000               0.000000000               0.000070973               0.001271714              -0.000028352              -0.000132349               0.000468017               0.000335668               0.000000000               0.000000000               0.000000000               0.000000000               0.000047098               0.001322472              -0.000018878              -0.000147647               0.000490035               0.000342388               0.000000000               0.000000000               0.000000000               0.000000000               0.000021908               0.001367197              -0.000010063              -0.000162684               0.000509956               0.000347272               0.000000000               0.000000000               0.000000000               0.000000000               0.000015038               0.001396244              -0.000008572              -0.000168891               0.000521707               0.000352816               0.000000000               0.000000000               0.000000000               0.000000000               0.000247497               0.000575670              -0.000282165               0.000020852               0.000184937               0.000205789               0.000000000               0.000000000               0.000000000               0.000000000               0.000178591               0.000592450              -0.000197183              -0.000007085               0.000199843               0.000192758               0.000000000               0.000000000               0.000000000               0.000000000               0.000146159               0.000665210              -0.000111277              -0.000028342               0.000231182               0.000202840               0.000000000               0.000000000               0.000000000               0.000000000               0.000142023               0.000721675              -0.000076430              -0.000036951               0.000252873               0.000215922               0.000000000               0.000000000               0.000000000               0.000000000               0.000149931               0.000782066              -0.000059499              -0.000041534               0.000274531               0.000232997               0.000000000               0.000000000               0.000000000               0.000000000               0.000170707               0.000850690              -0.000052445              -0.000042321               0.000297668               0.000255347               0.000000000               0.000000000               0.000000000               0.000000000               0.000194540               0.000926776              -0.000054322              -0.000042894               0.000323220               0.000280326               0.000000000               0.000000000               0.000000000               0.000000000               0.000205833               0.001006363              -0.000058866              -0.000048608               0.000351654               0.000303046               0.000000000               0.000000000               0.000000000               0.000000000               0.000197356               0.001090833              -0.000055330              -0.000062345               0.000384389               0.000322044               0.000000000               0.000000000               0.000000000               0.000000000               0.000176290               0.001168770              -0.000050269              -0.000079987               0.000416249               0.000336261               0.000000000               0.000000000               0.000000000               0.000000000               0.000150105               0.001237869              -0.000048152              -0.000098444               0.000445434               0.000346990               0.000000000               0.000000000               0.000000000               0.000000000               0.000124421               0.001303557              -0.000040868              -0.000116287               0.000473277               0.000356990               0.000000000               0.000000000               0.000000000               0.000000000               0.000100274               0.001367359              -0.000030786              -0.000133317               0.000500221               0.000366904               0.000000000               0.000000000               0.000000000               0.000000000               0.000075563               0.001427882              -0.000021960              -0.000150149               0.000526005               0.000375857               0.000000000               0.000000000               0.000000000               0.000000000               0.000048065               0.001482524              -0.000013216              -0.000167291               0.000549933               0.000382642               0.000000000               0.000000000               0.000000000               0.000000000               0.000021967               0.001532370              -0.000005670              -0.000183308               0.000571887               0.000388579               0.000000000               0.000000000               0.000000000               0.000000000               0.000014347               0.001565383              -0.000005574              -0.000190292               0.000585220               0.000394928               0.000000000               0.000000000               0.000000000               0.000000000               0.000250619               0.000493089              -0.000257337               0.000032346               0.000153579               0.000185925               0.000000000               0.000000000               0.000000000               0.000000000               0.000180035               0.000546831              -0.000191921              -0.000000841               0.000182556               0.000181714               0.000000000               0.000000000               0.000000000               0.000000000               0.000141456               0.000658362              -0.000121169              -0.000029249               0.000229201               0.000199952               0.000000000               0.000000000               0.000000000               0.000000000               0.000141941               0.000742321              -0.000087704              -0.000039562               0.000260625               0.000221063               0.000000000               0.000000000               0.000000000               0.000000000               0.000158173               0.000829586              -0.000069554              -0.000044383               0.000291320               0.000246937               0.000000000               0.000000000               0.000000000               0.000000000               0.000187074               0.000919623              -0.000060042              -0.000044800               0.000321471               0.000276671               0.000000000               0.000000000               0.000000000               0.000000000               0.000217119               0.001008151              -0.000058754              -0.000044599               0.000350914               0.000306314               0.000000000               0.000000000               0.000000000               0.000000000               0.000228874               0.001098307              -0.000057767              -0.000051461               0.000383252               0.000331792               0.000000000               0.000000000               0.000000000               0.000000000               0.000217474               0.001190396              -0.000053386              -0.000067247               0.000419210               0.000351963               0.000000000               0.000000000               0.000000000               0.000000000               0.000192863               0.001268663              -0.000048906              -0.000086259               0.000451636               0.000365377               0.000000000               0.000000000               0.000000000               0.000000000               0.000166719               0.001338653              -0.000044073              -0.000104812               0.000481151               0.000376339               0.000000000               0.000000000               0.000000000               0.000000000               0.000139612               0.001408832              -0.000034238              -0.000123749               0.000510856               0.000387106               0.000000000               0.000000000               0.000000000               0.000000000               0.000114873               0.001479421              -0.000022275              -0.000141850               0.000540419               0.000398569               0.000000000               0.000000000               0.000000000               0.000000000               0.000089320               0.001547876              -0.000012973              -0.000159989               0.000569283               0.000409294               0.000000000               0.000000000               0.000000000               0.000000000               0.000064199               0.001613219              -0.000005781              -0.000177577               0.000596927               0.000419349               0.000000000               0.000000000               0.000000000               0.000000000               0.000045460               0.001675719               0.000000825              -0.000192417               0.000622706               0.000430290               0.000000000               0.000000000               0.000000000               0.000000000               0.000037669               0.001711796               0.000002543              -0.000199848               0.000637209               0.000437361               0.000000000               0.000000000               0.000000000               0.000000000               0.000245828               0.000409591              -0.000231735               0.000040986               0.000122867               0.000163853               0.000000000               0.000000000               0.000000000               0.000000000               0.000182462               0.000486641              -0.000188205               0.000007593               0.000159681               0.000167274               0.000000000               0.000000000               0.000000000               0.000000000               0.000145794               0.000628154              -0.000137432              -0.000023846               0.000217331               0.000193485               0.000000000               0.000000000               0.000000000               0.000000000               0.000151559               0.000738715              -0.000107594              -0.000035505               0.000258071               0.000222566               0.000000000               0.000000000               0.000000000               0.000000000               0.000171833               0.000844328              -0.000088352              -0.000041104               0.000295141               0.000254037               0.000000000               0.000000000               0.000000000               0.000000000               0.000202634               0.000949490              -0.000077277              -0.000042699               0.000330726               0.000288028               0.000000000               0.000000000               0.000000000               0.000000000               0.000233108               0.001045822              -0.000068387              -0.000043312               0.000363041               0.000319729               0.000000000               0.000000000               0.000000000               0.000000000               0.000249374               0.001132132              -0.000059440              -0.000048001               0.000393374               0.000345373               0.000000000               0.000000000               0.000000000               0.000000000               0.000244169               0.001215903              -0.000053211              -0.000060424               0.000425438               0.000365014               0.000000000               0.000000000               0.000000000               0.000000000               0.000224467               0.001295052              -0.000049390              -0.000077706               0.000457582               0.000379875               0.000000000               0.000000000               0.000000000               0.000000000               0.000200983               0.001366243              -0.000043132              -0.000095412               0.000487213               0.000391802               0.000000000               0.000000000               0.000000000               0.000000000               0.000176165               0.001436213              -0.000033992              -0.000113465               0.000516554               0.000403090               0.000000000               0.000000000               0.000000000               0.000000000               0.000154091               0.001510310              -0.000024945              -0.000131004               0.000547100               0.000416095               0.000000000               0.000000000               0.000000000               0.000000000               0.000134625               0.001588080              -0.000015237              -0.000148025               0.000578696               0.000430671               0.000000000               0.000000000               0.000000000               0.000000000               0.000113479               0.001662548              -0.000007206              -0.000165264               0.000609265               0.000444001               0.000000000               0.000000000               0.000000000               0.000000000               0.000097320               0.001738310              -0.000002613              -0.000180793               0.000639695               0.000458902               0.000000000               0.000000000               0.000000000               0.000000000               0.000085538               0.001774690               0.000001591              -0.000189759               0.000654810               0.000465051               0.000000000               0.000000000               0.000000000               0.000000000               0.000233286               0.000326836              -0.000201136               0.000046627               0.000093402               0.000140029               0.000000000               0.000000000               0.000000000               0.000000000               0.000185968               0.000423359              -0.000181687               0.000016818               0.000135512               0.000152330               0.000000000               0.000000000               0.000000000               0.000000000               0.000160021               0.000589963              -0.000153796              -0.000013738               0.000201232               0.000187494               0.000000000               0.000000000               0.000000000               0.000000000               0.000169407               0.000719858              -0.000128710              -0.000026455               0.000248768               0.000222314               0.000000000               0.000000000               0.000000000               0.000000000               0.000188482               0.000838777              -0.000108199              -0.000034166               0.000290978               0.000256812               0.000000000               0.000000000               0.000000000               0.000000000               0.000213291               0.000954927              -0.000092160              -0.000039382               0.000331433               0.000292051               0.000000000               0.000000000               0.000000000               0.000000000               0.000238286               0.001053197              -0.000076836              -0.000042292               0.000365159               0.000322867               0.000000000               0.000000000               0.000000000               0.000000000               0.000259242               0.001134319              -0.000061695              -0.000044574               0.000392961               0.000348387               0.000000000               0.000000000               0.000000000               0.000000000               0.000267394               0.001214512              -0.000051110              -0.000051541               0.000422014               0.000370472               0.000000000               0.000000000               0.000000000               0.000000000               0.000260597               0.001296825              -0.000046847              -0.000064379               0.000453730               0.000389351               0.000000000               0.000000000               0.000000000               0.000000000               0.000245699               0.001373243              -0.000042108              -0.000079518               0.000484249               0.000404731               0.000000000               0.000000000               0.000000000               0.000000000               0.000229681               0.001445106              -0.000037010              -0.000094508               0.000513200               0.000418692               0.000000000               0.000000000               0.000000000               0.000000000               0.000212450               0.001516654              -0.000031631              -0.000109913               0.000542184               0.000432271               0.000000000               0.000000000               0.000000000               0.000000000               0.000196272               0.001591637              -0.000022513              -0.000125352               0.000572325               0.000446972               0.000000000               0.000000000               0.000000000               0.000000000               0.000180947               0.001670201              -0.000013375              -0.000140919               0.000603701               0.000462782               0.000000000               0.000000000               0.000000000               0.000000000               0.000163750               0.001747607              -0.000006660              -0.000157044               0.000634878               0.000477834               0.000000000               0.000000000               0.000000000               0.000000000               0.000145034               0.001777050               0.000000608              -0.000167743               0.000648258               0.000480515               0.000000000               0.000000000               0.000000000               0.000000000               0.000210183               0.000251314              -0.000165365               0.000047404               0.000067969               0.000115373               0.000000000               0.000000000               0.000000000               0.000000000               0.000190048               0.000362664              -0.000169046               0.000025935               0.000112242               0.000138177               0.000000000               0.000000000               0.000000000               0.000000000               0.000180478               0.000543177              -0.000163114              -0.000000218               0.000181130               0.000180912               0.000000000               0.000000000               0.000000000               0.000000000               0.000192302               0.000687268              -0.000143320              -0.000013795               0.000233685               0.000219890               0.000000000               0.000000000               0.000000000               0.000000000               0.000209103               0.000820741              -0.000121884              -0.000024179               0.000281637               0.000257458               0.000000000               0.000000000               0.000000000               0.000000000               0.000227961               0.000941855              -0.000102990              -0.000032246               0.000324697               0.000292451               0.000000000               0.000000000               0.000000000               0.000000000               0.000247494               0.001039655              -0.000084026              -0.000037147               0.000358930               0.000321784               0.000000000               0.000000000               0.000000000               0.000000000               0.000267343               0.001122392              -0.000064593              -0.000040045               0.000387475               0.000347430               0.000000000               0.000000000               0.000000000               0.000000000               0.000285825               0.001206840              -0.000050913              -0.000043671               0.000416833               0.000373162               0.000000000               0.000000000               0.000000000               0.000000000               0.000294370               0.001296016              -0.000044640              -0.000051613               0.000449205               0.000397592               0.000000000               0.000000000               0.000000000               0.000000000               0.000292953               0.001382265              -0.000041821              -0.000062926               0.000481726               0.000418800               0.000000000               0.000000000               0.000000000               0.000000000               0.000286626               0.001459295              -0.000038835              -0.000074927               0.000511402               0.000436476               0.000000000               0.000000000               0.000000000               0.000000000               0.000274195               0.001528086              -0.000034857              -0.000088187               0.000538753               0.000450565               0.000000000               0.000000000               0.000000000               0.000000000               0.000260726               0.001598715              -0.000028927              -0.000102067               0.000566922               0.000464855               0.000000000               0.000000000               0.000000000               0.000000000               0.000249260               0.001675705              -0.000020023              -0.000115990               0.000597226               0.000481236               0.000000000               0.000000000               0.000000000               0.000000000               0.000232878               0.001749364              -0.000009080              -0.000131341               0.000626896               0.000495555               0.000000000               0.000000000               0.000000000               0.000000000               0.000213621               0.001777186              -0.000000231              -0.000142040               0.000639736               0.000497696               0.000000000               0.000000000               0.000000000               0.000000000               0.000181015               0.000185811              -0.000128803               0.000044654               0.000047052               0.000091705               0.000000000               0.000000000               0.000000000               0.000000000               0.000194654               0.000303122              -0.000149652               0.000035105               0.000089338               0.000124443               0.000000000               0.000000000               0.000000000               0.000000000               0.000204610               0.000487633              -0.000159143               0.000015774               0.000157284               0.000173059               0.000000000               0.000000000               0.000000000               0.000000000               0.000218144               0.000643937              -0.000144545               0.000001312               0.000214206               0.000215518               0.000000000               0.000000000               0.000000000               0.000000000               0.000234627               0.000784030              -0.000125375              -0.000010019               0.000264680               0.000254662               0.000000000               0.000000000               0.000000000               0.000000000               0.000249329               0.000904387              -0.000106450              -0.000019550               0.000307976               0.000288426               0.000000000               0.000000000               0.000000000               0.000000000               0.000262225               0.001006707              -0.000086605              -0.000027504               0.000344734               0.000317230               0.000000000               0.000000000               0.000000000               0.000000000               0.000281622               0.001103797              -0.000067321              -0.000032366               0.000378717               0.000346351               0.000000000               0.000000000               0.000000000               0.000000000               0.000306070               0.001201697              -0.000052510              -0.000035436               0.000412373               0.000376938               0.000000000               0.000000000               0.000000000               0.000000000               0.000325776               0.001298876              -0.000043388              -0.000040194               0.000446352               0.000406159               0.000000000               0.000000000               0.000000000               0.000000000               0.000334525               0.001388949              -0.000039518              -0.000048172               0.000479035               0.000430864               0.000000000               0.000000000               0.000000000               0.000000000               0.000335754               0.001468184              -0.000036115              -0.000057615               0.000508595               0.000450980               0.000000000               0.000000000               0.000000000               0.000000000               0.000332633               0.001540270              -0.000032307              -0.000067796               0.000536017               0.000468221               0.000000000               0.000000000               0.000000000               0.000000000               0.000325769               0.001607571              -0.000029030              -0.000078783               0.000562112               0.000483330               0.000000000               0.000000000               0.000000000               0.000000000               0.000317199               0.001673490              -0.000021657              -0.000090236               0.000587903               0.000497667               0.000000000               0.000000000               0.000000000               0.000000000               0.000308954               0.001743867              -0.000010943              -0.000102126               0.000615325               0.000513199               0.000000000               0.000000000               0.000000000               0.000000000               0.000297740               0.001776542              -0.000003355              -0.000110415               0.000628980               0.000518565               0.000000000               0.000000000               0.000000000               0.000000000               0.000152553               0.000134776              -0.000093752               0.000040360               0.000031472               0.000071832               0.000000000               0.000000000               0.000000000               0.000000000               0.000196398               0.000248816              -0.000122036               0.000042547               0.000068755               0.000111302               0.000000000               0.000000000               0.000000000               0.000000000               0.000227647               0.000430267              -0.000138825               0.000031584               0.000132893               0.000164477               0.000000000               0.000000000               0.000000000               0.000000000               0.000246757               0.000591021              -0.000130093               0.000018656               0.000190786               0.000209442               0.000000000               0.000000000               0.000000000               0.000000000               0.000262707               0.000732098              -0.000114760               0.000007003               0.000241696               0.000248699               0.000000000               0.000000000               0.000000000               0.000000000               0.000273001               0.000858053              -0.000097245              -0.000004881               0.000287642               0.000282761               0.000000000               0.000000000               0.000000000               0.000000000               0.000284401               0.000973672              -0.000080902              -0.000015059               0.000329574               0.000314515               0.000000000               0.000000000               0.000000000               0.000000000               0.000303272               0.001085614              -0.000066384              -0.000021975               0.000369193               0.000347218               0.000000000               0.000000000               0.000000000               0.000000000               0.000326849               0.001192764              -0.000052295              -0.000026527               0.000406426               0.000379899               0.000000000               0.000000000               0.000000000               0.000000000               0.000348864               0.001292030              -0.000039937              -0.000030680               0.000440899               0.000410219               0.000000000               0.000000000               0.000000000               0.000000000               0.000364207               0.001382136              -0.000032355              -0.000036189               0.000472771               0.000436581               0.000000000               0.000000000               0.000000000               0.000000000               0.000374751               0.001467327              -0.000028531              -0.000042884               0.000503399               0.000460515               0.000000000               0.000000000               0.000000000               0.000000000               0.000383370               0.001547552              -0.000025595              -0.000049680               0.000532406               0.000482725               0.000000000               0.000000000               0.000000000               0.000000000               0.000386597               0.001615651              -0.000022824              -0.000056982               0.000557539               0.000500557               0.000000000               0.000000000               0.000000000               0.000000000               0.000385917               0.001676099              -0.000018508              -0.000064793               0.000580292               0.000515499               0.000000000               0.000000000               0.000000000               0.000000000               0.000388781               0.001744745              -0.000011702              -0.000072300               0.000605676               0.000533376               0.000000000               0.000000000               0.000000000               0.000000000               0.000386827               0.001780189              -0.000006096              -0.000077463               0.000619212               0.000541748               0.000000000               0.000000000               0.000000000               0.000000000               0.000127048               0.000099914              -0.000060769               0.000035153               0.000021587               0.000056740               0.000000000               0.000000000               0.000000000               0.000000000               0.000195145               0.000204671              -0.000086389               0.000047595               0.000052358               0.000099953               0.000000000               0.000000000               0.000000000               0.000000000               0.000246684               0.000376634              -0.000103646               0.000045427               0.000110401               0.000155828               0.000000000               0.000000000               0.000000000               0.000000000               0.000272435               0.000538340              -0.000099194               0.000034870               0.000167822               0.000202692               0.000000000               0.000000000               0.000000000               0.000000000               0.000285731               0.000683357              -0.000087408               0.000021729               0.000220540               0.000242270               0.000000000               0.000000000               0.000000000               0.000000000               0.000297124               0.000816650              -0.000075255               0.000009340               0.000269101               0.000278441               0.000000000               0.000000000               0.000000000               0.000000000               0.000310632               0.000943118              -0.000065001              -0.000001403               0.000314837               0.000313434               0.000000000               0.000000000               0.000000000               0.000000000               0.000326852               0.001063871              -0.000054264              -0.000010414               0.000358092               0.000347677               0.000000000               0.000000000               0.000000000               0.000000000               0.000345110               0.001174272              -0.000041608              -0.000017368               0.000397209               0.000379842               0.000000000               0.000000000               0.000000000               0.000000000               0.000364976               0.001274600              -0.000029769              -0.000022459               0.000432349               0.000409890               0.000000000               0.000000000               0.000000000               0.000000000               0.000385616               0.001368951              -0.000022548              -0.000026513               0.000465150               0.000438637               0.000000000               0.000000000               0.000000000               0.000000000               0.000406011               0.001463431              -0.000019449              -0.000030675               0.000498030               0.000467356               0.000000000               0.000000000               0.000000000               0.000000000               0.000423151               0.001548818              -0.000016912              -0.000034920               0.000527908               0.000492987               0.000000000               0.000000000               0.000000000               0.000000000               0.000434661               0.001618042              -0.000013682              -0.000039257               0.000552428               0.000513171               0.000000000               0.000000000               0.000000000               0.000000000               0.000444260               0.001681434              -0.000011189              -0.000043581               0.000575000               0.000531418               0.000000000               0.000000000               0.000000000               0.000000000               0.000456021               0.001748555              -0.000007721              -0.000047562               0.000598700               0.000551138               0.000000000               0.000000000               0.000000000               0.000000000               0.000460773               0.001782299              -0.000004242              -0.000049997               0.000610759               0.000560762               0.000000000               0.000000000               0.000000000               0.000000000               0.000110335               0.000077958              -0.000028762               0.000031630               0.000015442               0.000047073               0.000000000               0.000000000               0.000000000               0.000000000               0.000195255               0.000175116              -0.000044011               0.000051331               0.000041261               0.000092592               0.000000000               0.000000000               0.000000000               0.000000000               0.000259581               0.000339449              -0.000055657               0.000054911               0.000094845               0.000149756               0.000000000               0.000000000               0.000000000               0.000000000               0.000287839               0.000499977              -0.000053754               0.000045442               0.000151510               0.000196952               0.000000000               0.000000000               0.000000000               0.000000000               0.000303201               0.000648505              -0.000047268               0.000032637               0.000205287               0.000237924               0.000000000               0.000000000               0.000000000               0.000000000               0.000317285               0.000788523              -0.000041847               0.000020416               0.000256033               0.000276449               0.000000000               0.000000000               0.000000000               0.000000000               0.000329694               0.000919485              -0.000036584               0.000008699               0.000303592               0.000312291               0.000000000               0.000000000               0.000000000               0.000000000               0.000342058               0.001041510              -0.000030041              -0.000001917               0.000347806               0.000345889               0.000000000               0.000000000               0.000000000               0.000000000               0.000357898               0.001155117              -0.000022684              -0.000010178               0.000388428               0.000378250               0.000000000               0.000000000               0.000000000               0.000000000               0.000378618               0.001261428              -0.000016029              -0.000015697               0.000425704               0.000410007               0.000000000               0.000000000               0.000000000               0.000000000               0.000401965               0.001360278              -0.000011732              -0.000019298               0.000459854               0.000440556               0.000000000               0.000000000               0.000000000               0.000000000               0.000426038               0.001456928              -0.000009434              -0.000022352               0.000493088               0.000470737               0.000000000               0.000000000               0.000000000               0.000000000               0.000446900               0.001543359              -0.000007331              -0.000025332               0.000522892               0.000497560               0.000000000               0.000000000               0.000000000               0.000000000               0.000463804               0.001615721              -0.000005205              -0.000028039               0.000547915               0.000519876               0.000000000               0.000000000               0.000000000               0.000000000               0.000480585               0.001685057              -0.000004121              -0.000030413               0.000571818               0.000541405               0.000000000               0.000000000               0.000000000               0.000000000               0.000497213               0.001752338              -0.000002815              -0.000032587               0.000594969               0.000562382               0.000000000               0.000000000               0.000000000               0.000000000               0.000504723               0.001783962              -0.000001366              -0.000033724               0.000605889               0.000572165               0.000000000               0.000000000               0.000000000               0.000000000               0.000000000               0.000000000               0.000000000               0.000000000               0.000000000               0.000000000               0.000000000               0.000000000               0.000000000               0.000000000               0.000000000               0.000000000               0.000000000               0.000000000               0.000000000               0.000000000               0.000000000               0.000000000               0.000000000               0.000000000               0.000000000               0.000000000               0.000000000               0.000000000               0.000000000               0.000000000               0.000000000               0.000000000               0.000000000               0.000000000               0.000000000               0.000000000               0.000000000               0.000000000               0.000000000               0.000000000               0.000000000               0.000000000               0.000000000               0.000000000               0.000000000               0.000000000               0.000000000               0.000000000               0.000000000               0.000000000               0.000000000               0.000000000               0.000000000               0.000000000               0.000000000               0.000000000               0.000000000               0.000000000               0.000000000               0.000000000               0.000000000               0.000000000               0.000000000               0.000000000               0.000000000               0.000000000               0.000000000               0.000000000               0.000000000               0.000000000               0.000000000               0.000000000               0.000000000               0.000000000               0.000000000               0.000000000               0.000000000               0.000000000               0.000000000               0.000000000               0.000000000               0.000000000               0.000000000               0.000000000               0.000000000               0.000000000               0.000000000               0.000000000               0.000000000               0.000000000               0.000000000               0.000000000               0.000000000               0.000000000               0.000000000               0.000000000               0.000000000               0.000000000               0.000000000               0.000000000               0.000000000               0.000000000               0.000000000               0.000000000               0.000000000               0.000000000               0.000000000               0.000000000               0.000000000               0.000000000               0.000000000               0.000000000               0.000000000               0.000000000               0.000000000               0.000000000               0.000000000               0.000000000               0.000000000               0.000000000               0.000000000               0.000000000               0.000000000               0.000000000               0.000000000               0.000000000               0.000000000               0.000000000               0.000000000               0.000000000               0.000000000               0.000000000               0.000000000               0.000000000               0.000000000               0.000000000               0.000000000               0.000000000               0.000000000               0.000000000               0.000000000               0.000000000               0.000000000               0.000000000               0.000000000               0.000000000               0.000000000               0.000000000               0.000000000               0.000000000               0.000000000               0.000000000               0.000000000               0.000000000               0.000000000               0.000000000               0.000000000               0.000000000               0.000000000               0.000000000               0.000000000               0.000000000               0.000000000               0.000000000               0.000000000               0.000000000               0.000000000               0.000000000               0.000000000               0.000000000               0.000000000               0.000000000               0.000000000               0.000000000               0.000000000               0.000000000               0.000000000               0.000000000               0.000000000               0.000000000               0.000000000               0.000000000               0.000000000               0.000000000               0.000000000               0.000000000               0.000000000               0.000000000               0.000000000               0.000000000               0.000000000               0.000000000               0.000000000               0.000000000               0.000000000               0.000000000               0.000000000               0.000000000               0.000000000               0.000000000               0.000000000               0.000000000               0.000000000               0.000000000               0.000000000               0.000000000               0.000000000               0.000000000               0.000000000               0.000000000               0.000000000               0.000000000               0.000000000               0.000000000               0.000000000               0.000000000               0.000000000               0.000000000               0.000000000               0.000000000               0.000000000               0.000000000               0.000000000               0.000000000               0.000000000               0.000000000               0.000000000               0.000000000               0.000000000               0.000000000               0.000000000               0.000000000               0.000000000               0.000000000               0.000000000               0.000000000               0.000000000               0.000000000               0.000000000               0.000000000               0.000000000               0.000000000               0.000000000               0.000000000               0.000000000               0.000000000               0.000000000               0.000000000               0.000000000               0.000000000               0.000000000               0.000000000               0.000000000               0.000000000               0.000000000               0.000000000               0.000000000               0.000000000               0.000000000               0.000000000               0.000000000               0.000000000               0.000000000               0.000000000               0.000000000               0.000000000               0.000000000               0.000000000               0.000000000               0.000000000               0.000000000               0.000000000               0.000000000               0.000000000               0.000000000               0.000000000               0.000000000               0.000000000               0.000000000               0.000000000               0.000000000               0.000000000               0.000000000               0.000000000               0.000000000               0.000000000               0.000000000               0.000000000               0.000000000               0.000000000               0.000000000               0.000000000               0.000000000               0.000000000               0.000000000               0.000000000               0.000000000               0.000000000               0.000000000               0.000000000               0.000000000               0.000000000               0.000000000               0.000000000               0.000000000               0.000000000               0.000000000               0.000000000               0.000000000               0.000000000               0.000000000               0.000000000               0.000000000               0.000000000               0.000000000               0.000000000               0.000000000               0.000000000               0.000000000               0.000000000               0.000000000               0.000000000               0.000000000               0.000000000               0.000000000               0.000000000               0.000000000               0.000000000               0.000000000               0.000000000               0.000000000               0.000000000               0.000000000               0.000000000               0.000000000               0.000000000               0.000000000               0.000000000               0.000000000               0.000000000               0.000000000               0.000000000               0.000000000               0.000000000               0.000109994               0.001076759               0.000085094              -0.000093347               0.000390032               0.000296685               0.000000000               0.000000000               0.000000000               0.000000000               0.000130180               0.000918172               0.000058195              -0.000065954               0.000328039               0.000262085               0.000000000               0.000000000               0.000000000               0.000000000               0.000187618               0.000798572               0.000028950              -0.000029465               0.000276010               0.000246545               0.000000000               0.000000000               0.000000000               0.000000000               0.000212063               0.000738370               0.000014564              -0.000012773               0.000250378               0.000237606               0.000000000               0.000000000               0.000000000               0.000000000               0.000222413               0.000708763               0.000005874              -0.000005190               0.000237982               0.000232792               0.000000000               0.000000000               0.000000000               0.000000000               0.000223431               0.000695895               0.000002706              -0.000003200               0.000233029               0.000229829               0.000000000               0.000000000               0.000000000               0.000000000               0.000220628               0.000688575               0.000005533              -0.000003336               0.000230635               0.000227298               0.000000000               0.000000000               0.000000000               0.000000000               0.000222037               0.000679107               0.000013416              -0.000001625               0.000226908               0.000225284               0.000000000               0.000000000               0.000000000               0.000000000               0.000224852               0.000664332               0.000019014               0.000001278               0.000221016               0.000222294               0.000000000               0.000000000               0.000000000               0.000000000               0.000219227               0.000653598               0.000018821               0.000000510               0.000217694               0.000218204               0.000000000               0.000000000               0.000000000               0.000000000               0.000203781               0.000648643               0.000019175              -0.000004663               0.000217766               0.000213104               0.000000000               0.000000000               0.000000000               0.000000000               0.000183547               0.000650505               0.000018359              -0.000012483               0.000220994               0.000208511               0.000000000               0.000000000               0.000000000               0.000000000               0.000156427               0.000659753               0.000015781              -0.000023809               0.000227852               0.000204043               0.000000000               0.000000000               0.000000000               0.000000000               0.000122334               0.000675129               0.000013395              -0.000038516               0.000237879               0.000199363               0.000000000               0.000000000               0.000000000               0.000000000               0.000085007               0.000696708               0.000010255              -0.000055211               0.000250637               0.000195427               0.000000000               0.000000000               0.000000000               0.000000000               0.000043884               0.000723152               0.000005764              -0.000073937               0.000265694               0.000191757               0.000000000               0.000000000               0.000000000               0.000000000               0.000025617               0.000746076               0.000004033              -0.000083653               0.000276574               0.000192921               0.000000000               0.000000000               0.000000000               0.000000000               0.000129977               0.001033815               0.000161789              -0.000080485               0.000371430               0.000290945               0.000000000               0.000000000               0.000000000               0.000000000               0.000139257               0.000884006               0.000110309              -0.000058279               0.000314092               0.000255813               0.000000000               0.000000000               0.000000000               0.000000000               0.000187117               0.000780211               0.000055571              -0.000027358               0.000269187               0.000241829               0.000000000               0.000000000               0.000000000               0.000000000               0.000207187               0.000728314               0.000027792              -0.000013344               0.000247217               0.000233873               0.000000000               0.000000000               0.000000000               0.000000000               0.000214181               0.000705771               0.000012683              -0.000007904               0.000237889               0.000229986               0.000000000               0.000000000               0.000000000               0.000000000               0.000213066               0.000696748               0.000006915              -0.000007194               0.000234645               0.000227451               0.000000000               0.000000000               0.000000000               0.000000000               0.000211538               0.000693799               0.000011682              -0.000007398               0.000233730               0.000226332               0.000000000               0.000000000               0.000000000               0.000000000               0.000209025               0.000686818               0.000025595              -0.000007468               0.000231426               0.000223959               0.000000000               0.000000000               0.000000000               0.000000000               0.000204073               0.000680282               0.000033953              -0.000008508               0.000229594               0.000221087               0.000000000               0.000000000               0.000000000               0.000000000               0.000193795               0.000680329               0.000033216              -0.000012368               0.000230897               0.000218529               0.000000000               0.000000000               0.000000000               0.000000000               0.000177728               0.000683789               0.000032823              -0.000018826               0.000234203               0.000215377               0.000000000               0.000000000               0.000000000               0.000000000               0.000157883               0.000691593               0.000030128              -0.000027243               0.000239610               0.000212367               0.000000000               0.000000000               0.000000000               0.000000000               0.000132221               0.000703077               0.000025255              -0.000038302               0.000247124               0.000208822               0.000000000               0.000000000               0.000000000               0.000000000               0.000101980               0.000718024               0.000020193              -0.000051511               0.000256509               0.000204998               0.000000000               0.000000000               0.000000000               0.000000000               0.000071231               0.000737816               0.000014061              -0.000065515               0.000267775               0.000202260               0.000000000               0.000000000               0.000000000               0.000000000               0.000037788               0.000761146               0.000007064              -0.000080972               0.000280703               0.000199731               0.000000000               0.000000000               0.000000000               0.000000000               0.000023420               0.000781187               0.000005232              -0.000088866               0.000290015               0.000201149               0.000000000               0.000000000               0.000000000               0.000000000               0.000157207               0.000960699               0.000226748              -0.000061135               0.000340608               0.000279473               0.000000000               0.000000000               0.000000000               0.000000000               0.000151215               0.000833997               0.000152524              -0.000047544               0.000293844               0.000246300               0.000000000               0.000000000               0.000000000               0.000000000               0.000184385               0.000754028               0.000075854              -0.000025109               0.000259710               0.000234601               0.000000000               0.000000000               0.000000000               0.000000000               0.000197748               0.000715765               0.000039072              -0.000015315               0.000243691               0.000228376               0.000000000               0.000000000               0.000000000               0.000000000               0.000201068               0.000702840               0.000019331              -0.000012455               0.000238429               0.000225975               0.000000000               0.000000000               0.000000000               0.000000000               0.000198850               0.000700836               0.000012684              -0.000013036               0.000237955               0.000224919               0.000000000               0.000000000               0.000000000               0.000000000               0.000197408               0.000700963               0.000020551              -0.000013592               0.000238183               0.000224590               0.000000000               0.000000000               0.000000000               0.000000000               0.000193807               0.000700955               0.000037099              -0.000014942               0.000238630               0.000223688               0.000000000               0.000000000               0.000000000               0.000000000               0.000185678               0.000708831               0.000044191              -0.000018975               0.000242600               0.000223625               0.000000000               0.000000000               0.000000000               0.000000000               0.000172881               0.000724193               0.000041928              -0.000025694               0.000249960               0.000224266               0.000000000               0.000000000               0.000000000               0.000000000               0.000152678               0.000741545               0.000041695              -0.000035439               0.000258992               0.000223553               0.000000000               0.000000000               0.000000000               0.000000000               0.000128102               0.000760606               0.000039091              -0.000047038               0.000269212               0.000222175               0.000000000               0.000000000               0.000000000               0.000000000               0.000102530               0.000781236               0.000033849              -0.000059206               0.000280145               0.000220939               0.000000000               0.000000000               0.000000000               0.000000000               0.000075913               0.000803299               0.000027827              -0.000071945               0.000291745               0.000219800               0.000000000               0.000000000               0.000000000               0.000000000               0.000052005               0.000828507               0.000019974              -0.000084061               0.000304187               0.000220125               0.000000000               0.000000000               0.000000000               0.000000000               0.000028463               0.000856647               0.000010518              -0.000096407               0.000317682               0.000221275               0.000000000               0.000000000               0.000000000               0.000000000               0.000020189               0.000879188               0.000008054              -0.000102327               0.000327169               0.000224842               0.000000000               0.000000000               0.000000000               0.000000000               0.000192015               0.000873655               0.000269812              -0.000037202               0.000303616               0.000266414               0.000000000               0.000000000               0.000000000               0.000000000               0.000165939               0.000774465               0.000180838              -0.000034581               0.000269680               0.000235098               0.000000000               0.000000000               0.000000000               0.000000000               0.000178049               0.000725415               0.000090653              -0.000023909               0.000249772               0.000225863               0.000000000               0.000000000               0.000000000               0.000000000               0.000183529               0.000706125               0.000048596              -0.000019442               0.000241853               0.000222411               0.000000000               0.000000000               0.000000000               0.000000000               0.000184723               0.000705596               0.000027460              -0.000018928               0.000241506               0.000222577               0.000000000               0.000000000               0.000000000               0.000000000               0.000181869               0.000709540               0.000021779              -0.000020491               0.000243341               0.000222850               0.000000000               0.000000000               0.000000000               0.000000000               0.000184251               0.000718159               0.000030891              -0.000020676               0.000246276               0.000225600               0.000000000               0.000000000               0.000000000               0.000000000               0.000185564               0.000730309               0.000046788              -0.000021702               0.000250668               0.000228966               0.000000000               0.000000000               0.000000000               0.000000000               0.000178243               0.000756042               0.000052426              -0.000027664               0.000261233               0.000233569               0.000000000               0.000000000               0.000000000               0.000000000               0.000161458               0.000788968               0.000049290              -0.000038074               0.000275678               0.000237604               0.000000000               0.000000000               0.000000000               0.000000000               0.000137243               0.000824561               0.000048500              -0.000051604               0.000292052               0.000240448               0.000000000               0.000000000               0.000000000               0.000000000               0.000111627               0.000862195               0.000045770              -0.000065914               0.000309367               0.000243453               0.000000000               0.000000000               0.000000000               0.000000000               0.000085604               0.000899934               0.000040251              -0.000080390               0.000326772               0.000246382               0.000000000               0.000000000               0.000000000               0.000000000               0.000060809               0.000937920               0.000033410              -0.000094436               0.000344116               0.000249679               0.000000000               0.000000000               0.000000000               0.000000000               0.000040892               0.000976373               0.000023902              -0.000106712               0.000361025               0.000254313               0.000000000               0.000000000               0.000000000               0.000000000               0.000021717               0.001013670               0.000012461              -0.000118564               0.000377408               0.000258844               0.000000000               0.000000000               0.000000000               0.000000000               0.000016522               0.001039857               0.000009490              -0.000123786               0.000387878               0.000264091               0.000000000               0.000000000               0.000000000               0.000000000               0.000218799               0.000776875               0.000293314              -0.000015060               0.000263976               0.000248916               0.000000000               0.000000000               0.000000000               0.000000000               0.000175349               0.000709196               0.000196923              -0.000022894               0.000244027               0.000221134               0.000000000               0.000000000               0.000000000               0.000000000               0.000168886               0.000697636               0.000099357              -0.000023872               0.000240500               0.000216628               0.000000000               0.000000000               0.000000000               0.000000000               0.000166875               0.000701516               0.000056736              -0.000025112               0.000242207               0.000217095               0.000000000               0.000000000               0.000000000               0.000000000               0.000165219               0.000716455               0.000037927              -0.000027600               0.000248016               0.000220416               0.000000000               0.000000000               0.000000000               0.000000000               0.000168550               0.000733986               0.000033100              -0.000028542               0.000254174               0.000225632               0.000000000               0.000000000               0.000000000               0.000000000               0.000176423               0.000755254               0.000042065              -0.000028248               0.000261165               0.000232917               0.000000000               0.000000000               0.000000000               0.000000000               0.000180681               0.000788026               0.000055161              -0.000030748               0.000272922               0.000242174               0.000000000               0.000000000               0.000000000               0.000000000               0.000177349               0.000837080               0.000055875              -0.000038129               0.000291733               0.000253605               0.000000000               0.000000000               0.000000000               0.000000000               0.000163043               0.000892497               0.000051453              -0.000050421               0.000314303               0.000263882               0.000000000               0.000000000               0.000000000               0.000000000               0.000139130               0.000946280               0.000049385              -0.000066111               0.000337460               0.000271349               0.000000000               0.000000000               0.000000000               0.000000000               0.000112183               0.000999776               0.000045890              -0.000082903               0.000360890               0.000277987               0.000000000               0.000000000               0.000000000               0.000000000               0.000085454               0.001052492               0.000039903              -0.000099516               0.000383999               0.000284483               0.000000000               0.000000000               0.000000000               0.000000000               0.000062350               0.001103932               0.000032236              -0.000114610               0.000406177               0.000291567               0.000000000               0.000000000               0.000000000               0.000000000               0.000042027               0.001152915               0.000022756              -0.000128354               0.000427086               0.000298732               0.000000000               0.000000000               0.000000000               0.000000000               0.000021235               0.001196290               0.000011843              -0.000141573               0.000445950               0.000304378               0.000000000               0.000000000               0.000000000               0.000000000               0.000016125               0.001225062               0.000009345              -0.000147085               0.000457378               0.000310293               0.000000000               0.000000000               0.000000000               0.000000000               0.000236900               0.000673696               0.000297784               0.000004625               0.000223021               0.000227646               0.000000000               0.000000000               0.000000000               0.000000000               0.000178819               0.000646669               0.000200993              -0.000013777               0.000220146               0.000206370               0.000000000               0.000000000               0.000000000               0.000000000               0.000156315               0.000676724               0.000104649              -0.000025972               0.000234230               0.000208258               0.000000000               0.000000000               0.000000000               0.000000000               0.000151435               0.000706152               0.000066185              -0.000031481               0.000245875               0.000214395               0.000000000               0.000000000               0.000000000               0.000000000               0.000152393               0.000739926               0.000048543              -0.000035343               0.000258421               0.000223077               0.000000000               0.000000000               0.000000000               0.000000000               0.000160859               0.000779253               0.000044836              -0.000037084               0.000272110               0.000235025               0.000000000               0.000000000               0.000000000               0.000000000               0.000176510               0.000826990               0.000050078              -0.000037182               0.000288055               0.000250872               0.000000000               0.000000000               0.000000000               0.000000000               0.000188775               0.000888739               0.000057293              -0.000040302               0.000309677               0.000269376               0.000000000               0.000000000               0.000000000               0.000000000               0.000184429               0.000957691               0.000054496              -0.000050550               0.000336077               0.000285527               0.000000000               0.000000000               0.000000000               0.000000000               0.000167323               0.001028507               0.000049893              -0.000065817               0.000364771               0.000298954               0.000000000               0.000000000               0.000000000               0.000000000               0.000144092               0.001093849               0.000048653              -0.000082696               0.000392178               0.000309482               0.000000000               0.000000000               0.000000000               0.000000000               0.000119049               0.001155798               0.000044152              -0.000099831               0.000418539               0.000318708               0.000000000               0.000000000               0.000000000               0.000000000               0.000093502               0.001215504               0.000037104              -0.000116875               0.000444122               0.000327248               0.000000000               0.000000000               0.000000000               0.000000000               0.000070973               0.001271714               0.000028352              -0.000132349               0.000468017               0.000335668               0.000000000               0.000000000               0.000000000               0.000000000               0.000047098               0.001322472               0.000018878              -0.000147647               0.000490035               0.000342388               0.000000000               0.000000000               0.000000000               0.000000000               0.000021908               0.001367197               0.000010063              -0.000162684               0.000509956               0.000347272               0.000000000               0.000000000               0.000000000               0.000000000               0.000015038               0.001396244               0.000008572              -0.000168891               0.000521707               0.000352816               0.000000000               0.000000000               0.000000000               0.000000000               0.000247497               0.000575670               0.000282165               0.000020852               0.000184937               0.000205789               0.000000000               0.000000000               0.000000000               0.000000000               0.000178591               0.000592450               0.000197183              -0.000007085               0.000199843               0.000192758               0.000000000               0.000000000               0.000000000               0.000000000               0.000146159               0.000665210               0.000111277              -0.000028342               0.000231182               0.000202840               0.000000000               0.000000000               0.000000000               0.000000000               0.000142023               0.000721675               0.000076430              -0.000036951               0.000252873               0.000215922               0.000000000               0.000000000               0.000000000               0.000000000               0.000149931               0.000782066               0.000059499              -0.000041534               0.000274531               0.000232997               0.000000000               0.000000000               0.000000000               0.000000000               0.000170707               0.000850690               0.000052445              -0.000042321               0.000297668               0.000255347               0.000000000               0.000000000               0.000000000               0.000000000               0.000194540               0.000926776               0.000054322              -0.000042894               0.000323220               0.000280326               0.000000000               0.000000000               0.000000000               0.000000000               0.000205833               0.001006363               0.000058866              -0.000048608               0.000351654               0.000303046               0.000000000               0.000000000               0.000000000               0.000000000               0.000197356               0.001090833               0.000055330              -0.000062345               0.000384389               0.000322044               0.000000000               0.000000000               0.000000000               0.000000000               0.000176290               0.001168770               0.000050269              -0.000079987               0.000416249               0.000336261               0.000000000               0.000000000               0.000000000               0.000000000               0.000150105               0.001237869               0.000048152              -0.000098444               0.000445434               0.000346990               0.000000000               0.000000000               0.000000000               0.000000000               0.000124421               0.001303557               0.000040868              -0.000116287               0.000473277               0.000356990               0.000000000               0.000000000               0.000000000               0.000000000               0.000100274               0.001367359               0.000030786              -0.000133317               0.000500221               0.000366904               0.000000000               0.000000000               0.000000000               0.000000000               0.000075563               0.001427882               0.000021960              -0.000150149               0.000526005               0.000375857               0.000000000               0.000000000               0.000000000               0.000000000               0.000048065               0.001482524               0.000013216              -0.000167291               0.000549933               0.000382642               0.000000000               0.000000000               0.000000000               0.000000000               0.000021967               0.001532370               0.000005670              -0.000183308               0.000571887               0.000388579               0.000000000               0.000000000               0.000000000               0.000000000               0.000014347               0.001565383               0.000005574              -0.000190292               0.000585220               0.000394928               0.000000000               0.000000000               0.000000000               0.000000000               0.000250619               0.000493089               0.000257337               0.000032346               0.000153579               0.000185925               0.000000000               0.000000000               0.000000000               0.000000000               0.000180035               0.000546831               0.000191921              -0.000000841               0.000182556               0.000181714               0.000000000               0.000000000               0.000000000               0.000000000               0.000141456               0.000658362               0.000121169              -0.000029249               0.000229201               0.000199952               0.000000000               0.000000000               0.000000000               0.000000000               0.000141941               0.000742321               0.000087704              -0.000039562               0.000260625               0.000221063               0.000000000               0.000000000               0.000000000               0.000000000               0.000158173               0.000829586               0.000069554              -0.000044383               0.000291320               0.000246937               0.000000000               0.000000000               0.000000000               0.000000000               0.000187074               0.000919623               0.000060042              -0.000044800               0.000321471               0.000276671               0.000000000               0.000000000               0.000000000               0.000000000               0.000217119               0.001008151               0.000058754              -0.000044599               0.000350914               0.000306314               0.000000000               0.000000000               0.000000000               0.000000000               0.000228874               0.001098307               0.000057767              -0.000051461               0.000383252               0.000331792               0.000000000               0.000000000               0.000000000               0.000000000               0.000217474               0.001190396               0.000053386              -0.000067247               0.000419210               0.000351963               0.000000000               0.000000000               0.000000000               0.000000000               0.000192863               0.001268663               0.000048906              -0.000086259               0.000451636               0.000365377               0.000000000               0.000000000               0.000000000               0.000000000               0.000166719               0.001338653               0.000044073              -0.000104812               0.000481151               0.000376339               0.000000000               0.000000000               0.000000000               0.000000000               0.000139612               0.001408832               0.000034238              -0.000123749               0.000510856               0.000387106               0.000000000               0.000000000               0.000000000               0.000000000               0.000114873               0.001479421               0.000022275              -0.000141850               0.000540419               0.000398569               0.000000000               0.000000000               0.000000000               0.000000000               0.000089320               0.001547876               0.000012973              -0.000159989               0.000569283               0.000409294               0.000000000               0.000000000               0.000000000               0.000000000               0.000064199               0.001613219               0.000005781              -0.000177577               0.000596927               0.000419349               0.000000000               0.000000000               0.000000000               0.000000000               0.000045460               0.001675719              -0.000000825              -0.000192417               0.000622706               0.000430290               0.000000000               0.000000000               0.000000000               0.000000000               0.000037669               0.001711796              -0.000002543              -0.000199848               0.000637209               0.000437361               0.000000000               0.000000000               0.000000000               0.000000000               0.000245828               0.000409591               0.000231735               0.000040986               0.000122867               0.000163853               0.000000000               0.000000000               0.000000000               0.000000000               0.000182462               0.000486641               0.000188205               0.000007593               0.000159681               0.000167274               0.000000000               0.000000000               0.000000000               0.000000000               0.000145794               0.000628154               0.000137432              -0.000023846               0.000217331               0.000193485               0.000000000               0.000000000               0.000000000               0.000000000               0.000151559               0.000738715               0.000107594              -0.000035505               0.000258071               0.000222566               0.000000000               0.000000000               0.000000000               0.000000000               0.000171833               0.000844328               0.000088352              -0.000041104               0.000295141               0.000254037               0.000000000               0.000000000               0.000000000               0.000000000               0.000202634               0.000949490               0.000077277              -0.000042699               0.000330726               0.000288028               0.000000000               0.000000000               0.000000000               0.000000000               0.000233108               0.001045822               0.000068387              -0.000043312               0.000363041               0.000319729               0.000000000               0.000000000               0.000000000               0.000000000               0.000249374               0.001132132               0.000059440              -0.000048001               0.000393374               0.000345373               0.000000000               0.000000000               0.000000000               0.000000000               0.000244169               0.001215903               0.000053211              -0.000060424               0.000425438               0.000365014               0.000000000               0.000000000               0.000000000               0.000000000               0.000224467               0.001295052               0.000049390              -0.000077706               0.000457582               0.000379875               0.000000000               0.000000000               0.000000000               0.000000000               0.000200983               0.001366243               0.000043132              -0.000095412               0.000487213               0.000391802               0.000000000               0.000000000               0.000000000               0.000000000               0.000176165               0.001436213               0.000033992              -0.000113465               0.000516554               0.000403090               0.000000000               0.000000000               0.000000000               0.000000000               0.000154091               0.001510310               0.000024945              -0.000131004               0.000547100               0.000416095               0.000000000               0.000000000               0.000000000               0.000000000               0.000134625               0.001588080               0.000015237              -0.000148025               0.000578696               0.000430671               0.000000000               0.000000000               0.000000000               0.000000000               0.000113479               0.001662548               0.000007206              -0.000165264               0.000609265               0.000444001               0.000000000               0.000000000               0.000000000               0.000000000               0.000097320               0.001738310               0.000002613              -0.000180793               0.000639695               0.000458902               0.000000000               0.000000000               0.000000000               0.000000000               0.000085538               0.001774690              -0.000001591              -0.000189759               0.000654810               0.000465051               0.000000000               0.000000000               0.000000000               0.000000000               0.000233286               0.000326836               0.000201136               0.000046627               0.000093402               0.000140029               0.000000000               0.000000000               0.000000000               0.000000000               0.000185968               0.000423359               0.000181687               0.000016818               0.000135512               0.000152330               0.000000000               0.000000000               0.000000000               0.000000000               0.000160021               0.000589963               0.000153796              -0.000013738               0.000201232               0.000187494               0.000000000               0.000000000               0.000000000               0.000000000               0.000169407               0.000719858               0.000128710              -0.000026455               0.000248768               0.000222314               0.000000000               0.000000000               0.000000000               0.000000000               0.000188482               0.000838777               0.000108199              -0.000034166               0.000290978               0.000256812               0.000000000               0.000000000               0.000000000               0.000000000               0.000213291               0.000954927               0.000092160              -0.000039382               0.000331433               0.000292051               0.000000000               0.000000000               0.000000000               0.000000000               0.000238286               0.001053197               0.000076836              -0.000042292               0.000365159               0.000322867               0.000000000               0.000000000               0.000000000               0.000000000               0.000259242               0.001134319               0.000061695              -0.000044574               0.000392961               0.000348387               0.000000000               0.000000000               0.000000000               0.000000000               0.000267394               0.001214512               0.000051110              -0.000051541               0.000422014               0.000370472               0.000000000               0.000000000               0.000000000               0.000000000               0.000260597               0.001296825               0.000046847              -0.000064379               0.000453730               0.000389351               0.000000000               0.000000000               0.000000000               0.000000000               0.000245699               0.001373243               0.000042108              -0.000079518               0.000484249               0.000404731               0.000000000               0.000000000               0.000000000               0.000000000               0.000229681               0.001445106               0.000037010              -0.000094508               0.000513200               0.000418692               0.000000000               0.000000000               0.000000000               0.000000000               0.000212450               0.001516654               0.000031631              -0.000109913               0.000542184               0.000432271               0.000000000               0.000000000               0.000000000               0.000000000               0.000196272               0.001591637               0.000022513              -0.000125352               0.000572325               0.000446972               0.000000000               0.000000000               0.000000000               0.000000000               0.000180947               0.001670201               0.000013375              -0.000140919               0.000603701               0.000462782               0.000000000               0.000000000               0.000000000               0.000000000               0.000163750               0.001747607               0.000006660              -0.000157044               0.000634878               0.000477834               0.000000000               0.000000000               0.000000000               0.000000000               0.000145034               0.001777050              -0.000000608              -0.000167743               0.000648258               0.000480515               0.000000000               0.000000000               0.000000000               0.000000000               0.000210183               0.000251314               0.000165365               0.000047404               0.000067969               0.000115373               0.000000000               0.000000000               0.000000000               0.000000000               0.000190048               0.000362664               0.000169046               0.000025935               0.000112242               0.000138177               0.000000000               0.000000000               0.000000000               0.000000000               0.000180478               0.000543177               0.000163114              -0.000000218               0.000181130               0.000180912               0.000000000               0.000000000               0.000000000               0.000000000               0.000192302               0.000687268               0.000143320              -0.000013795               0.000233685               0.000219890               0.000000000               0.000000000               0.000000000               0.000000000               0.000209103               0.000820741               0.000121884              -0.000024179               0.000281637               0.000257458               0.000000000               0.000000000               0.000000000               0.000000000               0.000227961               0.000941855               0.000102990              -0.000032246               0.000324697               0.000292451               0.000000000               0.000000000               0.000000000               0.000000000               0.000247494               0.001039655               0.000084026              -0.000037147               0.000358930               0.000321784               0.000000000               0.000000000               0.000000000               0.000000000               0.000267343               0.001122392               0.000064593              -0.000040045               0.000387475               0.000347430               0.000000000               0.000000000               0.000000000               0.000000000               0.000285825               0.001206840               0.000050913              -0.000043671               0.000416833               0.000373162               0.000000000               0.000000000               0.000000000               0.000000000               0.000294370               0.001296016               0.000044640              -0.000051613               0.000449205               0.000397592               0.000000000               0.000000000               0.000000000               0.000000000               0.000292953               0.001382265               0.000041821              -0.000062926               0.000481726               0.000418800               0.000000000               0.000000000               0.000000000               0.000000000               0.000286626               0.001459295               0.000038835              -0.000074927               0.000511402               0.000436476               0.000000000               0.000000000               0.000000000               0.000000000               0.000274195               0.001528086               0.000034857              -0.000088187               0.000538753               0.000450565               0.000000000               0.000000000               0.000000000               0.000000000               0.000260726               0.001598715               0.000028927              -0.000102067               0.000566922               0.000464855               0.000000000               0.000000000               0.000000000               0.000000000               0.000249260               0.001675705               0.000020023              -0.000115990               0.000597226               0.000481236               0.000000000               0.000000000               0.000000000               0.000000000               0.000232878               0.001749364               0.000009080              -0.000131341               0.000626896               0.000495555               0.000000000               0.000000000               0.000000000               0.000000000               0.000213621               0.001777186               0.000000231              -0.000142040               0.000639736               0.000497696               0.000000000               0.000000000               0.000000000               0.000000000               0.000181015               0.000185811               0.000128803               0.000044654               0.000047052               0.000091705               0.000000000               0.000000000               0.000000000               0.000000000               0.000194654               0.000303122               0.000149652               0.000035105               0.000089338               0.000124443               0.000000000               0.000000000               0.000000000               0.000000000               0.000204610               0.000487633               0.000159143               0.000015774               0.000157284               0.000173059               0.000000000               0.000000000               0.000000000               0.000000000               0.000218144               0.000643937               0.000144545               0.000001312               0.000214206               0.000215518               0.000000000               0.000000000               0.000000000               0.000000000               0.000234627               0.000784030               0.000125375              -0.000010019               0.000264680               0.000254662               0.000000000               0.000000000               0.000000000               0.000000000               0.000249329               0.000904387               0.000106450              -0.000019550               0.000307976               0.000288426               0.000000000               0.000000000               0.000000000               0.000000000               0.000262225               0.001006707               0.000086605              -0.000027504               0.000344734               0.000317230               0.000000000               0.000000000               0.000000000               0.000000000               0.000281622               0.001103797               0.000067321              -0.000032366               0.000378717               0.000346351               0.000000000               0.000000000               0.000000000               0.000000000               0.000306070               0.001201697               0.000052510              -0.000035436               0.000412373               0.000376938               0.000000000               0.000000000               0.000000000               0.000000000               0.000325776               0.001298876               0.000043388              -0.000040194               0.000446352               0.000406159               0.000000000               0.000000000               0.000000000               0.000000000               0.000334525               0.001388949               0.000039518              -0.000048172               0.000479035               0.000430864               0.000000000               0.000000000               0.000000000               0.000000000               0.000335754               0.001468184               0.000036115              -0.000057615               0.000508595               0.000450980               0.000000000               0.000000000               0.000000000               0.000000000               0.000332633               0.001540270               0.000032307              -0.000067796               0.000536017               0.000468221               0.000000000               0.000000000               0.000000000               0.000000000               0.000325769               0.001607571               0.000029030              -0.000078783               0.000562112               0.000483330               0.000000000               0.000000000               0.000000000               0.000000000               0.000317199               0.001673490               0.000021657              -0.000090236               0.000587903               0.000497667               0.000000000               0.000000000               0.000000000               0.000000000               0.000308954               0.001743867               0.000010943              -0.000102126               0.000615325               0.000513199               0.000000000               0.000000000               0.000000000               0.000000000               0.000297740               0.001776542               0.000003355              -0.000110415               0.000628980               0.000518565               0.000000000               0.000000000               0.000000000               0.000000000               0.000152553               0.000134776               0.000093752               0.000040360               0.000031472               0.000071832               0.000000000               0.000000000               0.000000000               0.000000000               0.000196398               0.000248816               0.000122036               0.000042547               0.000068755               0.000111302               0.000000000               0.000000000               0.000000000               0.000000000               0.000227647               0.000430267               0.000138825               0.000031584               0.000132893               0.000164477               0.000000000               0.000000000               0.000000000               0.000000000               0.000246757               0.000591021               0.000130093               0.000018656               0.000190786               0.000209442               0.000000000               0.000000000               0.000000000               0.000000000               0.000262707               0.000732098               0.000114760               0.000007003               0.000241696               0.000248699               0.000000000               0.000000000               0.000000000               0.000000000               0.000273001               0.000858053               0.000097245              -0.000004881               0.000287642               0.000282761               0.000000000               0.000000000               0.000000000               0.000000000               0.000284401               0.000973672               0.000080902              -0.000015059               0.000329574               0.000314515               0.000000000               0.000000000               0.000000000               0.000000000               0.000303272               0.001085614               0.000066384              -0.000021975               0.000369193               0.000347218               0.000000000               0.000000000               0.000000000               0.000000000               0.000326849               0.001192764               0.000052295              -0.000026527               0.000406426               0.000379899               0.000000000               0.000000000               0.000000000               0.000000000               0.000348864               0.001292030               0.000039937              -0.000030680               0.000440899               0.000410219               0.000000000               0.000000000               0.000000000               0.000000000               0.000364207               0.001382136               0.000032355              -0.000036189               0.000472771               0.000436581               0.000000000               0.000000000               0.000000000               0.000000000               0.000374751               0.001467327               0.000028531              -0.000042884               0.000503399               0.000460515               0.000000000               0.000000000               0.000000000               0.000000000               0.000383370               0.001547552               0.000025595              -0.000049680               0.000532406               0.000482725               0.000000000               0.000000000               0.000000000               0.000000000               0.000386597               0.001615651               0.000022824              -0.000056982               0.000557539               0.000500557               0.000000000               0.000000000               0.000000000               0.000000000               0.000385917               0.001676099               0.000018508              -0.000064793               0.000580292               0.000515499               0.000000000               0.000000000               0.000000000               0.000000000               0.000388781               0.001744745               0.000011702              -0.000072300               0.000605676               0.000533376               0.000000000               0.000000000               0.000000000               0.000000000               0.000386827               0.001780189               0.000006096              -0.000077463               0.000619212               0.000541748               0.000000000               0.000000000               0.000000000               0.000000000               0.000127048               0.000099914               0.000060769               0.000035153               0.000021587               0.000056740               0.000000000               0.000000000               0.000000000               0.000000000               0.000195145               0.000204671               0.000086389               0.000047595               0.000052358               0.000099953               0.000000000               0.000000000               0.000000000               0.000000000               0.000246684               0.000376634               0.000103646               0.000045427               0.000110401               0.000155828               0.000000000               0.000000000               0.000000000               0.000000000               0.000272435               0.000538340               0.000099194               0.000034870               0.000167822               0.000202692               0.000000000               0.000000000               0.000000000               0.000000000               0.000285731               0.000683357               0.000087408               0.000021729               0.000220540               0.000242270               0.000000000               0.000000000               0.000000000               0.000000000               0.000297124               0.000816650               0.000075255               0.000009340               0.000269101               0.000278441               0.000000000               0.000000000               0.000000000               0.000000000               0.000310632               0.000943118               0.000065001              -0.000001403               0.000314837               0.000313434               0.000000000               0.000000000               0.000000000               0.000000000               0.000326852               0.001063871               0.000054264              -0.000010414               0.000358092               0.000347677               0.000000000               0.000000000               0.000000000               0.000000000               0.000345110               0.001174272               0.000041608              -0.000017368               0.000397209               0.000379842               0.000000000               0.000000000               0.000000000               0.000000000               0.000364976               0.001274600               0.000029769              -0.000022459               0.000432349               0.000409890               0.000000000               0.000000000               0.000000000               0.000000000               0.000385616               0.001368951               0.000022548              -0.000026513               0.000465150               0.000438637               0.000000000               0.000000000               0.000000000               0.000000000               0.000406011               0.001463431               0.000019449              -0.000030675               0.000498030               0.000467356               0.000000000               0.000000000               0.000000000               0.000000000               0.000423151               0.001548818               0.000016912              -0.000034920               0.000527908               0.000492987               0.000000000               0.000000000               0.000000000               0.000000000               0.000434661               0.001618042               0.000013682              -0.000039257               0.000552428               0.000513171               0.000000000               0.000000000               0.000000000               0.000000000               0.000444260               0.001681434               0.000011189              -0.000043581               0.000575000               0.000531418               0.000000000               0.000000000               0.000000000               0.000000000               0.000456021               0.001748555               0.000007721              -0.000047562               0.000598700               0.000551138               0.000000000               0.000000000               0.000000000               0.000000000               0.000460773               0.001782299               0.000004242              -0.000049997               0.000610759               0.000560762               0.000000000               0.000000000               0.000000000               0.000000000               0.000110335               0.000077958               0.000028762               0.000031630               0.000015442               0.000047073               0.000000000               0.000000000               0.000000000               0.000000000               0.000195255               0.000175116               0.000044011               0.000051331               0.000041261               0.000092592               0.000000000               0.000000000               0.000000000               0.000000000               0.000259581               0.000339449               0.000055657               0.000054911               0.000094845               0.000149756               0.000000000               0.000000000               0.000000000               0.000000000               0.000287839               0.000499977               0.000053754               0.000045442               0.000151510               0.000196952               0.000000000               0.000000000               0.000000000               0.000000000               0.000303201               0.000648505               0.000047268               0.000032637               0.000205287               0.000237924               0.000000000               0.000000000               0.000000000               0.000000000               0.000317285               0.000788523               0.000041847               0.000020416               0.000256033               0.000276449               0.000000000               0.000000000               0.000000000               0.000000000               0.000329694               0.000919485               0.000036584               0.000008699               0.000303592               0.000312291               0.000000000               0.000000000               0.000000000               0.000000000               0.000342058               0.001041510               0.000030041              -0.000001917               0.000347806               0.000345889               0.000000000               0.000000000               0.000000000               0.000000000               0.000357898               0.001155117               0.000022684              -0.000010178               0.000388428               0.000378250               0.000000000               0.000000000               0.000000000               0.000000000               0.000378618               0.001261428               0.000016029              -0.000015697               0.000425704               0.000410007               0.000000000               0.000000000               0.000000000               0.000000000               0.000401965               0.001360278               0.000011732              -0.000019298               0.000459854               0.000440556               0.000000000               0.000000000               0.000000000               0.000000000               0.000426038               0.001456928               0.000009434              -0.000022352               0.000493088               0.000470737               0.000000000               0.000000000               0.000000000               0.000000000               0.000446900               0.001543359               0.000007331              -0.000025332               0.000522892               0.000497560               0.000000000               0.000000000               0.000000000               0.000000000               0.000463804               0.001615721               0.000005205              -0.000028039               0.000547915               0.000519876               0.000000000               0.000000000               0.000000000               0.000000000               0.000480585               0.001685057               0.000004121              -0.000030413               0.000571818               0.000541405               0.000000000               0.000000000               0.000000000               0.000000000               0.000497213               0.001752338               0.000002815              -0.000032587               0.000594969               0.000562382               0.000000000               0.000000000               0.000000000               0.000000000               0.000504723               0.001783962               0.000001366              -0.000033724               0.000605889               0.000572165               0.000000000               0.000000000               0.000000000               0.000000000               0.000000000               0.000000000               0.000000000               0.000000000               0.000000000               0.000000000               0.000000000               0.000000000               0.000000000               0.000000000               0.000000000               0.000000000               0.000000000               0.000000000               0.000000000               0.000000000               0.000000000               0.000000000               0.000000000               0.000000000               0.000000000               0.000000000               0.000000000               0.000000000               0.000000000               0.000000000               0.000000000               0.000000000               0.000000000               0.000000000               0.000000000               0.000000000               0.000000000               0.000000000               0.000000000               0.000000000               0.000000000               0.000000000               0.000000000               0.000000000               0.000000000               0.000000000               0.000000000               0.000000000               0.000000000               0.000000000               0.000000000               0.000000000               0.000000000               0.000000000               0.000000000               0.000000000               0.000000000               0.000000000               0.000000000               0.000000000               0.000000000               0.000000000               0.000000000               0.000000000               0.000000000               0.000000000               0.000000000               0.000000000               0.000000000               0.000000000               0.000000000               0.000000000               0.000000000               0.000000000               0.000000000               0.000000000               0.000000000               0.000000000               0.000000000               0.000000000               0.000000000               0.000000000               0.000000000               0.000000000               0.000000000               0.000000000               0.000000000               0.000000000               0.000000000               0.000000000               0.000000000               0.000000000               0.000000000               0.000000000               0.000000000               0.000000000               0.000000000               0.000000000               0.000000000               0.000000000               0.000000000               0.000000000               0.000000000               0.000000000               0.000000000               0.000000000               0.000000000               0.000000000               0.000000000               0.000000000               0.000000000               0.000000000               0.000000000               0.000000000               0.000000000               0.000000000               0.000000000               0.000000000               0.000000000               0.000000000               0.000000000               0.000000000               0.000000000               0.000000000               0.000000000               0.000000000               0.000000000               0.000000000               0.000000000               0.000000000               0.000000000               0.000000000               0.000000000               0.000000000               0.000000000               0.000000000               0.000000000               0.000000000               0.000000000               0.000000000               0.000000000               0.000000000               0.000000000               0.000000000               0.000000000               0.000000000               0.000000000               0.000000000               0.000000000               0.000000000               0.000000000               0.000000000               0.000000000               0.000000000               0.000000000               0.000000000               0.000000000               0.000000000               0.000000000               0.000000000               0.000000000               0.000000000               0.000000000               0.000000000               0.000000000               0.000000000               0.000000000               0.000000000               0.000000000               0.000000000               0.000000000               0.000000000               0.000000000               0.000000000 </DataArray>
</PointData>
</Piece>
</UnstructuredGrid> </VTKFile>
