<?xml version="1.0"?>
<VTKFile type="UnstructuredGrid" version="0.1">
<UnstructuredGrid>
<Piece NumberOfPoints="      1156" NumberOfCells="      1024">
<Points>
<DataArray type="Float64"                                    Name="coordinates"                                                      NumberOfComponents=" 3" format="ascii">
              0.133000000               0.000000000               0.000000000               0.155937500               0.000000000               0.000000000               0.178875000               0.000000000               0.000000000               0.201812500               0.000000000               0.000000000               0.224750000               0.000000000               0.000000000               0.247687500               0.000000000               0.000000000               0.270625000               0.000000000               0.000000000               0.293562500               0.000000000               0.000000000               0.316500000               0.000000000               0.000000000               0.339437500               0.000000000               0.000000000               0.362375000               0.000000000               0.000000000               0.385312500               0.000000000               0.000000000               0.408250000               0.000000000               0.000000000               0.431187500               0.000000000               0.000000000               0.454125000               0.000000000               0.000000000               0.477062500               0.000000000               0.000000000               0.500000000               0.000000000               0.000000000               0.132359569               0.013036280               0.000000000               0.155337096               0.016127762               0.000000000               0.178314623               0.019219245               0.000000000               0.201292150               0.022310727               0.000000000               0.224269676               0.025402210               0.000000000               0.247247203               0.028493692               0.000000000               0.270224730               0.031585175               0.000000000               0.293202257               0.034676657               0.000000000               0.316179784               0.037768140               0.000000000               0.339157311               0.040859622               0.000000000               0.362134838               0.043951105               0.000000000               0.385112365               0.047042587               0.000000000               0.408089892               0.050134070               0.000000000               0.431067419               0.053225552               0.000000000               0.454044946               0.056317035               0.000000000               0.477022473               0.059408517               0.000000000               0.500000000               0.062500000               0.000000000               0.130444442               0.025947013               0.000000000               0.153541665               0.032137825               0.000000000               0.176638887               0.038328636               0.000000000               0.199736109               0.044519448               0.000000000               0.222833332               0.050710260               0.000000000               0.245930554               0.056901071               0.000000000               0.269027776               0.063091883               0.000000000               0.292124999               0.069282695               0.000000000               0.315222221               0.075473506               0.000000000               0.338319444               0.081664318               0.000000000               0.361416666               0.087855130               0.000000000               0.384513888               0.094045942               0.000000000               0.407611111               0.100236753               0.000000000               0.430708333               0.106427565               0.000000000               0.453805555               0.112618377               0.000000000               0.476902778               0.118809188               0.000000000               0.500000000               0.125000000               0.000000000               0.127273065               0.038607862               0.000000000               0.150568498               0.047913621               0.000000000               0.173863932               0.057219379               0.000000000               0.197159365               0.066525138               0.000000000               0.220454798               0.075830897               0.000000000               0.243750232               0.085136655               0.000000000               0.267045665               0.094442414               0.000000000               0.290341099               0.103748172               0.000000000               0.313636532               0.113053931               0.000000000               0.336931966               0.122359690               0.000000000               0.360227399               0.131665448               0.000000000               0.383522833               0.140971207               0.000000000               0.406818266               0.150276966               0.000000000               0.430113700               0.159582724               0.000000000               0.453409133               0.168888483               0.000000000               0.476704567               0.178194241               0.000000000               0.500000000               0.187500000               0.000000000               0.122875978               0.050896897               0.000000000               0.146446229               0.063340840               0.000000000               0.170016481               0.075784784               0.000000000               0.193586732               0.088228728               0.000000000               0.217156983               0.100672672               0.000000000               0.240727235               0.113116616               0.000000000               0.264297486               0.125560560               0.000000000               0.287867738               0.138004504               0.000000000               0.311437989               0.150448448               0.000000000               0.335008240               0.162892392               0.000000000               0.358578492               0.175336336               0.000000000               0.382148743               0.187780280               0.000000000               0.405718994               0.200224224               0.000000000               0.429289246               0.212668168               0.000000000               0.452859497               0.225112112               0.000000000               0.476429749               0.237556056               0.000000000               0.500000000               0.250000000               0.000000000               0.117295528               0.062695766               0.000000000               0.141214558               0.078308531               0.000000000               0.165133587               0.093921295               0.000000000               0.189052617               0.109534060               0.000000000               0.212971646               0.125146824               0.000000000               0.236890676               0.140759589               0.000000000               0.260809705               0.156372354               0.000000000               0.284728735               0.171985118               0.000000000               0.308647764               0.187597883               0.000000000               0.332566794               0.203210648               0.000000000               0.356485823               0.218823412               0.000000000               0.380404853               0.234436177               0.000000000               0.404323882               0.250048941               0.000000000               0.428242912               0.265661706               0.000000000               0.452161941               0.281274471               0.000000000               0.476080971               0.296887235               0.000000000               0.500000000               0.312500000               0.000000000               0.110585458               0.073890841               0.000000000               0.134923867               0.092710163               0.000000000               0.159262276               0.111529486               0.000000000               0.183600685               0.130348808               0.000000000               0.207939094               0.149168131               0.000000000               0.232277503               0.167987453               0.000000000               0.256615912               0.186806776               0.000000000               0.280954320               0.205626098               0.000000000               0.305292729               0.224445420               0.000000000               0.329631138               0.243264743               0.000000000               0.353969547               0.262084065               0.000000000               0.378307956               0.280903388               0.000000000               0.402646365               0.299722710               0.000000000               0.426984773               0.318542033               0.000000000               0.451323182               0.337361355               0.000000000               0.475661591               0.356180678               0.000000000               0.500000000               0.375000000               0.000000000               0.102810390               0.084374307               0.000000000               0.127634741               0.106444663               0.000000000               0.152459092               0.128515018               0.000000000               0.177283442               0.150585374               0.000000000               0.202107793               0.172655730               0.000000000               0.226932143               0.194726086               0.000000000               0.251756494               0.216796442               0.000000000               0.276580845               0.238866798               0.000000000               0.301405195               0.260937153               0.000000000               0.326229546               0.283007509               0.000000000               0.351053896               0.305077865               0.000000000               0.375878247               0.327148221               0.000000000               0.400702598               0.349218577               0.000000000               0.425526948               0.371288933               0.000000000               0.450351299               0.393359288               0.000000000               0.475175649               0.415429644               0.000000000               0.500000000               0.437500000               0.000000000               0.094045202               0.094045202               0.000000000               0.119417377               0.119417377               0.000000000               0.144789552               0.144789552               0.000000000               0.170161727               0.170161727               0.000000000               0.195533901               0.195533901               0.000000000               0.220906076               0.220906076               0.000000000               0.246278251               0.246278251               0.000000000               0.271650426               0.271650426               0.000000000               0.297022601               0.297022601               0.000000000               0.322394776               0.322394776               0.000000000               0.347766951               0.347766951               0.000000000               0.373139126               0.373139126               0.000000000               0.398511300               0.398511300               0.000000000               0.423883475               0.423883475               0.000000000               0.449255650               0.449255650               0.000000000               0.474627825               0.474627825               0.000000000               0.500000000               0.500000000               0.000000000               0.084374307               0.102810390               0.000000000               0.106444663               0.127634741               0.000000000               0.128515018               0.152459092               0.000000000               0.150585374               0.177283442               0.000000000               0.172655730               0.202107793               0.000000000               0.194726086               0.226932143               0.000000000               0.216796442               0.251756494               0.000000000               0.238866798               0.276580845               0.000000000               0.260937153               0.301405195               0.000000000               0.283007509               0.326229546               0.000000000               0.305077865               0.351053896               0.000000000               0.327148221               0.375878247               0.000000000               0.349218577               0.400702598               0.000000000               0.371288933               0.425526948               0.000000000               0.393359288               0.450351299               0.000000000               0.415429644               0.475175649               0.000000000               0.437500000               0.500000000               0.000000000               0.073890841               0.110585458               0.000000000               0.092710163               0.134923867               0.000000000               0.111529486               0.159262276               0.000000000               0.130348808               0.183600685               0.000000000               0.149168131               0.207939094               0.000000000               0.167987453               0.232277503               0.000000000               0.186806776               0.256615912               0.000000000               0.205626098               0.280954320               0.000000000               0.224445420               0.305292729               0.000000000               0.243264743               0.329631138               0.000000000               0.262084065               0.353969547               0.000000000               0.280903388               0.378307956               0.000000000               0.299722710               0.402646365               0.000000000               0.318542033               0.426984773               0.000000000               0.337361355               0.451323182               0.000000000               0.356180678               0.475661591               0.000000000               0.375000000               0.500000000               0.000000000               0.062695766               0.117295528               0.000000000               0.078308531               0.141214558               0.000000000               0.093921295               0.165133587               0.000000000               0.109534060               0.189052617               0.000000000               0.125146824               0.212971646               0.000000000               0.140759589               0.236890676               0.000000000               0.156372354               0.260809705               0.000000000               0.171985118               0.284728735               0.000000000               0.187597883               0.308647764               0.000000000               0.203210648               0.332566794               0.000000000               0.218823412               0.356485823               0.000000000               0.234436177               0.380404853               0.000000000               0.250048941               0.404323882               0.000000000               0.265661706               0.428242912               0.000000000               0.281274471               0.452161941               0.000000000               0.296887235               0.476080971               0.000000000               0.312500000               0.500000000               0.000000000               0.050896897               0.122875978               0.000000000               0.063340840               0.146446229               0.000000000               0.075784784               0.170016481               0.000000000               0.088228728               0.193586732               0.000000000               0.100672672               0.217156983               0.000000000               0.113116616               0.240727235               0.000000000               0.125560560               0.264297486               0.000000000               0.138004504               0.287867738               0.000000000               0.150448448               0.311437989               0.000000000               0.162892392               0.335008240               0.000000000               0.175336336               0.358578492               0.000000000               0.187780280               0.382148743               0.000000000               0.200224224               0.405718994               0.000000000               0.212668168               0.429289246               0.000000000               0.225112112               0.452859497               0.000000000               0.237556056               0.476429749               0.000000000               0.250000000               0.500000000               0.000000000               0.038607862               0.127273065               0.000000000               0.047913621               0.150568498               0.000000000               0.057219379               0.173863932               0.000000000               0.066525138               0.197159365               0.000000000               0.075830897               0.220454798               0.000000000               0.085136655               0.243750232               0.000000000               0.094442414               0.267045665               0.000000000               0.103748172               0.290341099               0.000000000               0.113053931               0.313636532               0.000000000               0.122359690               0.336931966               0.000000000               0.131665448               0.360227399               0.000000000               0.140971207               0.383522833               0.000000000               0.150276966               0.406818266               0.000000000               0.159582724               0.430113700               0.000000000               0.168888483               0.453409133               0.000000000               0.178194241               0.476704567               0.000000000               0.187500000               0.500000000               0.000000000               0.025947013               0.130444442               0.000000000               0.032137825               0.153541665               0.000000000               0.038328636               0.176638887               0.000000000               0.044519448               0.199736109               0.000000000               0.050710260               0.222833332               0.000000000               0.056901071               0.245930554               0.000000000               0.063091883               0.269027776               0.000000000               0.069282695               0.292124999               0.000000000               0.075473506               0.315222221               0.000000000               0.081664318               0.338319444               0.000000000               0.087855130               0.361416666               0.000000000               0.094045942               0.384513888               0.000000000               0.100236753               0.407611111               0.000000000               0.106427565               0.430708333               0.000000000               0.112618377               0.453805555               0.000000000               0.118809188               0.476902778               0.000000000               0.125000000               0.500000000               0.000000000               0.013036280               0.132359569               0.000000000               0.016127762               0.155337096               0.000000000               0.019219245               0.178314623               0.000000000               0.022310727               0.201292150               0.000000000               0.025402210               0.224269676               0.000000000               0.028493692               0.247247203               0.000000000               0.031585175               0.270224730               0.000000000               0.034676657               0.293202257               0.000000000               0.037768140               0.316179784               0.000000000               0.040859622               0.339157311               0.000000000               0.043951105               0.362134838               0.000000000               0.047042587               0.385112365               0.000000000               0.050134070               0.408089892               0.000000000               0.053225552               0.431067419               0.000000000               0.056317035               0.454044946               0.000000000               0.059408517               0.477022473               0.000000000               0.062500000               0.500000000               0.000000000               0.000000000               0.133000000               0.000000000               0.000000000               0.155937500               0.000000000               0.000000000               0.178875000               0.000000000               0.000000000               0.201812500               0.000000000               0.000000000               0.224750000               0.000000000               0.000000000               0.247687500               0.000000000               0.000000000               0.270625000               0.000000000               0.000000000               0.293562500               0.000000000               0.000000000               0.316500000               0.000000000               0.000000000               0.339437500               0.000000000               0.000000000               0.362375000               0.000000000               0.000000000               0.385312500               0.000000000               0.000000000               0.408250000               0.000000000               0.000000000               0.431187500               0.000000000               0.000000000               0.454125000               0.000000000               0.000000000               0.477062500               0.000000000               0.000000000               0.500000000               0.000000000               0.133000000               0.000000000               0.000000000               0.155937500               0.000000000               0.000000000               0.178875000               0.000000000               0.000000000               0.201812500               0.000000000               0.000000000               0.224750000               0.000000000               0.000000000               0.247687500               0.000000000               0.000000000               0.270625000               0.000000000               0.000000000               0.293562500               0.000000000               0.000000000               0.316500000               0.000000000               0.000000000               0.339437500               0.000000000               0.000000000               0.362375000               0.000000000               0.000000000               0.385312500               0.000000000               0.000000000               0.408250000               0.000000000               0.000000000               0.431187500               0.000000000               0.000000000               0.454125000               0.000000000               0.000000000               0.477062500               0.000000000               0.000000000               0.500000000               0.000000000               0.000000000               0.132359569              -0.013036280               0.000000000               0.155337096              -0.016127762               0.000000000               0.178314623              -0.019219245               0.000000000               0.201292150              -0.022310727               0.000000000               0.224269676              -0.025402210               0.000000000               0.247247203              -0.028493692               0.000000000               0.270224730              -0.031585175               0.000000000               0.293202257              -0.034676657               0.000000000               0.316179784              -0.037768140               0.000000000               0.339157311              -0.040859622               0.000000000               0.362134838              -0.043951105               0.000000000               0.385112365              -0.047042587               0.000000000               0.408089892              -0.050134070               0.000000000               0.431067419              -0.053225552               0.000000000               0.454044946              -0.056317035               0.000000000               0.477022473              -0.059408517               0.000000000               0.500000000              -0.062500000               0.000000000               0.130444442              -0.025947013               0.000000000               0.153541665              -0.032137825               0.000000000               0.176638887              -0.038328636               0.000000000               0.199736109              -0.044519448               0.000000000               0.222833332              -0.050710260               0.000000000               0.245930554              -0.056901071               0.000000000               0.269027776              -0.063091883               0.000000000               0.292124999              -0.069282695               0.000000000               0.315222221              -0.075473506               0.000000000               0.338319444              -0.081664318               0.000000000               0.361416666              -0.087855130               0.000000000               0.384513888              -0.094045942               0.000000000               0.407611111              -0.100236753               0.000000000               0.430708333              -0.106427565               0.000000000               0.453805555              -0.112618377               0.000000000               0.476902778              -0.118809188               0.000000000               0.500000000              -0.125000000               0.000000000               0.127273065              -0.038607862               0.000000000               0.150568498              -0.047913621               0.000000000               0.173863932              -0.057219379               0.000000000               0.197159365              -0.066525138               0.000000000               0.220454798              -0.075830897               0.000000000               0.243750232              -0.085136655               0.000000000               0.267045665              -0.094442414               0.000000000               0.290341099              -0.103748172               0.000000000               0.313636532              -0.113053931               0.000000000               0.336931966              -0.122359690               0.000000000               0.360227399              -0.131665448               0.000000000               0.383522833              -0.140971207               0.000000000               0.406818266              -0.150276966               0.000000000               0.430113700              -0.159582724               0.000000000               0.453409133              -0.168888483               0.000000000               0.476704567              -0.178194241               0.000000000               0.500000000              -0.187500000               0.000000000               0.122875978              -0.050896897               0.000000000               0.146446229              -0.063340840               0.000000000               0.170016481              -0.075784784               0.000000000               0.193586732              -0.088228728               0.000000000               0.217156983              -0.100672672               0.000000000               0.240727235              -0.113116616               0.000000000               0.264297486              -0.125560560               0.000000000               0.287867738              -0.138004504               0.000000000               0.311437989              -0.150448448               0.000000000               0.335008240              -0.162892392               0.000000000               0.358578492              -0.175336336               0.000000000               0.382148743              -0.187780280               0.000000000               0.405718994              -0.200224224               0.000000000               0.429289246              -0.212668168               0.000000000               0.452859497              -0.225112112               0.000000000               0.476429749              -0.237556056               0.000000000               0.500000000              -0.250000000               0.000000000               0.117295528              -0.062695766               0.000000000               0.141214558              -0.078308531               0.000000000               0.165133587              -0.093921295               0.000000000               0.189052617              -0.109534060               0.000000000               0.212971646              -0.125146824               0.000000000               0.236890676              -0.140759589               0.000000000               0.260809705              -0.156372354               0.000000000               0.284728735              -0.171985118               0.000000000               0.308647764              -0.187597883               0.000000000               0.332566794              -0.203210648               0.000000000               0.356485823              -0.218823412               0.000000000               0.380404853              -0.234436177               0.000000000               0.404323882              -0.250048941               0.000000000               0.428242912              -0.265661706               0.000000000               0.452161941              -0.281274471               0.000000000               0.476080971              -0.296887235               0.000000000               0.500000000              -0.312500000               0.000000000               0.110585458              -0.073890841               0.000000000               0.134923867              -0.092710163               0.000000000               0.159262276              -0.111529486               0.000000000               0.183600685              -0.130348808               0.000000000               0.207939094              -0.149168131               0.000000000               0.232277503              -0.167987453               0.000000000               0.256615912              -0.186806776               0.000000000               0.280954320              -0.205626098               0.000000000               0.305292729              -0.224445420               0.000000000               0.329631138              -0.243264743               0.000000000               0.353969547              -0.262084065               0.000000000               0.378307956              -0.280903388               0.000000000               0.402646365              -0.299722710               0.000000000               0.426984773              -0.318542033               0.000000000               0.451323182              -0.337361355               0.000000000               0.475661591              -0.356180678               0.000000000               0.500000000              -0.375000000               0.000000000               0.102810390              -0.084374307               0.000000000               0.127634741              -0.106444663               0.000000000               0.152459092              -0.128515018               0.000000000               0.177283442              -0.150585374               0.000000000               0.202107793              -0.172655730               0.000000000               0.226932143              -0.194726086               0.000000000               0.251756494              -0.216796442               0.000000000               0.276580845              -0.238866798               0.000000000               0.301405195              -0.260937153               0.000000000               0.326229546              -0.283007509               0.000000000               0.351053896              -0.305077865               0.000000000               0.375878247              -0.327148221               0.000000000               0.400702598              -0.349218577               0.000000000               0.425526948              -0.371288933               0.000000000               0.450351299              -0.393359288               0.000000000               0.475175649              -0.415429644               0.000000000               0.500000000              -0.437500000               0.000000000               0.094045202              -0.094045202               0.000000000               0.119417377              -0.119417377               0.000000000               0.144789552              -0.144789552               0.000000000               0.170161727              -0.170161727               0.000000000               0.195533901              -0.195533901               0.000000000               0.220906076              -0.220906076               0.000000000               0.246278251              -0.246278251               0.000000000               0.271650426              -0.271650426               0.000000000               0.297022601              -0.297022601               0.000000000               0.322394776              -0.322394776               0.000000000               0.347766951              -0.347766951               0.000000000               0.373139126              -0.373139126               0.000000000               0.398511300              -0.398511300               0.000000000               0.423883475              -0.423883475               0.000000000               0.449255650              -0.449255650               0.000000000               0.474627825              -0.474627825               0.000000000               0.500000000              -0.500000000               0.000000000               0.084374307              -0.102810390               0.000000000               0.106444663              -0.127634741               0.000000000               0.128515018              -0.152459092               0.000000000               0.150585374              -0.177283442               0.000000000               0.172655730              -0.202107793               0.000000000               0.194726086              -0.226932143               0.000000000               0.216796442              -0.251756494               0.000000000               0.238866798              -0.276580845               0.000000000               0.260937153              -0.301405195               0.000000000               0.283007509              -0.326229546               0.000000000               0.305077865              -0.351053896               0.000000000               0.327148221              -0.375878247               0.000000000               0.349218577              -0.400702598               0.000000000               0.371288933              -0.425526948               0.000000000               0.393359288              -0.450351299               0.000000000               0.415429644              -0.475175649               0.000000000               0.437500000              -0.500000000               0.000000000               0.073890841              -0.110585458               0.000000000               0.092710163              -0.134923867               0.000000000               0.111529486              -0.159262276               0.000000000               0.130348808              -0.183600685               0.000000000               0.149168131              -0.207939094               0.000000000               0.167987453              -0.232277503               0.000000000               0.186806776              -0.256615912               0.000000000               0.205626098              -0.280954320               0.000000000               0.224445420              -0.305292729               0.000000000               0.243264743              -0.329631138               0.000000000               0.262084065              -0.353969547               0.000000000               0.280903388              -0.378307956               0.000000000               0.299722710              -0.402646365               0.000000000               0.318542033              -0.426984773               0.000000000               0.337361355              -0.451323182               0.000000000               0.356180678              -0.475661591               0.000000000               0.375000000              -0.500000000               0.000000000               0.062695766              -0.117295528               0.000000000               0.078308531              -0.141214558               0.000000000               0.093921295              -0.165133587               0.000000000               0.109534060              -0.189052617               0.000000000               0.125146824              -0.212971646               0.000000000               0.140759589              -0.236890676               0.000000000               0.156372354              -0.260809705               0.000000000               0.171985118              -0.284728735               0.000000000               0.187597883              -0.308647764               0.000000000               0.203210648              -0.332566794               0.000000000               0.218823412              -0.356485823               0.000000000               0.234436177              -0.380404853               0.000000000               0.250048941              -0.404323882               0.000000000               0.265661706              -0.428242912               0.000000000               0.281274471              -0.452161941               0.000000000               0.296887235              -0.476080971               0.000000000               0.312500000              -0.500000000               0.000000000               0.050896897              -0.122875978               0.000000000               0.063340840              -0.146446229               0.000000000               0.075784784              -0.170016481               0.000000000               0.088228728              -0.193586732               0.000000000               0.100672672              -0.217156983               0.000000000               0.113116616              -0.240727235               0.000000000               0.125560560              -0.264297486               0.000000000               0.138004504              -0.287867738               0.000000000               0.150448448              -0.311437989               0.000000000               0.162892392              -0.335008240               0.000000000               0.175336336              -0.358578492               0.000000000               0.187780280              -0.382148743               0.000000000               0.200224224              -0.405718994               0.000000000               0.212668168              -0.429289246               0.000000000               0.225112112              -0.452859497               0.000000000               0.237556056              -0.476429749               0.000000000               0.250000000              -0.500000000               0.000000000               0.038607862              -0.127273065               0.000000000               0.047913621              -0.150568498               0.000000000               0.057219379              -0.173863932               0.000000000               0.066525138              -0.197159365               0.000000000               0.075830897              -0.220454798               0.000000000               0.085136655              -0.243750232               0.000000000               0.094442414              -0.267045665               0.000000000               0.103748172              -0.290341099               0.000000000               0.113053931              -0.313636532               0.000000000               0.122359690              -0.336931966               0.000000000               0.131665448              -0.360227399               0.000000000               0.140971207              -0.383522833               0.000000000               0.150276966              -0.406818266               0.000000000               0.159582724              -0.430113700               0.000000000               0.168888483              -0.453409133               0.000000000               0.178194241              -0.476704567               0.000000000               0.187500000              -0.500000000               0.000000000               0.025947013              -0.130444442               0.000000000               0.032137825              -0.153541665               0.000000000               0.038328636              -0.176638887               0.000000000               0.044519448              -0.199736109               0.000000000               0.050710260              -0.222833332               0.000000000               0.056901071              -0.245930554               0.000000000               0.063091883              -0.269027776               0.000000000               0.069282695              -0.292124999               0.000000000               0.075473506              -0.315222221               0.000000000               0.081664318              -0.338319444               0.000000000               0.087855130              -0.361416666               0.000000000               0.094045942              -0.384513888               0.000000000               0.100236753              -0.407611111               0.000000000               0.106427565              -0.430708333               0.000000000               0.112618377              -0.453805555               0.000000000               0.118809188              -0.476902778               0.000000000               0.125000000              -0.500000000               0.000000000               0.013036280              -0.132359569               0.000000000               0.016127762              -0.155337096               0.000000000               0.019219245              -0.178314623               0.000000000               0.022310727              -0.201292150               0.000000000               0.025402210              -0.224269676               0.000000000               0.028493692              -0.247247203               0.000000000               0.031585175              -0.270224730               0.000000000               0.034676657              -0.293202257               0.000000000               0.037768140              -0.316179784               0.000000000               0.040859622              -0.339157311               0.000000000               0.043951105              -0.362134838               0.000000000               0.047042587              -0.385112365               0.000000000               0.050134070              -0.408089892               0.000000000               0.053225552              -0.431067419               0.000000000               0.056317035              -0.454044946               0.000000000               0.059408517              -0.477022473               0.000000000               0.062500000              -0.500000000               0.000000000               0.000000000              -0.133000000               0.000000000               0.000000000              -0.155937500               0.000000000               0.000000000              -0.178875000               0.000000000               0.000000000              -0.201812500               0.000000000               0.000000000              -0.224750000               0.000000000               0.000000000              -0.247687500               0.000000000               0.000000000              -0.270625000               0.000000000               0.000000000              -0.293562500               0.000000000               0.000000000              -0.316500000               0.000000000               0.000000000              -0.339437500               0.000000000               0.000000000              -0.362375000               0.000000000               0.000000000              -0.385312500               0.000000000               0.000000000              -0.408250000               0.000000000               0.000000000              -0.431187500               0.000000000               0.000000000              -0.454125000               0.000000000               0.000000000              -0.477062500               0.000000000               0.000000000              -0.500000000               0.000000000              -0.133000000               0.000000000               0.000000000              -0.155937500               0.000000000               0.000000000              -0.178875000               0.000000000               0.000000000              -0.201812500               0.000000000               0.000000000              -0.224750000               0.000000000               0.000000000              -0.247687500               0.000000000               0.000000000              -0.270625000               0.000000000               0.000000000              -0.293562500               0.000000000               0.000000000              -0.316500000               0.000000000               0.000000000              -0.339437500               0.000000000               0.000000000              -0.362375000               0.000000000               0.000000000              -0.385312500               0.000000000               0.000000000              -0.408250000               0.000000000               0.000000000              -0.431187500               0.000000000               0.000000000              -0.454125000               0.000000000               0.000000000              -0.477062500               0.000000000               0.000000000              -0.500000000               0.000000000               0.000000000              -0.132359569              -0.013036280               0.000000000              -0.155337096              -0.016127762               0.000000000              -0.178314623              -0.019219245               0.000000000              -0.201292150              -0.022310727               0.000000000              -0.224269676              -0.025402210               0.000000000              -0.247247203              -0.028493692               0.000000000              -0.270224730              -0.031585175               0.000000000              -0.293202257              -0.034676657               0.000000000              -0.316179784              -0.037768140               0.000000000              -0.339157311              -0.040859622               0.000000000              -0.362134838              -0.043951105               0.000000000              -0.385112365              -0.047042587               0.000000000              -0.408089892              -0.050134070               0.000000000              -0.431067419              -0.053225552               0.000000000              -0.454044946              -0.056317035               0.000000000              -0.477022473              -0.059408517               0.000000000              -0.500000000              -0.062500000               0.000000000              -0.130444442              -0.025947013               0.000000000              -0.153541665              -0.032137825               0.000000000              -0.176638887              -0.038328636               0.000000000              -0.199736109              -0.044519448               0.000000000              -0.222833332              -0.050710260               0.000000000              -0.245930554              -0.056901071               0.000000000              -0.269027776              -0.063091883               0.000000000              -0.292124999              -0.069282695               0.000000000              -0.315222221              -0.075473506               0.000000000              -0.338319444              -0.081664318               0.000000000              -0.361416666              -0.087855130               0.000000000              -0.384513888              -0.094045942               0.000000000              -0.407611111              -0.100236753               0.000000000              -0.430708333              -0.106427565               0.000000000              -0.453805555              -0.112618377               0.000000000              -0.476902778              -0.118809188               0.000000000              -0.500000000              -0.125000000               0.000000000              -0.127273065              -0.038607862               0.000000000              -0.150568498              -0.047913621               0.000000000              -0.173863932              -0.057219379               0.000000000              -0.197159365              -0.066525138               0.000000000              -0.220454798              -0.075830897               0.000000000              -0.243750232              -0.085136655               0.000000000              -0.267045665              -0.094442414               0.000000000              -0.290341099              -0.103748172               0.000000000              -0.313636532              -0.113053931               0.000000000              -0.336931966              -0.122359690               0.000000000              -0.360227399              -0.131665448               0.000000000              -0.383522833              -0.140971207               0.000000000              -0.406818266              -0.150276966               0.000000000              -0.430113700              -0.159582724               0.000000000              -0.453409133              -0.168888483               0.000000000              -0.476704567              -0.178194241               0.000000000              -0.500000000              -0.187500000               0.000000000              -0.122875978              -0.050896897               0.000000000              -0.146446229              -0.063340840               0.000000000              -0.170016481              -0.075784784               0.000000000              -0.193586732              -0.088228728               0.000000000              -0.217156983              -0.100672672               0.000000000              -0.240727235              -0.113116616               0.000000000              -0.264297486              -0.125560560               0.000000000              -0.287867738              -0.138004504               0.000000000              -0.311437989              -0.150448448               0.000000000              -0.335008240              -0.162892392               0.000000000              -0.358578492              -0.175336336               0.000000000              -0.382148743              -0.187780280               0.000000000              -0.405718994              -0.200224224               0.000000000              -0.429289246              -0.212668168               0.000000000              -0.452859497              -0.225112112               0.000000000              -0.476429749              -0.237556056               0.000000000              -0.500000000              -0.250000000               0.000000000              -0.117295528              -0.062695766               0.000000000              -0.141214558              -0.078308531               0.000000000              -0.165133587              -0.093921295               0.000000000              -0.189052617              -0.109534060               0.000000000              -0.212971646              -0.125146824               0.000000000              -0.236890676              -0.140759589               0.000000000              -0.260809705              -0.156372354               0.000000000              -0.284728735              -0.171985118               0.000000000              -0.308647764              -0.187597883               0.000000000              -0.332566794              -0.203210648               0.000000000              -0.356485823              -0.218823412               0.000000000              -0.380404853              -0.234436177               0.000000000              -0.404323882              -0.250048941               0.000000000              -0.428242912              -0.265661706               0.000000000              -0.452161941              -0.281274471               0.000000000              -0.476080971              -0.296887235               0.000000000              -0.500000000              -0.312500000               0.000000000              -0.110585458              -0.073890841               0.000000000              -0.134923867              -0.092710163               0.000000000              -0.159262276              -0.111529486               0.000000000              -0.183600685              -0.130348808               0.000000000              -0.207939094              -0.149168131               0.000000000              -0.232277503              -0.167987453               0.000000000              -0.256615912              -0.186806776               0.000000000              -0.280954320              -0.205626098               0.000000000              -0.305292729              -0.224445420               0.000000000              -0.329631138              -0.243264743               0.000000000              -0.353969547              -0.262084065               0.000000000              -0.378307956              -0.280903388               0.000000000              -0.402646365              -0.299722710               0.000000000              -0.426984773              -0.318542033               0.000000000              -0.451323182              -0.337361355               0.000000000              -0.475661591              -0.356180678               0.000000000              -0.500000000              -0.375000000               0.000000000              -0.102810390              -0.084374307               0.000000000              -0.127634741              -0.106444663               0.000000000              -0.152459092              -0.128515018               0.000000000              -0.177283442              -0.150585374               0.000000000              -0.202107793              -0.172655730               0.000000000              -0.226932143              -0.194726086               0.000000000              -0.251756494              -0.216796442               0.000000000              -0.276580845              -0.238866798               0.000000000              -0.301405195              -0.260937153               0.000000000              -0.326229546              -0.283007509               0.000000000              -0.351053896              -0.305077865               0.000000000              -0.375878247              -0.327148221               0.000000000              -0.400702598              -0.349218577               0.000000000              -0.425526948              -0.371288933               0.000000000              -0.450351299              -0.393359288               0.000000000              -0.475175649              -0.415429644               0.000000000              -0.500000000              -0.437500000               0.000000000              -0.094045202              -0.094045202               0.000000000              -0.119417377              -0.119417377               0.000000000              -0.144789552              -0.144789552               0.000000000              -0.170161727              -0.170161727               0.000000000              -0.195533901              -0.195533901               0.000000000              -0.220906076              -0.220906076               0.000000000              -0.246278251              -0.246278251               0.000000000              -0.271650426              -0.271650426               0.000000000              -0.297022601              -0.297022601               0.000000000              -0.322394776              -0.322394776               0.000000000              -0.347766951              -0.347766951               0.000000000              -0.373139126              -0.373139126               0.000000000              -0.398511300              -0.398511300               0.000000000              -0.423883475              -0.423883475               0.000000000              -0.449255650              -0.449255650               0.000000000              -0.474627825              -0.474627825               0.000000000              -0.500000000              -0.500000000               0.000000000              -0.084374307              -0.102810390               0.000000000              -0.106444663              -0.127634741               0.000000000              -0.128515018              -0.152459092               0.000000000              -0.150585374              -0.177283442               0.000000000              -0.172655730              -0.202107793               0.000000000              -0.194726086              -0.226932143               0.000000000              -0.216796442              -0.251756494               0.000000000              -0.238866798              -0.276580845               0.000000000              -0.260937153              -0.301405195               0.000000000              -0.283007509              -0.326229546               0.000000000              -0.305077865              -0.351053896               0.000000000              -0.327148221              -0.375878247               0.000000000              -0.349218577              -0.400702598               0.000000000              -0.371288933              -0.425526948               0.000000000              -0.393359288              -0.450351299               0.000000000              -0.415429644              -0.475175649               0.000000000              -0.437500000              -0.500000000               0.000000000              -0.073890841              -0.110585458               0.000000000              -0.092710163              -0.134923867               0.000000000              -0.111529486              -0.159262276               0.000000000              -0.130348808              -0.183600685               0.000000000              -0.149168131              -0.207939094               0.000000000              -0.167987453              -0.232277503               0.000000000              -0.186806776              -0.256615912               0.000000000              -0.205626098              -0.280954320               0.000000000              -0.224445420              -0.305292729               0.000000000              -0.243264743              -0.329631138               0.000000000              -0.262084065              -0.353969547               0.000000000              -0.280903388              -0.378307956               0.000000000              -0.299722710              -0.402646365               0.000000000              -0.318542033              -0.426984773               0.000000000              -0.337361355              -0.451323182               0.000000000              -0.356180678              -0.475661591               0.000000000              -0.375000000              -0.500000000               0.000000000              -0.062695766              -0.117295528               0.000000000              -0.078308531              -0.141214558               0.000000000              -0.093921295              -0.165133587               0.000000000              -0.109534060              -0.189052617               0.000000000              -0.125146824              -0.212971646               0.000000000              -0.140759589              -0.236890676               0.000000000              -0.156372354              -0.260809705               0.000000000              -0.171985118              -0.284728735               0.000000000              -0.187597883              -0.308647764               0.000000000              -0.203210648              -0.332566794               0.000000000              -0.218823412              -0.356485823               0.000000000              -0.234436177              -0.380404853               0.000000000              -0.250048941              -0.404323882               0.000000000              -0.265661706              -0.428242912               0.000000000              -0.281274471              -0.452161941               0.000000000              -0.296887235              -0.476080971               0.000000000              -0.312500000              -0.500000000               0.000000000              -0.050896897              -0.122875978               0.000000000              -0.063340840              -0.146446229               0.000000000              -0.075784784              -0.170016481               0.000000000              -0.088228728              -0.193586732               0.000000000              -0.100672672              -0.217156983               0.000000000              -0.113116616              -0.240727235               0.000000000              -0.125560560              -0.264297486               0.000000000              -0.138004504              -0.287867738               0.000000000              -0.150448448              -0.311437989               0.000000000              -0.162892392              -0.335008240               0.000000000              -0.175336336              -0.358578492               0.000000000              -0.187780280              -0.382148743               0.000000000              -0.200224224              -0.405718994               0.000000000              -0.212668168              -0.429289246               0.000000000              -0.225112112              -0.452859497               0.000000000              -0.237556056              -0.476429749               0.000000000              -0.250000000              -0.500000000               0.000000000              -0.038607862              -0.127273065               0.000000000              -0.047913621              -0.150568498               0.000000000              -0.057219379              -0.173863932               0.000000000              -0.066525138              -0.197159365               0.000000000              -0.075830897              -0.220454798               0.000000000              -0.085136655              -0.243750232               0.000000000              -0.094442414              -0.267045665               0.000000000              -0.103748172              -0.290341099               0.000000000              -0.113053931              -0.313636532               0.000000000              -0.122359690              -0.336931966               0.000000000              -0.131665448              -0.360227399               0.000000000              -0.140971207              -0.383522833               0.000000000              -0.150276966              -0.406818266               0.000000000              -0.159582724              -0.430113700               0.000000000              -0.168888483              -0.453409133               0.000000000              -0.178194241              -0.476704567               0.000000000              -0.187500000              -0.500000000               0.000000000              -0.025947013              -0.130444442               0.000000000              -0.032137825              -0.153541665               0.000000000              -0.038328636              -0.176638887               0.000000000              -0.044519448              -0.199736109               0.000000000              -0.050710260              -0.222833332               0.000000000              -0.056901071              -0.245930554               0.000000000              -0.063091883              -0.269027776               0.000000000              -0.069282695              -0.292124999               0.000000000              -0.075473506              -0.315222221               0.000000000              -0.081664318              -0.338319444               0.000000000              -0.087855130              -0.361416666               0.000000000              -0.094045942              -0.384513888               0.000000000              -0.100236753              -0.407611111               0.000000000              -0.106427565              -0.430708333               0.000000000              -0.112618377              -0.453805555               0.000000000              -0.118809188              -0.476902778               0.000000000              -0.125000000              -0.500000000               0.000000000              -0.013036280              -0.132359569               0.000000000              -0.016127762              -0.155337096               0.000000000              -0.019219245              -0.178314623               0.000000000              -0.022310727              -0.201292150               0.000000000              -0.025402210              -0.224269676               0.000000000              -0.028493692              -0.247247203               0.000000000              -0.031585175              -0.270224730               0.000000000              -0.034676657              -0.293202257               0.000000000              -0.037768140              -0.316179784               0.000000000              -0.040859622              -0.339157311               0.000000000              -0.043951105              -0.362134838               0.000000000              -0.047042587              -0.385112365               0.000000000              -0.050134070              -0.408089892               0.000000000              -0.053225552              -0.431067419               0.000000000              -0.056317035              -0.454044946               0.000000000              -0.059408517              -0.477022473               0.000000000              -0.062500000              -0.500000000               0.000000000               0.000000000              -0.133000000               0.000000000               0.000000000              -0.155937500               0.000000000               0.000000000              -0.178875000               0.000000000               0.000000000              -0.201812500               0.000000000               0.000000000              -0.224750000               0.000000000               0.000000000              -0.247687500               0.000000000               0.000000000              -0.270625000               0.000000000               0.000000000              -0.293562500               0.000000000               0.000000000              -0.316500000               0.000000000               0.000000000              -0.339437500               0.000000000               0.000000000              -0.362375000               0.000000000               0.000000000              -0.385312500               0.000000000               0.000000000              -0.408250000               0.000000000               0.000000000              -0.431187500               0.000000000               0.000000000              -0.454125000               0.000000000               0.000000000              -0.477062500               0.000000000               0.000000000              -0.500000000               0.000000000              -0.133000000               0.000000000               0.000000000              -0.155937500               0.000000000               0.000000000              -0.178875000               0.000000000               0.000000000              -0.201812500               0.000000000               0.000000000              -0.224750000               0.000000000               0.000000000              -0.247687500               0.000000000               0.000000000              -0.270625000               0.000000000               0.000000000              -0.293562500               0.000000000               0.000000000              -0.316500000               0.000000000               0.000000000              -0.339437500               0.000000000               0.000000000              -0.362375000               0.000000000               0.000000000              -0.385312500               0.000000000               0.000000000              -0.408250000               0.000000000               0.000000000              -0.431187500               0.000000000               0.000000000              -0.454125000               0.000000000               0.000000000              -0.477062500               0.000000000               0.000000000              -0.500000000               0.000000000               0.000000000              -0.132359569               0.013036280               0.000000000              -0.155337096               0.016127762               0.000000000              -0.178314623               0.019219245               0.000000000              -0.201292150               0.022310727               0.000000000              -0.224269676               0.025402210               0.000000000              -0.247247203               0.028493692               0.000000000              -0.270224730               0.031585175               0.000000000              -0.293202257               0.034676657               0.000000000              -0.316179784               0.037768140               0.000000000              -0.339157311               0.040859622               0.000000000              -0.362134838               0.043951105               0.000000000              -0.385112365               0.047042587               0.000000000              -0.408089892               0.050134070               0.000000000              -0.431067419               0.053225552               0.000000000              -0.454044946               0.056317035               0.000000000              -0.477022473               0.059408517               0.000000000              -0.500000000               0.062500000               0.000000000              -0.130444442               0.025947013               0.000000000              -0.153541665               0.032137825               0.000000000              -0.176638887               0.038328636               0.000000000              -0.199736109               0.044519448               0.000000000              -0.222833332               0.050710260               0.000000000              -0.245930554               0.056901071               0.000000000              -0.269027776               0.063091883               0.000000000              -0.292124999               0.069282695               0.000000000              -0.315222221               0.075473506               0.000000000              -0.338319444               0.081664318               0.000000000              -0.361416666               0.087855130               0.000000000              -0.384513888               0.094045942               0.000000000              -0.407611111               0.100236753               0.000000000              -0.430708333               0.106427565               0.000000000              -0.453805555               0.112618377               0.000000000              -0.476902778               0.118809188               0.000000000              -0.500000000               0.125000000               0.000000000              -0.127273065               0.038607862               0.000000000              -0.150568498               0.047913621               0.000000000              -0.173863932               0.057219379               0.000000000              -0.197159365               0.066525138               0.000000000              -0.220454798               0.075830897               0.000000000              -0.243750232               0.085136655               0.000000000              -0.267045665               0.094442414               0.000000000              -0.290341099               0.103748172               0.000000000              -0.313636532               0.113053931               0.000000000              -0.336931966               0.122359690               0.000000000              -0.360227399               0.131665448               0.000000000              -0.383522833               0.140971207               0.000000000              -0.406818266               0.150276966               0.000000000              -0.430113700               0.159582724               0.000000000              -0.453409133               0.168888483               0.000000000              -0.476704567               0.178194241               0.000000000              -0.500000000               0.187500000               0.000000000              -0.122875978               0.050896897               0.000000000              -0.146446229               0.063340840               0.000000000              -0.170016481               0.075784784               0.000000000              -0.193586732               0.088228728               0.000000000              -0.217156983               0.100672672               0.000000000              -0.240727235               0.113116616               0.000000000              -0.264297486               0.125560560               0.000000000              -0.287867738               0.138004504               0.000000000              -0.311437989               0.150448448               0.000000000              -0.335008240               0.162892392               0.000000000              -0.358578492               0.175336336               0.000000000              -0.382148743               0.187780280               0.000000000              -0.405718994               0.200224224               0.000000000              -0.429289246               0.212668168               0.000000000              -0.452859497               0.225112112               0.000000000              -0.476429749               0.237556056               0.000000000              -0.500000000               0.250000000               0.000000000              -0.117295528               0.062695766               0.000000000              -0.141214558               0.078308531               0.000000000              -0.165133587               0.093921295               0.000000000              -0.189052617               0.109534060               0.000000000              -0.212971646               0.125146824               0.000000000              -0.236890676               0.140759589               0.000000000              -0.260809705               0.156372354               0.000000000              -0.284728735               0.171985118               0.000000000              -0.308647764               0.187597883               0.000000000              -0.332566794               0.203210648               0.000000000              -0.356485823               0.218823412               0.000000000              -0.380404853               0.234436177               0.000000000              -0.404323882               0.250048941               0.000000000              -0.428242912               0.265661706               0.000000000              -0.452161941               0.281274471               0.000000000              -0.476080971               0.296887235               0.000000000              -0.500000000               0.312500000               0.000000000              -0.110585458               0.073890841               0.000000000              -0.134923867               0.092710163               0.000000000              -0.159262276               0.111529486               0.000000000              -0.183600685               0.130348808               0.000000000              -0.207939094               0.149168131               0.000000000              -0.232277503               0.167987453               0.000000000              -0.256615912               0.186806776               0.000000000              -0.280954320               0.205626098               0.000000000              -0.305292729               0.224445420               0.000000000              -0.329631138               0.243264743               0.000000000              -0.353969547               0.262084065               0.000000000              -0.378307956               0.280903388               0.000000000              -0.402646365               0.299722710               0.000000000              -0.426984773               0.318542033               0.000000000              -0.451323182               0.337361355               0.000000000              -0.475661591               0.356180678               0.000000000              -0.500000000               0.375000000               0.000000000              -0.102810390               0.084374307               0.000000000              -0.127634741               0.106444663               0.000000000              -0.152459092               0.128515018               0.000000000              -0.177283442               0.150585374               0.000000000              -0.202107793               0.172655730               0.000000000              -0.226932143               0.194726086               0.000000000              -0.251756494               0.216796442               0.000000000              -0.276580845               0.238866798               0.000000000              -0.301405195               0.260937153               0.000000000              -0.326229546               0.283007509               0.000000000              -0.351053896               0.305077865               0.000000000              -0.375878247               0.327148221               0.000000000              -0.400702598               0.349218577               0.000000000              -0.425526948               0.371288933               0.000000000              -0.450351299               0.393359288               0.000000000              -0.475175649               0.415429644               0.000000000              -0.500000000               0.437500000               0.000000000              -0.094045202               0.094045202               0.000000000              -0.119417377               0.119417377               0.000000000              -0.144789552               0.144789552               0.000000000              -0.170161727               0.170161727               0.000000000              -0.195533901               0.195533901               0.000000000              -0.220906076               0.220906076               0.000000000              -0.246278251               0.246278251               0.000000000              -0.271650426               0.271650426               0.000000000              -0.297022601               0.297022601               0.000000000              -0.322394776               0.322394776               0.000000000              -0.347766951               0.347766951               0.000000000              -0.373139126               0.373139126               0.000000000              -0.398511300               0.398511300               0.000000000              -0.423883475               0.423883475               0.000000000              -0.449255650               0.449255650               0.000000000              -0.474627825               0.474627825               0.000000000              -0.500000000               0.500000000               0.000000000              -0.084374307               0.102810390               0.000000000              -0.106444663               0.127634741               0.000000000              -0.128515018               0.152459092               0.000000000              -0.150585374               0.177283442               0.000000000              -0.172655730               0.202107793               0.000000000              -0.194726086               0.226932143               0.000000000              -0.216796442               0.251756494               0.000000000              -0.238866798               0.276580845               0.000000000              -0.260937153               0.301405195               0.000000000              -0.283007509               0.326229546               0.000000000              -0.305077865               0.351053896               0.000000000              -0.327148221               0.375878247               0.000000000              -0.349218577               0.400702598               0.000000000              -0.371288933               0.425526948               0.000000000              -0.393359288               0.450351299               0.000000000              -0.415429644               0.475175649               0.000000000              -0.437500000               0.500000000               0.000000000              -0.073890841               0.110585458               0.000000000              -0.092710163               0.134923867               0.000000000              -0.111529486               0.159262276               0.000000000              -0.130348808               0.183600685               0.000000000              -0.149168131               0.207939094               0.000000000              -0.167987453               0.232277503               0.000000000              -0.186806776               0.256615912               0.000000000              -0.205626098               0.280954320               0.000000000              -0.224445420               0.305292729               0.000000000              -0.243264743               0.329631138               0.000000000              -0.262084065               0.353969547               0.000000000              -0.280903388               0.378307956               0.000000000              -0.299722710               0.402646365               0.000000000              -0.318542033               0.426984773               0.000000000              -0.337361355               0.451323182               0.000000000              -0.356180678               0.475661591               0.000000000              -0.375000000               0.500000000               0.000000000              -0.062695766               0.117295528               0.000000000              -0.078308531               0.141214558               0.000000000              -0.093921295               0.165133587               0.000000000              -0.109534060               0.189052617               0.000000000              -0.125146824               0.212971646               0.000000000              -0.140759589               0.236890676               0.000000000              -0.156372354               0.260809705               0.000000000              -0.171985118               0.284728735               0.000000000              -0.187597883               0.308647764               0.000000000              -0.203210648               0.332566794               0.000000000              -0.218823412               0.356485823               0.000000000              -0.234436177               0.380404853               0.000000000              -0.250048941               0.404323882               0.000000000              -0.265661706               0.428242912               0.000000000              -0.281274471               0.452161941               0.000000000              -0.296887235               0.476080971               0.000000000              -0.312500000               0.500000000               0.000000000              -0.050896897               0.122875978               0.000000000              -0.063340840               0.146446229               0.000000000              -0.075784784               0.170016481               0.000000000              -0.088228728               0.193586732               0.000000000              -0.100672672               0.217156983               0.000000000              -0.113116616               0.240727235               0.000000000              -0.125560560               0.264297486               0.000000000              -0.138004504               0.287867738               0.000000000              -0.150448448               0.311437989               0.000000000              -0.162892392               0.335008240               0.000000000              -0.175336336               0.358578492               0.000000000              -0.187780280               0.382148743               0.000000000              -0.200224224               0.405718994               0.000000000              -0.212668168               0.429289246               0.000000000              -0.225112112               0.452859497               0.000000000              -0.237556056               0.476429749               0.000000000              -0.250000000               0.500000000               0.000000000              -0.038607862               0.127273065               0.000000000              -0.047913621               0.150568498               0.000000000              -0.057219379               0.173863932               0.000000000              -0.066525138               0.197159365               0.000000000              -0.075830897               0.220454798               0.000000000              -0.085136655               0.243750232               0.000000000              -0.094442414               0.267045665               0.000000000              -0.103748172               0.290341099               0.000000000              -0.113053931               0.313636532               0.000000000              -0.122359690               0.336931966               0.000000000              -0.131665448               0.360227399               0.000000000              -0.140971207               0.383522833               0.000000000              -0.150276966               0.406818266               0.000000000              -0.159582724               0.430113700               0.000000000              -0.168888483               0.453409133               0.000000000              -0.178194241               0.476704567               0.000000000              -0.187500000               0.500000000               0.000000000              -0.025947013               0.130444442               0.000000000              -0.032137825               0.153541665               0.000000000              -0.038328636               0.176638887               0.000000000              -0.044519448               0.199736109               0.000000000              -0.050710260               0.222833332               0.000000000              -0.056901071               0.245930554               0.000000000              -0.063091883               0.269027776               0.000000000              -0.069282695               0.292124999               0.000000000              -0.075473506               0.315222221               0.000000000              -0.081664318               0.338319444               0.000000000              -0.087855130               0.361416666               0.000000000              -0.094045942               0.384513888               0.000000000              -0.100236753               0.407611111               0.000000000              -0.106427565               0.430708333               0.000000000              -0.112618377               0.453805555               0.000000000              -0.118809188               0.476902778               0.000000000              -0.125000000               0.500000000               0.000000000              -0.013036280               0.132359569               0.000000000              -0.016127762               0.155337096               0.000000000              -0.019219245               0.178314623               0.000000000              -0.022310727               0.201292150               0.000000000              -0.025402210               0.224269676               0.000000000              -0.028493692               0.247247203               0.000000000              -0.031585175               0.270224730               0.000000000              -0.034676657               0.293202257               0.000000000              -0.037768140               0.316179784               0.000000000              -0.040859622               0.339157311               0.000000000              -0.043951105               0.362134838               0.000000000              -0.047042587               0.385112365               0.000000000              -0.050134070               0.408089892               0.000000000              -0.053225552               0.431067419               0.000000000              -0.056317035               0.454044946               0.000000000              -0.059408517               0.477022473               0.000000000              -0.062500000               0.500000000               0.000000000               0.000000000               0.133000000               0.000000000               0.000000000               0.155937500               0.000000000               0.000000000               0.178875000               0.000000000               0.000000000               0.201812500               0.000000000               0.000000000               0.224750000               0.000000000               0.000000000               0.247687500               0.000000000               0.000000000               0.270625000               0.000000000               0.000000000               0.293562500               0.000000000               0.000000000               0.316500000               0.000000000               0.000000000               0.339437500               0.000000000               0.000000000               0.362375000               0.000000000               0.000000000               0.385312500               0.000000000               0.000000000               0.408250000               0.000000000               0.000000000               0.431187500               0.000000000               0.000000000               0.454125000               0.000000000               0.000000000               0.477062500               0.000000000               0.000000000               0.500000000               0.000000000 </DataArray>
</Points>
<Cells>
<DataArray type="Int32"                                    Name="connectivity"                                                      NumberOfComponents=" 1" format="ascii">
         0          1         18         17          1          2         19         18          2          3         20         19          3          4         21         20          4          5         22         21          5          6         23         22          6          7         24         23          7          8         25         24          8          9         26         25          9         10         27         26         10         11         28         27         11         12         29         28         12         13         30         29         13         14         31         30         14         15         32         31         15         16         33         32         17         18         35         34         18         19         36         35         19         20         37         36         20         21         38         37         21         22         39         38         22         23         40         39         23         24         41         40         24         25         42         41         25         26         43         42         26         27         44         43         27         28         45         44         28         29         46         45         29         30         47         46         30         31         48         47         31         32         49         48         32         33         50         49         34         35         52         51         35         36         53         52         36         37         54         53         37         38         55         54         38         39         56         55         39         40         57         56         40         41         58         57         41         42         59         58         42         43         60         59         43         44         61         60         44         45         62         61         45         46         63         62         46         47         64         63         47         48         65         64         48         49         66         65         49         50         67         66         51         52         69         68         52         53         70         69         53         54         71         70         54         55         72         71         55         56         73         72         56         57         74         73         57         58         75         74         58         59         76         75         59         60         77         76         60         61         78         77         61         62         79         78         62         63         80         79         63         64         81         80         64         65         82         81         65         66         83         82         66         67         84         83         68         69         86         85         69         70         87         86         70         71         88         87         71         72         89         88         72         73         90         89         73         74         91         90         74         75         92         91         75         76         93         92         76         77         94         93         77         78         95         94         78         79         96         95         79         80         97         96         80         81         98         97         81         82         99         98         82         83        100         99         83         84        101        100         85         86        103        102         86         87        104        103         87         88        105        104         88         89        106        105         89         90        107        106         90         91        108        107         91         92        109        108         92         93        110        109         93         94        111        110         94         95        112        111         95         96        113        112         96         97        114        113         97         98        115        114         98         99        116        115         99        100        117        116        100        101        118        117        102        103        120        119        103        104        121        120        104        105        122        121        105        106        123        122        106        107        124        123        107        108        125        124        108        109        126        125        109        110        127        126        110        111        128        127        111        112        129        128        112        113        130        129        113        114        131        130        114        115        132        131        115        116        133        132        116        117        134        133        117        118        135        134        119        120        137        136        120        121        138        137        121        122        139        138        122        123        140        139        123        124        141        140        124        125        142        141        125        126        143        142        126        127        144        143        127        128        145        144        128        129        146        145        129        130        147        146        130        131        148        147        131        132        149        148        132        133        150        149        133        134        151        150        134        135        152        151        136        137        154        153        137        138        155        154        138        139        156        155        139        140        157        156        140        141        158        157        141        142        159        158        142        143        160        159        143        144        161        160        144        145        162        161        145        146        163        162        146        147        164        163        147        148        165        164        148        149        166        165        149        150        167        166        150        151        168        167        151        152        169        168        153        154        171        170        154        155        172        171        155        156        173        172        156        157        174        173        157        158        175        174        158        159        176        175        159        160        177        176        160        161        178        177        161        162        179        178        162        163        180        179        163        164        181        180        164        165        182        181        165        166        183        182        166        167        184        183        167        168        185        184        168        169        186        185        170        171        188        187        171        172        189        188        172        173        190        189        173        174        191        190        174        175        192        191        175        176        193        192        176        177        194        193        177        178        195        194        178        179        196        195        179        180        197        196        180        181        198        197        181        182        199        198        182        183        200        199        183        184        201        200        184        185        202        201        185        186        203        202        187        188        205        204        188        189        206        205        189        190        207        206        190        191        208        207        191        192        209        208        192        193        210        209        193        194        211        210        194        195        212        211        195        196        213        212        196        197        214        213        197        198        215        214        198        199        216        215        199        200        217        216        200        201        218        217        201        202        219        218        202        203        220        219        204        205        222        221        205        206        223        222        206        207        224        223        207        208        225        224        208        209        226        225        209        210        227        226        210        211        228        227        211        212        229        228        212        213        230        229        213        214        231        230        214        215        232        231        215        216        233        232        216        217        234        233        217        218        235        234        218        219        236        235        219        220        237        236        221        222        239        238        222        223        240        239        223        224        241        240        224        225        242        241        225        226        243        242        226        227        244        243        227        228        245        244        228        229        246        245        229        230        247        246        230        231        248        247        231        232        249        248        232        233        250        249        233        234        251        250        234        235        252        251        235        236        253        252        236        237        254        253        238        239        256        255        239        240        257        256        240        241        258        257        241        242        259        258        242        243        260        259        243        244        261        260        244        245        262        261        245        246        263        262        246        247        264        263        247        248        265        264        248        249        266        265        249        250        267        266        250        251        268        267        251        252        269        268        252        253        270        269        253        254        271        270        255        256        273        272        256        257        274        273        257        258        275        274        258        259        276        275        259        260        277        276        260        261        278        277        261        262        279        278        262        263        280        279        263        264        281        280        264        265        282        281        265        266        283        282        266        267        284        283        267        268        285        284        268        269        286        285        269        270        287        286        270        271        288        287        306        307          1          0        307        308          2          1        308        309          3          2        309        310          4          3        310        311          5          4        311        312          6          5        312        313          7          6        313        314          8          7        314        315          9          8        315        316         10          9        316        317         11         10        317        318         12         11        318        319         13         12        319        320         14         13        320        321         15         14        321        322         16         15        323        324        307        306        324        325        308        307        325        326        309        308        326        327        310        309        327        328        311        310        328        329        312        311        329        330        313        312        330        331        314        313        331        332        315        314        332        333        316        315        333        334        317        316        334        335        318        317        335        336        319        318        336        337        320        319        337        338        321        320        338        339        322        321        340        341        324        323        341        342        325        324        342        343        326        325        343        344        327        326        344        345        328        327        345        346        329        328        346        347        330        329        347        348        331        330        348        349        332        331        349        350        333        332        350        351        334        333        351        352        335        334        352        353        336        335        353        354        337        336        354        355        338        337        355        356        339        338        357        358        341        340        358        359        342        341        359        360        343        342        360        361        344        343        361        362        345        344        362        363        346        345        363        364        347        346        364        365        348        347        365        366        349        348        366        367        350        349        367        368        351        350        368        369        352        351        369        370        353        352        370        371        354        353        371        372        355        354        372        373        356        355        374        375        358        357        375        376        359        358        376        377        360        359        377        378        361        360        378        379        362        361        379        380        363        362        380        381        364        363        381        382        365        364        382        383        366        365        383        384        367        366        384        385        368        367        385        386        369        368        386        387        370        369        387        388        371        370        388        389        372        371        389        390        373        372        391        392        375        374        392        393        376        375        393        394        377        376        394        395        378        377        395        396        379        378        396        397        380        379        397        398        381        380        398        399        382        381        399        400        383        382        400        401        384        383        401        402        385        384        402        403        386        385        403        404        387        386        404        405        388        387        405        406        389        388        406        407        390        389        408        409        392        391        409        410        393        392        410        411        394        393        411        412        395        394        412        413        396        395        413        414        397        396        414        415        398        397        415        416        399        398        416        417        400        399        417        418        401        400        418        419        402        401        419        420        403        402        420        421        404        403        421        422        405        404        422        423        406        405        423        424        407        406        425        426        409        408        426        427        410        409        427        428        411        410        428        429        412        411        429        430        413        412        430        431        414        413        431        432        415        414        432        433        416        415        433        434        417        416        434        435        418        417        435        436        419        418        436        437        420        419        437        438        421        420        438        439        422        421        439        440        423        422        440        441        424        423        442        443        426        425        443        444        427        426        444        445        428        427        445        446        429        428        446        447        430        429        447        448        431        430        448        449        432        431        449        450        433        432        450        451        434        433        451        452        435        434        452        453        436        435        453        454        437        436        454        455        438        437        455        456        439        438        456        457        440        439        457        458        441        440        459        460        443        442        460        461        444        443        461        462        445        444        462        463        446        445        463        464        447        446        464        465        448        447        465        466        449        448        466        467        450        449        467        468        451        450        468        469        452        451        469        470        453        452        470        471        454        453        471        472        455        454        472        473        456        455        473        474        457        456        474        475        458        457        476        477        460        459        477        478        461        460        478        479        462        461        479        480        463        462        480        481        464        463        481        482        465        464        482        483        466        465        483        484        467        466        484        485        468        467        485        486        469        468        486        487        470        469        487        488        471        470        488        489        472        471        489        490        473        472        490        491        474        473        491        492        475        474        493        494        477        476        494        495        478        477        495        496        479        478        496        497        480        479        497        498        481        480        498        499        482        481        499        500        483        482        500        501        484        483        501        502        485        484        502        503        486        485        503        504        487        486        504        505        488        487        505        506        489        488        506        507        490        489        507        508        491        490        508        509        492        491        510        511        494        493        511        512        495        494        512        513        496        495        513        514        497        496        514        515        498        497        515        516        499        498        516        517        500        499        517        518        501        500        518        519        502        501        519        520        503        502        520        521        504        503        521        522        505        504        522        523        506        505        523        524        507        506        524        525        508        507        525        526        509        508        527        528        511        510        528        529        512        511        529        530        513        512        530        531        514        513        531        532        515        514        532        533        516        515        533        534        517        516        534        535        518        517        535        536        519        518        536        537        520        519        537        538        521        520        538        539        522        521        539        540        523        522        540        541        524        523        541        542        525        524        542        543        526        525        544        545        528        527        545        546        529        528        546        547        530        529        547        548        531        530        548        549        532        531        549        550        533        532        550        551        534        533        551        552        535        534        552        553        536        535        553        554        537        536        554        555        538        537        555        556        539        538        556        557        540        539        557        558        541        540        558        559        542        541        559        560        543        542        561        562        545        544        562        563        546        545        563        564        547        546        564        565        548        547        565        566        549        548        566        567        550        549        567        568        551        550        568        569        552        551        569        570        553        552        570        571        554        553        571        572        555        554        572        573        556        555        573        574        557        556        574        575        558        557        575        576        559        558        576        577        560        559        578        579        596        595        579        580        597        596        580        581        598        597        581        582        599        598        582        583        600        599        583        584        601        600        584        585        602        601        585        586        603        602        586        587        604        603        587        588        605        604        588        589        606        605        589        590        607        606        590        591        608        607        591        592        609        608        592        593        610        609        593        594        611        610        595        596        613        612        596        597        614        613        597        598        615        614        598        599        616        615        599        600        617        616        600        601        618        617        601        602        619        618        602        603        620        619        603        604        621        620        604        605        622        621        605        606        623        622        606        607        624        623        607        608        625        624        608        609        626        625        609        610        627        626        610        611        628        627        612        613        630        629        613        614        631        630        614        615        632        631        615        616        633        632        616        617        634        633        617        618        635        634        618        619        636        635        619        620        637        636        620        621        638        637        621        622        639        638        622        623        640        639        623        624        641        640        624        625        642        641        625        626        643        642        626        627        644        643        627        628        645        644        629        630        647        646        630        631        648        647        631        632        649        648        632        633        650        649        633        634        651        650        634        635        652        651        635        636        653        652        636        637        654        653        637        638        655        654        638        639        656        655        639        640        657        656        640        641        658        657        641        642        659        658        642        643        660        659        643        644        661        660        644        645        662        661        646        647        664        663        647        648        665        664        648        649        666        665        649        650        667        666        650        651        668        667        651        652        669        668        652        653        670        669        653        654        671        670        654        655        672        671        655        656        673        672        656        657        674        673        657        658        675        674        658        659        676        675        659        660        677        676        660        661        678        677        661        662        679        678        663        664        681        680        664        665        682        681        665        666        683        682        666        667        684        683        667        668        685        684        668        669        686        685        669        670        687        686        670        671        688        687        671        672        689        688        672        673        690        689        673        674        691        690        674        675        692        691        675        676        693        692        676        677        694        693        677        678        695        694        678        679        696        695        680        681        698        697        681        682        699        698        682        683        700        699        683        684        701        700        684        685        702        701        685        686        703        702        686        687        704        703        687        688        705        704        688        689        706        705        689        690        707        706        690        691        708        707        691        692        709        708        692        693        710        709        693        694        711        710        694        695        712        711        695        696        713        712        697        698        715        714        698        699        716        715        699        700        717        716        700        701        718        717        701        702        719        718        702        703        720        719        703        704        721        720        704        705        722        721        705        706        723        722        706        707        724        723        707        708        725        724        708        709        726        725        709        710        727        726        710        711        728        727        711        712        729        728        712        713        730        729        714        715        732        731        715        716        733        732        716        717        734        733        717        718        735        734        718        719        736        735        719        720        737        736        720        721        738        737        721        722        739        738        722        723        740        739        723        724        741        740        724        725        742        741        725        726        743        742        726        727        744        743        727        728        745        744        728        729        746        745        729        730        747        746        731        732        749        748        732        733        750        749        733        734        751        750        734        735        752        751        735        736        753        752        736        737        754        753        737        738        755        754        738        739        756        755        739        740        757        756        740        741        758        757        741        742        759        758        742        743        760        759        743        744        761        760        744        745        762        761        745        746        763        762        746        747        764        763        748        749        766        765        749        750        767        766        750        751        768        767        751        752        769        768        752        753        770        769        753        754        771        770        754        755        772        771        755        756        773        772        756        757        774        773        757        758        775        774        758        759        776        775        759        760        777        776        760        761        778        777        761        762        779        778        762        763        780        779        763        764        781        780        765        766        783        782        766        767        784        783        767        768        785        784        768        769        786        785        769        770        787        786        770        771        788        787        771        772        789        788        772        773        790        789        773        774        791        790        774        775        792        791        775        776        793        792        776        777        794        793        777        778        795        794        778        779        796        795        779        780        797        796        780        781        798        797        782        783        800        799        783        784        801        800        784        785        802        801        785        786        803        802        786        787        804        803        787        788        805        804        788        789        806        805        789        790        807        806        790        791        808        807        791        792        809        808        792        793        810        809        793        794        811        810        794        795        812        811        795        796        813        812        796        797        814        813        797        798        815        814        799        800        817        816        800        801        818        817        801        802        819        818        802        803        820        819        803        804        821        820        804        805        822        821        805        806        823        822        806        807        824        823        807        808        825        824        808        809        826        825        809        810        827        826        810        811        828        827        811        812        829        828        812        813        830        829        813        814        831        830        814        815        832        831        816        817        834        833        817        818        835        834        818        819        836        835        819        820        837        836        820        821        838        837        821        822        839        838        822        823        840        839        823        824        841        840        824        825        842        841        825        826        843        842        826        827        844        843        827        828        845        844        828        829        846        845        829        830        847        846        830        831        848        847        831        832        849        848        833        834        562        561        834        835        563        562        835        836        564        563        836        837        565        564        837        838        566        565        838        839        567        566        839        840        568        567        840        841        569        568        841        842        570        569        842        843        571        570        843        844        572        571        844        845        573        572        845        846        574        573        846        847        575        574        847        848        576        575        848        849        577        576        884        885        579        578        885        886        580        579        886        887        581        580        887        888        582        581        888        889        583        582        889        890        584        583        890        891        585        584        891        892        586        585        892        893        587        586        893        894        588        587        894        895        589        588        895        896        590        589        896        897        591        590        897        898        592        591        898        899        593        592        899        900        594        593        901        902        885        884        902        903        886        885        903        904        887        886        904        905        888        887        905        906        889        888        906        907        890        889        907        908        891        890        908        909        892        891        909        910        893        892        910        911        894        893        911        912        895        894        912        913        896        895        913        914        897        896        914        915        898        897        915        916        899        898        916        917        900        899        918        919        902        901        919        920        903        902        920        921        904        903        921        922        905        904        922        923        906        905        923        924        907        906        924        925        908        907        925        926        909        908        926        927        910        909        927        928        911        910        928        929        912        911        929        930        913        912        930        931        914        913        931        932        915        914        932        933        916        915        933        934        917        916        935        936        919        918        936        937        920        919        937        938        921        920        938        939        922        921        939        940        923        922        940        941        924        923        941        942        925        924        942        943        926        925        943        944        927        926        944        945        928        927        945        946        929        928        946        947        930        929        947        948        931        930        948        949        932        931        949        950        933        932        950        951        934        933        952        953        936        935        953        954        937        936        954        955        938        937        955        956        939        938        956        957        940        939        957        958        941        940        958        959        942        941        959        960        943        942        960        961        944        943        961        962        945        944        962        963        946        945        963        964        947        946        964        965        948        947        965        966        949        948        966        967        950        949        967        968        951        950        969        970        953        952        970        971        954        953        971        972        955        954        972        973        956        955        973        974        957        956        974        975        958        957        975        976        959        958        976        977        960        959        977        978        961        960        978        979        962        961        979        980        963        962        980        981        964        963        981        982        965        964        982        983        966        965        983        984        967        966        984        985        968        967        986        987        970        969        987        988        971        970        988        989        972        971        989        990        973        972        990        991        974        973        991        992        975        974        992        993        976        975        993        994        977        976        994        995        978        977        995        996        979        978        996        997        980        979        997        998        981        980        998        999        982        981        999       1000        983        982       1000       1001        984        983       1001       1002        985        984       1003       1004        987        986       1004       1005        988        987       1005       1006        989        988       1006       1007        990        989       1007       1008        991        990       1008       1009        992        991       1009       1010        993        992       1010       1011        994        993       1011       1012        995        994       1012       1013        996        995       1013       1014        997        996       1014       1015        998        997       1015       1016        999        998       1016       1017       1000        999       1017       1018       1001       1000       1018       1019       1002       1001       1020       1021       1004       1003       1021       1022       1005       1004       1022       1023       1006       1005       1023       1024       1007       1006       1024       1025       1008       1007       1025       1026       1009       1008       1026       1027       1010       1009       1027       1028       1011       1010       1028       1029       1012       1011       1029       1030       1013       1012       1030       1031       1014       1013       1031       1032       1015       1014       1032       1033       1016       1015       1033       1034       1017       1016       1034       1035       1018       1017       1035       1036       1019       1018       1037       1038       1021       1020       1038       1039       1022       1021       1039       1040       1023       1022       1040       1041       1024       1023       1041       1042       1025       1024       1042       1043       1026       1025       1043       1044       1027       1026       1044       1045       1028       1027       1045       1046       1029       1028       1046       1047       1030       1029       1047       1048       1031       1030       1048       1049       1032       1031       1049       1050       1033       1032       1050       1051       1034       1033       1051       1052       1035       1034       1052       1053       1036       1035       1054       1055       1038       1037       1055       1056       1039       1038       1056       1057       1040       1039       1057       1058       1041       1040       1058       1059       1042       1041       1059       1060       1043       1042       1060       1061       1044       1043       1061       1062       1045       1044       1062       1063       1046       1045       1063       1064       1047       1046       1064       1065       1048       1047       1065       1066       1049       1048       1066       1067       1050       1049       1067       1068       1051       1050       1068       1069       1052       1051       1069       1070       1053       1052       1071       1072       1055       1054       1072       1073       1056       1055       1073       1074       1057       1056       1074       1075       1058       1057       1075       1076       1059       1058       1076       1077       1060       1059       1077       1078       1061       1060       1078       1079       1062       1061       1079       1080       1063       1062       1080       1081       1064       1063       1081       1082       1065       1064       1082       1083       1066       1065       1083       1084       1067       1066       1084       1085       1068       1067       1085       1086       1069       1068       1086       1087       1070       1069       1088       1089       1072       1071       1089       1090       1073       1072       1090       1091       1074       1073       1091       1092       1075       1074       1092       1093       1076       1075       1093       1094       1077       1076       1094       1095       1078       1077       1095       1096       1079       1078       1096       1097       1080       1079       1097       1098       1081       1080       1098       1099       1082       1081       1099       1100       1083       1082       1100       1101       1084       1083       1101       1102       1085       1084       1102       1103       1086       1085       1103       1104       1087       1086       1105       1106       1089       1088       1106       1107       1090       1089       1107       1108       1091       1090       1108       1109       1092       1091       1109       1110       1093       1092       1110       1111       1094       1093       1111       1112       1095       1094       1112       1113       1096       1095       1113       1114       1097       1096       1114       1115       1098       1097       1115       1116       1099       1098       1116       1117       1100       1099       1117       1118       1101       1100       1118       1119       1102       1101       1119       1120       1103       1102       1120       1121       1104       1103       1122       1123       1106       1105       1123       1124       1107       1106       1124       1125       1108       1107       1125       1126       1109       1108       1126       1127       1110       1109       1127       1128       1111       1110       1128       1129       1112       1111       1129       1130       1113       1112       1130       1131       1114       1113       1131       1132       1115       1114       1132       1133       1116       1115       1133       1134       1117       1116       1134       1135       1118       1117       1135       1136       1119       1118       1136       1137       1120       1119       1137       1138       1121       1120        272        273       1123       1122        273        274       1124       1123        274        275       1125       1124        275        276       1126       1125        276        277       1127       1126        277        278       1128       1127        278        279       1129       1128        279        280       1130       1129        280        281       1131       1130        281        282       1132       1131        282        283       1133       1132        283        284       1134       1133        284        285       1135       1134        285        286       1136       1135        286        287       1137       1136        287        288       1138       1137 </DataArray>
<DataArray type="Int32"                                    Name="offsets"                                                      NumberOfComponents=" 1" format="ascii">
         4          8         12         16         20         24         28         32         36         40         44         48         52         56         60         64         68         72         76         80         84         88         92         96        100        104        108        112        116        120        124        128        132        136        140        144        148        152        156        160        164        168        172        176        180        184        188        192        196        200        204        208        212        216        220        224        228        232        236        240        244        248        252        256        260        264        268        272        276        280        284        288        292        296        300        304        308        312        316        320        324        328        332        336        340        344        348        352        356        360        364        368        372        376        380        384        388        392        396        400        404        408        412        416        420        424        428        432        436        440        444        448        452        456        460        464        468        472        476        480        484        488        492        496        500        504        508        512        516        520        524        528        532        536        540        544        548        552        556        560        564        568        572        576        580        584        588        592        596        600        604        608        612        616        620        624        628        632        636        640        644        648        652        656        660        664        668        672        676        680        684        688        692        696        700        704        708        712        716        720        724        728        732        736        740        744        748        752        756        760        764        768        772        776        780        784        788        792        796        800        804        808        812        816        820        824        828        832        836        840        844        848        852        856        860        864        868        872        876        880        884        888        892        896        900        904        908        912        916        920        924        928        932        936        940        944        948        952        956        960        964        968        972        976        980        984        988        992        996       1000       1004       1008       1012       1016       1020       1024       1028       1032       1036       1040       1044       1048       1052       1056       1060       1064       1068       1072       1076       1080       1084       1088       1092       1096       1100       1104       1108       1112       1116       1120       1124       1128       1132       1136       1140       1144       1148       1152       1156       1160       1164       1168       1172       1176       1180       1184       1188       1192       1196       1200       1204       1208       1212       1216       1220       1224       1228       1232       1236       1240       1244       1248       1252       1256       1260       1264       1268       1272       1276       1280       1284       1288       1292       1296       1300       1304       1308       1312       1316       1320       1324       1328       1332       1336       1340       1344       1348       1352       1356       1360       1364       1368       1372       1376       1380       1384       1388       1392       1396       1400       1404       1408       1412       1416       1420       1424       1428       1432       1436       1440       1444       1448       1452       1456       1460       1464       1468       1472       1476       1480       1484       1488       1492       1496       1500       1504       1508       1512       1516       1520       1524       1528       1532       1536       1540       1544       1548       1552       1556       1560       1564       1568       1572       1576       1580       1584       1588       1592       1596       1600       1604       1608       1612       1616       1620       1624       1628       1632       1636       1640       1644       1648       1652       1656       1660       1664       1668       1672       1676       1680       1684       1688       1692       1696       1700       1704       1708       1712       1716       1720       1724       1728       1732       1736       1740       1744       1748       1752       1756       1760       1764       1768       1772       1776       1780       1784       1788       1792       1796       1800       1804       1808       1812       1816       1820       1824       1828       1832       1836       1840       1844       1848       1852       1856       1860       1864       1868       1872       1876       1880       1884       1888       1892       1896       1900       1904       1908       1912       1916       1920       1924       1928       1932       1936       1940       1944       1948       1952       1956       1960       1964       1968       1972       1976       1980       1984       1988       1992       1996       2000       2004       2008       2012       2016       2020       2024       2028       2032       2036       2040       2044       2048       2052       2056       2060       2064       2068       2072       2076       2080       2084       2088       2092       2096       2100       2104       2108       2112       2116       2120       2124       2128       2132       2136       2140       2144       2148       2152       2156       2160       2164       2168       2172       2176       2180       2184       2188       2192       2196       2200       2204       2208       2212       2216       2220       2224       2228       2232       2236       2240       2244       2248       2252       2256       2260       2264       2268       2272       2276       2280       2284       2288       2292       2296       2300       2304       2308       2312       2316       2320       2324       2328       2332       2336       2340       2344       2348       2352       2356       2360       2364       2368       2372       2376       2380       2384       2388       2392       2396       2400       2404       2408       2412       2416       2420       2424       2428       2432       2436       2440       2444       2448       2452       2456       2460       2464       2468       2472       2476       2480       2484       2488       2492       2496       2500       2504       2508       2512       2516       2520       2524       2528       2532       2536       2540       2544       2548       2552       2556       2560       2564       2568       2572       2576       2580       2584       2588       2592       2596       2600       2604       2608       2612       2616       2620       2624       2628       2632       2636       2640       2644       2648       2652       2656       2660       2664       2668       2672       2676       2680       2684       2688       2692       2696       2700       2704       2708       2712       2716       2720       2724       2728       2732       2736       2740       2744       2748       2752       2756       2760       2764       2768       2772       2776       2780       2784       2788       2792       2796       2800       2804       2808       2812       2816       2820       2824       2828       2832       2836       2840       2844       2848       2852       2856       2860       2864       2868       2872       2876       2880       2884       2888       2892       2896       2900       2904       2908       2912       2916       2920       2924       2928       2932       2936       2940       2944       2948       2952       2956       2960       2964       2968       2972       2976       2980       2984       2988       2992       2996       3000       3004       3008       3012       3016       3020       3024       3028       3032       3036       3040       3044       3048       3052       3056       3060       3064       3068       3072       3076       3080       3084       3088       3092       3096       3100       3104       3108       3112       3116       3120       3124       3128       3132       3136       3140       3144       3148       3152       3156       3160       3164       3168       3172       3176       3180       3184       3188       3192       3196       3200       3204       3208       3212       3216       3220       3224       3228       3232       3236       3240       3244       3248       3252       3256       3260       3264       3268       3272       3276       3280       3284       3288       3292       3296       3300       3304       3308       3312       3316       3320       3324       3328       3332       3336       3340       3344       3348       3352       3356       3360       3364       3368       3372       3376       3380       3384       3388       3392       3396       3400       3404       3408       3412       3416       3420       3424       3428       3432       3436       3440       3444       3448       3452       3456       3460       3464       3468       3472       3476       3480       3484       3488       3492       3496       3500       3504       3508       3512       3516       3520       3524       3528       3532       3536       3540       3544       3548       3552       3556       3560       3564       3568       3572       3576       3580       3584       3588       3592       3596       3600       3604       3608       3612       3616       3620       3624       3628       3632       3636       3640       3644       3648       3652       3656       3660       3664       3668       3672       3676       3680       3684       3688       3692       3696       3700       3704       3708       3712       3716       3720       3724       3728       3732       3736       3740       3744       3748       3752       3756       3760       3764       3768       3772       3776       3780       3784       3788       3792       3796       3800       3804       3808       3812       3816       3820       3824       3828       3832       3836       3840       3844       3848       3852       3856       3860       3864       3868       3872       3876       3880       3884       3888       3892       3896       3900       3904       3908       3912       3916       3920       3924       3928       3932       3936       3940       3944       3948       3952       3956       3960       3964       3968       3972       3976       3980       3984       3988       3992       3996       4000       4004       4008       4012       4016       4020       4024       4028       4032       4036       4040       4044       4048       4052       4056       4060       4064       4068       4072       4076       4080       4084       4088       4092       4096 </DataArray>
<DataArray type="UInt8"                                    Name="types"                                                      NumberOfComponents=" 1" format="ascii">
         9          9          9          9          9          9          9          9          9          9          9          9          9          9          9          9          9          9          9          9          9          9          9          9          9          9          9          9          9          9          9          9          9          9          9          9          9          9          9          9          9          9          9          9          9          9          9          9          9          9          9          9          9          9          9          9          9          9          9          9          9          9          9          9          9          9          9          9          9          9          9          9          9          9          9          9          9          9          9          9          9          9          9          9          9          9          9          9          9          9          9          9          9          9          9          9          9          9          9          9          9          9          9          9          9          9          9          9          9          9          9          9          9          9          9          9          9          9          9          9          9          9          9          9          9          9          9          9          9          9          9          9          9          9          9          9          9          9          9          9          9          9          9          9          9          9          9          9          9          9          9          9          9          9          9          9          9          9          9          9          9          9          9          9          9          9          9          9          9          9          9          9          9          9          9          9          9          9          9          9          9          9          9          9          9          9          9          9          9          9          9          9          9          9          9          9          9          9          9          9          9          9          9          9          9          9          9          9          9          9          9          9          9          9          9          9          9          9          9          9          9          9          9          9          9          9          9          9          9          9          9          9          9          9          9          9          9          9          9          9          9          9          9          9          9          9          9          9          9          9          9          9          9          9          9          9          9          9          9          9          9          9          9          9          9          9          9          9          9          9          9          9          9          9          9          9          9          9          9          9          9          9          9          9          9          9          9          9          9          9          9          9          9          9          9          9          9          9          9          9          9          9          9          9          9          9          9          9          9          9          9          9          9          9          9          9          9          9          9          9          9          9          9          9          9          9          9          9          9          9          9          9          9          9          9          9          9          9          9          9          9          9          9          9          9          9          9          9          9          9          9          9          9          9          9          9          9          9          9          9          9          9          9          9          9          9          9          9          9          9          9          9          9          9          9          9          9          9          9          9          9          9          9          9          9          9          9          9          9          9          9          9          9          9          9          9          9          9          9          9          9          9          9          9          9          9          9          9          9          9          9          9          9          9          9          9          9          9          9          9          9          9          9          9          9          9          9          9          9          9          9          9          9          9          9          9          9          9          9          9          9          9          9          9          9          9          9          9          9          9          9          9          9          9          9          9          9          9          9          9          9          9          9          9          9          9          9          9          9          9          9          9          9          9          9          9          9          9          9          9          9          9          9          9          9          9          9          9          9          9          9          9          9          9          9          9          9          9          9          9          9          9          9          9          9          9          9          9          9          9          9          9          9          9          9          9          9          9          9          9          9          9          9          9          9          9          9          9          9          9          9          9          9          9          9          9          9          9          9          9          9          9          9          9          9          9          9          9          9          9          9          9          9          9          9          9          9          9          9          9          9          9          9          9          9          9          9          9          9          9          9          9          9          9          9          9          9          9          9          9          9          9          9          9          9          9          9          9          9          9          9          9          9          9          9          9          9          9          9          9          9          9          9          9          9          9          9          9          9          9          9          9          9          9          9          9          9          9          9          9          9          9          9          9          9          9          9          9          9          9          9          9          9          9          9          9          9          9          9          9          9          9          9          9          9          9          9          9          9          9          9          9          9          9          9          9          9          9          9          9          9          9          9          9          9          9          9          9          9          9          9          9          9          9          9          9          9          9          9          9          9          9          9          9          9          9          9          9          9          9          9          9          9          9          9          9          9          9          9          9          9          9          9          9          9          9          9          9          9          9          9          9          9          9          9          9          9          9          9          9          9          9          9          9          9          9          9          9          9          9          9          9          9          9          9          9          9          9          9          9          9          9          9          9          9          9          9          9          9          9          9          9          9          9          9          9          9          9          9          9          9          9          9          9          9          9          9          9          9          9          9          9          9          9          9          9          9          9          9          9          9          9          9          9          9          9          9          9          9          9          9          9          9          9          9          9          9          9          9          9          9          9          9          9          9          9          9          9          9          9          9          9          9          9          9          9          9          9          9          9          9          9          9          9          9          9          9          9          9          9          9          9          9          9          9          9          9          9          9          9          9          9          9          9          9          9          9          9          9          9          9          9          9          9          9          9          9          9          9          9          9          9          9          9          9          9          9          9          9          9          9          9          9          9          9          9          9          9          9          9          9          9          9          9          9          9          9          9          9          9          9          9          9          9          9          9          9          9          9          9          9          9          9          9          9          9          9          9          9          9          9          9          9          9          9          9          9          9          9          9          9          9          9          9          9          9          9          9          9          9          9          9          9          9          9          9          9          9          9          9          9          9          9          9          9          9          9          9          9          9          9          9          9          9          9          9          9          9          9          9          9          9          9          9          9          9          9          9          9          9          9          9          9          9          9          9          9          9          9          9          9          9          9          9          9          9          9          9          9          9          9          9          9          9          9          9          9          9          9          9          9          9          9          9          9          9          9          9          9          9          9          9          9          9          9          9          9          9          9          9          9          9          9          9 </DataArray>
</Cells>
<CellData>
<DataArray type="Int32"                                    Name="material"                                                      NumberOfComponents=" 1" format="ascii">
         1          1          1          1          1          1          1          1          1          1          1          1          1          1          1          1          1          1          1          1          1          1          1          1          1          1          1          1          1          1          1          1          1          1          1          1          1          1          1          1          1          1          1          1          1          1          1          1          1          1          1          1          1          1          1          1          1          1          1          1          1          1          1          1          1          1          1          1          1          1          1          1          1          1          1          1          1          1          1          1          1          1          1          1          1          1          1          1          1          1          1          1          1          1          1          1          1          1          1          1          1          1          1          1          1          1          1          1          1          1          1          1          1          1          1          1          1          1          1          1          1          1          1          1          1          1          1          1          1          1          1          1          1          1          1          1          1          1          1          1          1          1          1          1          1          1          1          1          1          1          1          1          1          1          1          1          1          1          1          1          1          1          1          1          1          1          1          1          1          1          1          1          1          1          1          1          1          1          1          1          1          1          1          1          1          1          1          1          1          1          1          1          1          1          1          1          1          1          1          1          1          1          1          1          1          1          1          1          1          1          1          1          1          1          1          1          1          1          1          1          1          1          1          1          1          1          1          1          1          1          1          1          1          1          1          1          1          1          1          1          1          1          1          1          1          1          1          1          1          1          1          1          1          1          1          1          1          1          1          1          1          1          1          1          1          1          1          1          1          1          1          1          1          1          1          1          1          1          1          1          1          1          1          1          1          1          1          1          1          1          1          1          1          1          1          1          1          1          1          1          1          1          1          1          1          1          1          1          1          1          1          1          1          1          1          1          1          1          1          1          1          1          1          1          1          1          1          1          1          1          1          1          1          1          1          1          1          1          1          1          1          1          1          1          1          1          1          1          1          1          1          1          1          1          1          1          1          1          1          1          1          1          1          1          1          1          1          1          1          1          1          1          1          1          1          1          1          1          1          1          1          1          1          1          1          1          1          1          1          1          1          1          1          1          1          1          1          1          1          1          1          1          1          1          1          1          1          1          1          1          1          1          1          1          1          1          1          1          1          1          1          1          1          1          1          1          1          1          1          1          1          1          1          1          1          1          1          1          1          1          1          1          1          1          1          1          1          1          1          1          1          1          1          1          1          1          1          1          1          1          1          1          1          1          1          1          1          1          1          1          1          1          1          1          1          1          1          1          1          1          1          1          1          1          1          1          1          1          1          1          1          1          1          1          1          1          1          1          1          1          1          1          1          1          1          1          1          1          1          1          1          1          1          1          1          1          1          1          1          1          1          1          1          1          1          1          1          1          1          1          1          1          1          1          1          1          1          1          1          1          1          1          1          1          1          1          1          1          1          1          1          1          1          1          1          1          1          1          1          1          1          1          1          1          1          1          1          1          1          1          1          1          1          1          1          1          1          1          1          1          1          1          1          1          1          1          1          1          1          1          1          1          1          1          1          1          1          1          1          1          1          1          1          1          1          1          1          1          1          1          1          1          1          1          1          1          1          1          1          1          1          1          1          1          1          1          1          1          1          1          1          1          1          1          1          1          1          1          1          1          1          1          1          1          1          1          1          1          1          1          1          1          1          1          1          1          1          1          1          1          1          1          1          1          1          1          1          1          1          1          1          1          1          1          1          1          1          1          1          1          1          1          1          1          1          1          1          1          1          1          1          1          1          1          1          1          1          1          1          1          1          1          1          1          1          1          1          1          1          1          1          1          1          1          1          1          1          1          1          1          1          1          1          1          1          1          1          1          1          1          1          1          1          1          1          1          1          1          1          1          1          1          1          1          1          1          1          1          1          1          1          1          1          1          1          1          1          1          1          1          1          1          1          1          1          1          1          1          1          1          1          1          1          1          1          1          1          1          1          1          1          1          1          1          1          1          1          1          1          1          1          1          1          1          1          1          1          1          1          1          1          1          1          1          1          1          1          1          1          1          1          1          1          1          1          1          1          1          1          1          1          1          1          1          1          1          1          1          1          1          1          1          1          1          1          1          1          1          1          1          1          1          1          1          1          1          1          1          1          1          1          1          1          1          1          1          1          1          1          1          1          1          1          1          1          1          1          1          1          1          1          1          1          1          1          1          1          1          1          1          1          1          1          1          1          1          1          1          1          1          1          1          1          1          1          1          1          1          1          1          1          1          1          1          1          1          1          1          1          1          1          1          1          1          1          1          1          1          1          1          1          1          1          1          1          1          1          1          1          1          1          1          1          1          1          1          1          1          1          1          1          1          1          1          1          1          1          1          1          1          1          1          1          1          1          1          1          1          1          1          1          1          1          1          1          1          1          1          1          1          1          1          1          1          1          1          1          1          1          1          1          1          1          1          1          1          1          1          1          1          1          1          1          1          1          1          1          1          1          1          1          1          1          1          1          1          1          1          1          1          1          1          1          1          1          1          1          1          1          1          1          1          1          1 </DataArray>
</CellData>
<PointData>
<DataArray type="Float64"                                    Name="u"                                                      NumberOfComponents=" 3" format="ascii">
             -0.000399151               0.000000000               0.999999985              -0.000439346              -0.000000000               0.999999985              -0.000457808              -0.000000000               0.999999986              -0.000468739               0.000000000               0.999999986              -0.000477636              -0.000000000               0.999999986              -0.000486646               0.000000000               0.999999986              -0.000496460               0.000000000               0.999999986              -0.000507293               0.000000000               0.999999986              -0.000519051               0.000000000               0.999999986              -0.000531692              -0.000000000               0.999999986              -0.000545268              -0.000000000               0.999999986              -0.000559633              -0.000000000               0.999999986              -0.000574578              -0.000000000               0.999999986              -0.000589880              -0.000000000               0.999999986              -0.000605235              -0.000000000               0.999999986              -0.000620324               0.000000000               0.999999986              -0.000634674               0.000000000               0.999999986              -0.000396847               0.000102294               0.999999985              -0.000434446               0.000085629               0.999999985              -0.000451291               0.000079247               0.999999986              -0.000461277               0.000078252               0.999999986              -0.000469596               0.000080093               0.999999986              -0.000478163               0.000083559               0.999999986              -0.000487669               0.000087705               0.999999986              -0.000498280               0.000092105               0.999999986              -0.000509839               0.000096737               0.999999986              -0.000522314               0.000101427               0.999999986              -0.000535606               0.000105891               0.999999986              -0.000549547               0.000109866               0.999999986              -0.000563941               0.000113156               0.999999986              -0.000578495               0.000115537               0.999999986              -0.000592899               0.000116567               0.999999986              -0.000606901               0.000115850               0.999999986              -0.000620214               0.000112590               0.999999986              -0.000389938               0.000203497               0.999999985              -0.000419969               0.000170585               0.999999986              -0.000432346               0.000158625               0.999999986              -0.000439820               0.000157254               0.999999986              -0.000446694               0.000161469               0.999999986              -0.000454365               0.000168649               0.999999986              -0.000463218               0.000177196               0.999999986              -0.000473238               0.000186284               0.999999986              -0.000484237               0.000195612               0.999999986              -0.000496000               0.000205022               0.999999986              -0.000508252               0.000213971               0.999999986              -0.000520769               0.000221849               0.999999986              -0.000533254               0.000228528               0.999999986              -0.000545542               0.000233554               0.999999986              -0.000557457               0.000236340               0.999999986              -0.000568854               0.000236119               0.999999986              -0.000579629               0.000231895               0.999999986              -0.000378626               0.000302542               0.999999986              -0.000396812               0.000254316               0.999999986              -0.000402859               0.000238166               0.999999986              -0.000407043               0.000237512               0.999999986              -0.000412244               0.000244864               0.999999986              -0.000418985               0.000256195               0.999999986              -0.000427136               0.000269417               0.999999986              -0.000436486               0.000283407               0.999999986              -0.000446653               0.000297638               0.999999986              -0.000457224               0.000311618               0.999999986              -0.000467790               0.000324791               0.999999986              -0.000478074               0.000336659               0.999999986              -0.000487907               0.000346918               0.999999986              -0.000497150               0.000355101               0.999999986              -0.000505811               0.000360740               0.999999986              -0.000513895               0.000363168               0.999999986              -0.000521567               0.000361941               0.999999986              -0.000363237               0.000398481               0.999999986              -0.000366292               0.000336472               0.999999986              -0.000365330               0.000317881               0.999999986              -0.000366478               0.000319148               0.999999986              -0.000370492               0.000330261               0.999999986              -0.000376709               0.000346102               0.999999986              -0.000384547               0.000364169               0.999999986              -0.000393378               0.000383038               0.999999986              -0.000402674               0.000402051               0.999999986              -0.000411888               0.000420428               0.999999986              -0.000420651               0.000437655               0.999999986              -0.000428713               0.000453280               0.999999986              -0.000435926               0.000467118               0.999999986              -0.000442348               0.000479000               0.999999986              -0.000448044               0.000488459               0.999999986              -0.000453140               0.000495338               0.999999986              -0.000457975               0.000499820               0.999999986              -0.000344003               0.000490464               0.999999986              -0.000330007               0.000416933               0.999999986              -0.000322719               0.000397570               0.999999986              -0.000321973               0.000401623               0.999999986              -0.000325770               0.000416876               0.999999986              -0.000332256               0.000437326               0.999999986              -0.000340224               0.000460167               0.999999986              -0.000348783               0.000483710               0.999999986              -0.000357201               0.000507172               0.999999986              -0.000365003               0.000529739               0.999999986              -0.000371874               0.000550819               0.999999986              -0.000377674               0.000570289               0.999999986              -0.000382555               0.000587974               0.999999986              -0.000386483               0.000603704               0.999999986              -0.000389423               0.000617391               0.999999986              -0.000391679               0.000629194               0.999999986              -0.000393567               0.000639865               0.999999986              -0.000321389               0.000577503               0.999999986              -0.000289944               0.000495554               0.999999986              -0.000278035               0.000476801               0.999999986              -0.000277014               0.000484122               0.999999986              -0.000281785               0.000503402               0.999999986              -0.000289217               0.000528358               0.999999986              -0.000297685               0.000555727               0.999999986              -0.000306088               0.000583568               0.999999986              -0.000313571               0.000611077               0.999999986              -0.000319787               0.000637532               0.999999986              -0.000324654               0.000662395               0.999999986              -0.000328285               0.000685696               0.999999986              -0.000330553               0.000707301               0.999999986              -0.000331565               0.000726920               0.999999986              -0.000331580               0.000744866               0.999999986              -0.000330891               0.000761767               0.999999986              -0.000329572               0.000777982               0.999999986              -0.000295900               0.000658609               0.999999986              -0.000248182               0.000572060               0.999999986              -0.000234000               0.000554936               0.999999986              -0.000234473               0.000565443               0.999999986              -0.000241024               0.000588575               0.999999986              -0.000249853               0.000617685               0.999999986              -0.000258864               0.000649156               0.999999986              -0.000266855               0.000680977               0.999999986              -0.000273218               0.000712186               0.999999986              -0.000277739               0.000742167               0.999999986              -0.000280410               0.000770658               0.999999986              -0.000281251               0.000797630               0.999999986              -0.000280429               0.000822843               0.999999986              -0.000278265               0.000846374               0.999999986              -0.000274874               0.000868866               0.999999986              -0.000270434               0.000890505               0.999999986              -0.000265096               0.000911194               0.999999986              -0.000268544               0.000732371               0.999999986              -0.000206355               0.000646247               0.999999986              -0.000192993               0.000630951               0.999999986              -0.000195944               0.000644385               0.999999986              -0.000204738               0.000671121               0.999999986              -0.000214941               0.000704079               0.999999986              -0.000224226               0.000739386               0.999999986              -0.000231512               0.000774848               0.999999986              -0.000236364               0.000809501               0.999999986              -0.000238631               0.000842919               0.999999986              -0.000238331               0.000874846               0.999999986              -0.000235799               0.000905158               0.999999986              -0.000231251               0.000934061               0.999999986              -0.000225103               0.000961492               0.999999986              -0.000217810               0.000987286               0.999999986              -0.000209833               0.001011837               0.999999986              -0.000201253               0.001035284               0.999999986              -0.000240979               0.000801438               0.999999986              -0.000172395               0.000726469               0.999999986              -0.000155879               0.000706530               0.999999986              -0.000157184               0.000714054               0.999999986              -0.000164852               0.000735621               0.999999986              -0.000174460               0.000764597               0.999999986              -0.000183629               0.000797185               0.999999986              -0.000191112               0.000831082               0.999999986              -0.000196253               0.000864987               0.999999986              -0.000198823               0.000898326               0.999999986              -0.000198913               0.000930796               0.999999986              -0.000196382               0.000962157               0.999999986              -0.000191639               0.000992417               0.999999986              -0.000184998               0.001021394               0.999999986              -0.000176572               0.001048746               0.999999986              -0.000167200               0.001074731               0.999999986              -0.000157471               0.001099317               0.999999986              -0.000210863               0.000863815               0.999999986              -0.000141244               0.000803266               0.999999986              -0.000121688               0.000783251               0.999999986              -0.000120608               0.000786782               0.999999986              -0.000126531               0.000804098               0.999999986              -0.000135011               0.000829469               0.999999986              -0.000143584               0.000859357               0.999999986              -0.000150868               0.000891619               0.999999986              -0.000156131               0.000924701               0.999999986              -0.000158974               0.000957874               0.999999986              -0.000159336               0.000990623               0.999999986              -0.000157098               0.001022638               0.999999986              -0.000152087               0.001053949               0.999999986              -0.000144751               0.001084208               0.999999986              -0.000135130               0.001113055               0.999999986              -0.000123458               0.001140673               0.999999986              -0.000110740               0.001167011               0.999999986              -0.000178861               0.000918257               0.999999986              -0.000112796               0.000874555               0.999999986              -0.000091461               0.000857705               0.999999986              -0.000087908               0.000859733               0.999999986              -0.000091754               0.000874158               0.999999986              -0.000098604               0.000896683               0.999999986              -0.000106022               0.000924330               0.999999986              -0.000112531               0.000955088               0.999999986              -0.000117628               0.000987564               0.999999986              -0.000120746               0.001020621               0.999999986              -0.000121330               0.001053760               0.999999986              -0.000119268               0.001086526               0.999999986              -0.000114412               0.001118763               0.999999986              -0.000106449               0.001150155               0.999999986              -0.000095493               0.001180440               0.999999986              -0.000081710               0.001209511               0.999999986              -0.000065768               0.001237367               0.999999986              -0.000145228               0.000963911               0.999999986              -0.000086915               0.000937715               0.999999986              -0.000065669               0.000926420               0.999999986              -0.000060383               0.000929035               0.999999986              -0.000062194               0.000942248               0.999999986              -0.000067069               0.000963022               0.999999986              -0.000072862               0.000989145               0.999999986              -0.000078284               0.001018840               0.999999986              -0.000082747               0.001050894               0.999999986              -0.000085724               0.001084248               0.999999986              -0.000086513               0.001118127               0.999999986              -0.000084784               0.001152004               0.999999986              -0.000080259               0.001185615               0.999999986              -0.000072306               0.001218481               0.999999986              -0.000060623               0.001250239               0.999999986              -0.000045240               0.001280818               0.999999986              -0.000026113               0.001310287               0.999999986              -0.000110186               0.001000124               0.999999986              -0.000063274               0.000990015               0.999999986              -0.000044451               0.000985464               0.999999986              -0.000038536               0.000990303               0.999999986              -0.000038754               0.001003672               0.999999986              -0.000041800               0.001023846               0.999999986              -0.000045793               0.001049210               0.999999986              -0.000049841               0.001078427               0.999999986              -0.000053306               0.001110476               0.999999986              -0.000055741               0.001144424               0.999999986              -0.000056618               0.001179464               0.999999986              -0.000055291               0.001215005               0.999999986              -0.000051316               0.001250692               0.999999986              -0.000044125               0.001285808               0.999999986              -0.000033041               0.001319813               0.999999986              -0.000017408               0.001352620               0.999999986               0.000003487               0.001384117               0.999999986              -0.000074043               0.001026365               0.999999986              -0.000041321               0.001029127               0.999999986              -0.000027225               0.001031022               0.999999986              -0.000022096               0.001038760               0.999999986              -0.000021442               0.001053204               0.999999986              -0.000022979               0.001073619               0.999999986              -0.000025482               0.001098964               0.999999986              -0.000028073               0.001128198               0.999999986              -0.000030327               0.001160483               0.999999986              -0.000031995               0.001195163               0.999999986              -0.000032670               0.001231492               0.999999986              -0.000031790               0.001268913               0.999999986              -0.000028844               0.001306909               0.999999986              -0.000023347               0.001344647               0.999999986              -0.000014396               0.001381580               0.999999986              -0.000001263               0.001417308               0.999999986               0.000017286               0.001451440               0.999999986              -0.000037196               0.001042228               0.999999986              -0.000020412               0.001053289               0.999999986              -0.000012852               0.001059896               0.999999986              -0.000009884               0.001070070               0.999999986              -0.000009259               0.001085646               0.999999986              -0.000009814               0.001106543               0.999999986              -0.000011009               0.001132139               0.999999986              -0.000012255               0.001161698               0.999999986              -0.000013363               0.001194450               0.999999986              -0.000014112               0.001229756               0.999999986              -0.000014446               0.001267058               0.999999986              -0.000014023               0.001305858               0.999999986              -0.000012539               0.001345671               0.999999986              -0.000009470               0.001385590               0.999999986              -0.000004531               0.001424916               0.999999986               0.000003066               0.001463142               0.999999986               0.000014142               0.001499670               0.999999986              -0.000000000               0.001047570               0.999999986               0.000000000               0.001061456               0.999999986              -0.000000000               0.001069716               0.999999986              -0.000000000               0.001080884               0.999999986               0.000000000               0.001096978               0.999999986              -0.000000000               0.001118127               0.999999986              -0.000000000               0.001143906               0.999999986              -0.000000000               0.001173560               0.999999986               0.000000000               0.001206519               0.999999986              -0.000000000               0.001242083               0.999999986              -0.000000000               0.001279718               0.999999986               0.000000000               0.001319026               0.999999986               0.000000000               0.001359551               0.999999986              -0.000000000               0.001400384               0.999999986              -0.000000000               0.001440674               0.999999986               0.000000000               0.001479899               0.999999986              -0.000000000               0.001517406               0.999999986              -0.000399151               0.000000000               0.999999985              -0.000439346              -0.000000000               0.999999985              -0.000457808              -0.000000000               0.999999986              -0.000468739               0.000000000               0.999999986              -0.000477636              -0.000000000               0.999999986              -0.000486646               0.000000000               0.999999986              -0.000496460               0.000000000               0.999999986              -0.000507293               0.000000000               0.999999986              -0.000519051               0.000000000               0.999999986              -0.000531692              -0.000000000               0.999999986              -0.000545268              -0.000000000               0.999999986              -0.000559633              -0.000000000               0.999999986              -0.000574578              -0.000000000               0.999999986              -0.000589880              -0.000000000               0.999999986              -0.000605235              -0.000000000               0.999999986              -0.000620324               0.000000000               0.999999986              -0.000634674               0.000000000               0.999999986              -0.000396847              -0.000102294               0.999999985              -0.000434446              -0.000085629               0.999999985              -0.000451291              -0.000079247               0.999999986              -0.000461277              -0.000078252               0.999999986              -0.000469596              -0.000080093               0.999999986              -0.000478163              -0.000083559               0.999999986              -0.000487669              -0.000087705               0.999999986              -0.000498280              -0.000092105               0.999999986              -0.000509839              -0.000096737               0.999999986              -0.000522314              -0.000101427               0.999999986              -0.000535606              -0.000105891               0.999999986              -0.000549547              -0.000109866               0.999999986              -0.000563941              -0.000113156               0.999999986              -0.000578495              -0.000115537               0.999999986              -0.000592899              -0.000116567               0.999999986              -0.000606901              -0.000115850               0.999999986              -0.000620214              -0.000112590               0.999999986              -0.000389938              -0.000203497               0.999999985              -0.000419969              -0.000170585               0.999999986              -0.000432346              -0.000158625               0.999999986              -0.000439820              -0.000157254               0.999999986              -0.000446694              -0.000161469               0.999999986              -0.000454365              -0.000168649               0.999999986              -0.000463218              -0.000177196               0.999999986              -0.000473238              -0.000186284               0.999999986              -0.000484237              -0.000195612               0.999999986              -0.000496000              -0.000205022               0.999999986              -0.000508252              -0.000213971               0.999999986              -0.000520769              -0.000221849               0.999999986              -0.000533254              -0.000228528               0.999999986              -0.000545542              -0.000233554               0.999999986              -0.000557457              -0.000236340               0.999999986              -0.000568854              -0.000236119               0.999999986              -0.000579629              -0.000231895               0.999999986              -0.000378626              -0.000302542               0.999999986              -0.000396812              -0.000254316               0.999999986              -0.000402859              -0.000238166               0.999999986              -0.000407043              -0.000237512               0.999999986              -0.000412244              -0.000244864               0.999999986              -0.000418985              -0.000256195               0.999999986              -0.000427136              -0.000269417               0.999999986              -0.000436486              -0.000283407               0.999999986              -0.000446653              -0.000297638               0.999999986              -0.000457224              -0.000311618               0.999999986              -0.000467790              -0.000324791               0.999999986              -0.000478074              -0.000336659               0.999999986              -0.000487907              -0.000346918               0.999999986              -0.000497150              -0.000355101               0.999999986              -0.000505811              -0.000360740               0.999999986              -0.000513895              -0.000363168               0.999999986              -0.000521567              -0.000361941               0.999999986              -0.000363237              -0.000398481               0.999999986              -0.000366292              -0.000336472               0.999999986              -0.000365330              -0.000317881               0.999999986              -0.000366478              -0.000319148               0.999999986              -0.000370492              -0.000330261               0.999999986              -0.000376709              -0.000346102               0.999999986              -0.000384547              -0.000364169               0.999999986              -0.000393378              -0.000383038               0.999999986              -0.000402674              -0.000402051               0.999999986              -0.000411888              -0.000420428               0.999999986              -0.000420651              -0.000437655               0.999999986              -0.000428713              -0.000453280               0.999999986              -0.000435926              -0.000467118               0.999999986              -0.000442348              -0.000479000               0.999999986              -0.000448044              -0.000488459               0.999999986              -0.000453140              -0.000495338               0.999999986              -0.000457975              -0.000499820               0.999999986              -0.000344003              -0.000490464               0.999999986              -0.000330007              -0.000416933               0.999999986              -0.000322719              -0.000397570               0.999999986              -0.000321973              -0.000401623               0.999999986              -0.000325770              -0.000416876               0.999999986              -0.000332256              -0.000437326               0.999999986              -0.000340224              -0.000460167               0.999999986              -0.000348783              -0.000483710               0.999999986              -0.000357201              -0.000507172               0.999999986              -0.000365003              -0.000529739               0.999999986              -0.000371874              -0.000550819               0.999999986              -0.000377674              -0.000570289               0.999999986              -0.000382555              -0.000587974               0.999999986              -0.000386483              -0.000603704               0.999999986              -0.000389423              -0.000617391               0.999999986              -0.000391679              -0.000629194               0.999999986              -0.000393567              -0.000639865               0.999999986              -0.000321389              -0.000577503               0.999999986              -0.000289944              -0.000495554               0.999999986              -0.000278035              -0.000476801               0.999999986              -0.000277014              -0.000484122               0.999999986              -0.000281785              -0.000503402               0.999999986              -0.000289217              -0.000528358               0.999999986              -0.000297685              -0.000555727               0.999999986              -0.000306088              -0.000583568               0.999999986              -0.000313571              -0.000611077               0.999999986              -0.000319787              -0.000637532               0.999999986              -0.000324654              -0.000662395               0.999999986              -0.000328285              -0.000685696               0.999999986              -0.000330553              -0.000707301               0.999999986              -0.000331565              -0.000726920               0.999999986              -0.000331580              -0.000744866               0.999999986              -0.000330891              -0.000761767               0.999999986              -0.000329572              -0.000777982               0.999999986              -0.000295900              -0.000658609               0.999999986              -0.000248182              -0.000572060               0.999999986              -0.000234000              -0.000554936               0.999999986              -0.000234473              -0.000565443               0.999999986              -0.000241024              -0.000588575               0.999999986              -0.000249853              -0.000617685               0.999999986              -0.000258864              -0.000649156               0.999999986              -0.000266855              -0.000680977               0.999999986              -0.000273218              -0.000712186               0.999999986              -0.000277739              -0.000742167               0.999999986              -0.000280410              -0.000770658               0.999999986              -0.000281251              -0.000797630               0.999999986              -0.000280429              -0.000822843               0.999999986              -0.000278265              -0.000846374               0.999999986              -0.000274874              -0.000868866               0.999999986              -0.000270434              -0.000890505               0.999999986              -0.000265096              -0.000911194               0.999999986              -0.000268544              -0.000732371               0.999999986              -0.000206355              -0.000646247               0.999999986              -0.000192993              -0.000630951               0.999999986              -0.000195944              -0.000644385               0.999999986              -0.000204738              -0.000671121               0.999999986              -0.000214941              -0.000704079               0.999999986              -0.000224226              -0.000739386               0.999999986              -0.000231512              -0.000774848               0.999999986              -0.000236364              -0.000809501               0.999999986              -0.000238631              -0.000842919               0.999999986              -0.000238331              -0.000874846               0.999999986              -0.000235799              -0.000905158               0.999999986              -0.000231251              -0.000934061               0.999999986              -0.000225103              -0.000961492               0.999999986              -0.000217810              -0.000987286               0.999999986              -0.000209833              -0.001011837               0.999999986              -0.000201253              -0.001035284               0.999999986              -0.000240979              -0.000801438               0.999999986              -0.000172395              -0.000726469               0.999999986              -0.000155879              -0.000706530               0.999999986              -0.000157184              -0.000714054               0.999999986              -0.000164852              -0.000735621               0.999999986              -0.000174460              -0.000764597               0.999999986              -0.000183629              -0.000797185               0.999999986              -0.000191112              -0.000831082               0.999999986              -0.000196253              -0.000864987               0.999999986              -0.000198823              -0.000898326               0.999999986              -0.000198913              -0.000930796               0.999999986              -0.000196382              -0.000962157               0.999999986              -0.000191639              -0.000992417               0.999999986              -0.000184998              -0.001021394               0.999999986              -0.000176572              -0.001048746               0.999999986              -0.000167200              -0.001074731               0.999999986              -0.000157471              -0.001099317               0.999999986              -0.000210863              -0.000863815               0.999999986              -0.000141244              -0.000803266               0.999999986              -0.000121688              -0.000783251               0.999999986              -0.000120608              -0.000786782               0.999999986              -0.000126531              -0.000804098               0.999999986              -0.000135011              -0.000829469               0.999999986              -0.000143584              -0.000859357               0.999999986              -0.000150868              -0.000891619               0.999999986              -0.000156131              -0.000924701               0.999999986              -0.000158974              -0.000957874               0.999999986              -0.000159336              -0.000990623               0.999999986              -0.000157098              -0.001022638               0.999999986              -0.000152087              -0.001053949               0.999999986              -0.000144751              -0.001084208               0.999999986              -0.000135130              -0.001113055               0.999999986              -0.000123458              -0.001140673               0.999999986              -0.000110740              -0.001167011               0.999999986              -0.000178861              -0.000918257               0.999999986              -0.000112796              -0.000874555               0.999999986              -0.000091461              -0.000857705               0.999999986              -0.000087908              -0.000859733               0.999999986              -0.000091754              -0.000874158               0.999999986              -0.000098604              -0.000896683               0.999999986              -0.000106022              -0.000924330               0.999999986              -0.000112531              -0.000955088               0.999999986              -0.000117628              -0.000987564               0.999999986              -0.000120746              -0.001020621               0.999999986              -0.000121330              -0.001053760               0.999999986              -0.000119268              -0.001086526               0.999999986              -0.000114412              -0.001118763               0.999999986              -0.000106449              -0.001150155               0.999999986              -0.000095493              -0.001180440               0.999999986              -0.000081710              -0.001209511               0.999999986              -0.000065768              -0.001237367               0.999999986              -0.000145228              -0.000963911               0.999999986              -0.000086915              -0.000937715               0.999999986              -0.000065669              -0.000926420               0.999999986              -0.000060383              -0.000929035               0.999999986              -0.000062194              -0.000942248               0.999999986              -0.000067069              -0.000963022               0.999999986              -0.000072862              -0.000989145               0.999999986              -0.000078284              -0.001018840               0.999999986              -0.000082747              -0.001050894               0.999999986              -0.000085724              -0.001084248               0.999999986              -0.000086513              -0.001118127               0.999999986              -0.000084784              -0.001152004               0.999999986              -0.000080259              -0.001185615               0.999999986              -0.000072306              -0.001218481               0.999999986              -0.000060623              -0.001250239               0.999999986              -0.000045240              -0.001280818               0.999999986              -0.000026113              -0.001310287               0.999999986              -0.000110186              -0.001000124               0.999999986              -0.000063274              -0.000990015               0.999999986              -0.000044451              -0.000985464               0.999999986              -0.000038536              -0.000990303               0.999999986              -0.000038754              -0.001003672               0.999999986              -0.000041800              -0.001023846               0.999999986              -0.000045793              -0.001049210               0.999999986              -0.000049841              -0.001078427               0.999999986              -0.000053306              -0.001110476               0.999999986              -0.000055741              -0.001144424               0.999999986              -0.000056618              -0.001179464               0.999999986              -0.000055291              -0.001215005               0.999999986              -0.000051316              -0.001250692               0.999999986              -0.000044125              -0.001285808               0.999999986              -0.000033041              -0.001319813               0.999999986              -0.000017408              -0.001352620               0.999999986               0.000003487              -0.001384117               0.999999986              -0.000074043              -0.001026365               0.999999986              -0.000041321              -0.001029127               0.999999986              -0.000027225              -0.001031022               0.999999986              -0.000022096              -0.001038760               0.999999986              -0.000021442              -0.001053204               0.999999986              -0.000022979              -0.001073619               0.999999986              -0.000025482              -0.001098964               0.999999986              -0.000028073              -0.001128198               0.999999986              -0.000030327              -0.001160483               0.999999986              -0.000031995              -0.001195163               0.999999986              -0.000032670              -0.001231492               0.999999986              -0.000031790              -0.001268913               0.999999986              -0.000028844              -0.001306909               0.999999986              -0.000023347              -0.001344647               0.999999986              -0.000014396              -0.001381580               0.999999986              -0.000001263              -0.001417308               0.999999986               0.000017286              -0.001451440               0.999999986              -0.000037196              -0.001042228               0.999999986              -0.000020412              -0.001053289               0.999999986              -0.000012852              -0.001059896               0.999999986              -0.000009884              -0.001070070               0.999999986              -0.000009259              -0.001085646               0.999999986              -0.000009814              -0.001106543               0.999999986              -0.000011009              -0.001132139               0.999999986              -0.000012255              -0.001161698               0.999999986              -0.000013363              -0.001194450               0.999999986              -0.000014112              -0.001229756               0.999999986              -0.000014446              -0.001267058               0.999999986              -0.000014023              -0.001305858               0.999999986              -0.000012539              -0.001345671               0.999999986              -0.000009470              -0.001385590               0.999999986              -0.000004531              -0.001424916               0.999999986               0.000003066              -0.001463142               0.999999986               0.000014142              -0.001499670               0.999999986               0.000000000              -0.001047570               0.999999986               0.000000000              -0.001061456               0.999999986              -0.000000000              -0.001069716               0.999999986              -0.000000000              -0.001080884               0.999999986               0.000000000              -0.001096978               0.999999986               0.000000000              -0.001118127               0.999999986               0.000000000              -0.001143906               0.999999986              -0.000000000              -0.001173560               0.999999986              -0.000000000              -0.001206519               0.999999986               0.000000000              -0.001242083               0.999999986              -0.000000000              -0.001279718               0.999999986              -0.000000000              -0.001319026               0.999999986              -0.000000000              -0.001359551               0.999999986               0.000000000              -0.001400384               0.999999986               0.000000000              -0.001440674               0.999999986              -0.000000000              -0.001479899               0.999999986              -0.000000000              -0.001517406               0.999999986               0.000399151              -0.000000000               0.999999985               0.000439346              -0.000000000               0.999999985               0.000457808              -0.000000000               0.999999986               0.000468739              -0.000000000               0.999999986               0.000477636               0.000000000               0.999999986               0.000486646              -0.000000000               0.999999986               0.000496460              -0.000000000               0.999999986               0.000507293              -0.000000000               0.999999986               0.000519051              -0.000000000               0.999999986               0.000531692               0.000000000               0.999999986               0.000545268               0.000000000               0.999999986               0.000559633               0.000000000               0.999999986               0.000574578               0.000000000               0.999999986               0.000589880               0.000000000               0.999999986               0.000605235               0.000000000               0.999999986               0.000620324               0.000000000               0.999999986               0.000634674               0.000000000               0.999999986               0.000396847              -0.000102294               0.999999985               0.000434446              -0.000085629               0.999999985               0.000451291              -0.000079247               0.999999986               0.000461277              -0.000078252               0.999999986               0.000469596              -0.000080093               0.999999986               0.000478163              -0.000083559               0.999999986               0.000487669              -0.000087705               0.999999986               0.000498280              -0.000092105               0.999999986               0.000509839              -0.000096737               0.999999986               0.000522314              -0.000101427               0.999999986               0.000535606              -0.000105891               0.999999986               0.000549547              -0.000109866               0.999999986               0.000563941              -0.000113156               0.999999986               0.000578495              -0.000115537               0.999999986               0.000592899              -0.000116567               0.999999986               0.000606901              -0.000115850               0.999999986               0.000620214              -0.000112590               0.999999986               0.000389938              -0.000203497               0.999999985               0.000419969              -0.000170585               0.999999986               0.000432346              -0.000158625               0.999999986               0.000439820              -0.000157254               0.999999986               0.000446694              -0.000161469               0.999999986               0.000454365              -0.000168649               0.999999986               0.000463218              -0.000177196               0.999999986               0.000473238              -0.000186284               0.999999986               0.000484237              -0.000195612               0.999999986               0.000496000              -0.000205022               0.999999986               0.000508252              -0.000213971               0.999999986               0.000520769              -0.000221849               0.999999986               0.000533254              -0.000228528               0.999999986               0.000545542              -0.000233554               0.999999986               0.000557457              -0.000236340               0.999999986               0.000568854              -0.000236119               0.999999986               0.000579629              -0.000231895               0.999999986               0.000378626              -0.000302542               0.999999986               0.000396812              -0.000254316               0.999999986               0.000402859              -0.000238166               0.999999986               0.000407043              -0.000237512               0.999999986               0.000412244              -0.000244864               0.999999986               0.000418985              -0.000256195               0.999999986               0.000427136              -0.000269417               0.999999986               0.000436486              -0.000283407               0.999999986               0.000446653              -0.000297638               0.999999986               0.000457224              -0.000311618               0.999999986               0.000467790              -0.000324791               0.999999986               0.000478074              -0.000336659               0.999999986               0.000487907              -0.000346918               0.999999986               0.000497150              -0.000355101               0.999999986               0.000505811              -0.000360740               0.999999986               0.000513895              -0.000363168               0.999999986               0.000521567              -0.000361941               0.999999986               0.000363237              -0.000398481               0.999999986               0.000366292              -0.000336472               0.999999986               0.000365330              -0.000317881               0.999999986               0.000366478              -0.000319148               0.999999986               0.000370492              -0.000330261               0.999999986               0.000376709              -0.000346102               0.999999986               0.000384547              -0.000364169               0.999999986               0.000393378              -0.000383038               0.999999986               0.000402674              -0.000402051               0.999999986               0.000411888              -0.000420428               0.999999986               0.000420651              -0.000437655               0.999999986               0.000428713              -0.000453280               0.999999986               0.000435926              -0.000467118               0.999999986               0.000442348              -0.000479000               0.999999986               0.000448044              -0.000488459               0.999999986               0.000453140              -0.000495338               0.999999986               0.000457975              -0.000499820               0.999999986               0.000344003              -0.000490464               0.999999986               0.000330007              -0.000416933               0.999999986               0.000322719              -0.000397570               0.999999986               0.000321973              -0.000401623               0.999999986               0.000325770              -0.000416876               0.999999986               0.000332256              -0.000437326               0.999999986               0.000340224              -0.000460167               0.999999986               0.000348783              -0.000483710               0.999999986               0.000357201              -0.000507172               0.999999986               0.000365003              -0.000529739               0.999999986               0.000371874              -0.000550819               0.999999986               0.000377674              -0.000570289               0.999999986               0.000382555              -0.000587974               0.999999986               0.000386483              -0.000603704               0.999999986               0.000389423              -0.000617391               0.999999986               0.000391679              -0.000629194               0.999999986               0.000393567              -0.000639865               0.999999986               0.000321389              -0.000577503               0.999999986               0.000289944              -0.000495554               0.999999986               0.000278035              -0.000476801               0.999999986               0.000277014              -0.000484122               0.999999986               0.000281785              -0.000503402               0.999999986               0.000289217              -0.000528358               0.999999986               0.000297685              -0.000555727               0.999999986               0.000306088              -0.000583568               0.999999986               0.000313571              -0.000611077               0.999999986               0.000319787              -0.000637532               0.999999986               0.000324654              -0.000662395               0.999999986               0.000328285              -0.000685696               0.999999986               0.000330553              -0.000707301               0.999999986               0.000331565              -0.000726920               0.999999986               0.000331580              -0.000744866               0.999999986               0.000330891              -0.000761767               0.999999986               0.000329572              -0.000777982               0.999999986               0.000295900              -0.000658609               0.999999986               0.000248182              -0.000572060               0.999999986               0.000234000              -0.000554936               0.999999986               0.000234473              -0.000565443               0.999999986               0.000241024              -0.000588575               0.999999986               0.000249853              -0.000617685               0.999999986               0.000258864              -0.000649156               0.999999986               0.000266855              -0.000680977               0.999999986               0.000273218              -0.000712186               0.999999986               0.000277739              -0.000742167               0.999999986               0.000280410              -0.000770658               0.999999986               0.000281251              -0.000797630               0.999999986               0.000280429              -0.000822843               0.999999986               0.000278265              -0.000846374               0.999999986               0.000274874              -0.000868866               0.999999986               0.000270434              -0.000890505               0.999999986               0.000265096              -0.000911194               0.999999986               0.000268544              -0.000732371               0.999999986               0.000206355              -0.000646247               0.999999986               0.000192993              -0.000630951               0.999999986               0.000195944              -0.000644385               0.999999986               0.000204738              -0.000671121               0.999999986               0.000214941              -0.000704079               0.999999986               0.000224226              -0.000739386               0.999999986               0.000231512              -0.000774848               0.999999986               0.000236364              -0.000809501               0.999999986               0.000238631              -0.000842919               0.999999986               0.000238331              -0.000874846               0.999999986               0.000235799              -0.000905158               0.999999986               0.000231251              -0.000934061               0.999999986               0.000225103              -0.000961492               0.999999986               0.000217810              -0.000987286               0.999999986               0.000209833              -0.001011837               0.999999986               0.000201253              -0.001035284               0.999999986               0.000240979              -0.000801438               0.999999986               0.000172395              -0.000726469               0.999999986               0.000155879              -0.000706530               0.999999986               0.000157184              -0.000714054               0.999999986               0.000164852              -0.000735621               0.999999986               0.000174460              -0.000764597               0.999999986               0.000183629              -0.000797185               0.999999986               0.000191112              -0.000831082               0.999999986               0.000196253              -0.000864987               0.999999986               0.000198823              -0.000898326               0.999999986               0.000198913              -0.000930796               0.999999986               0.000196382              -0.000962157               0.999999986               0.000191639              -0.000992417               0.999999986               0.000184998              -0.001021394               0.999999986               0.000176572              -0.001048746               0.999999986               0.000167200              -0.001074731               0.999999986               0.000157471              -0.001099317               0.999999986               0.000210863              -0.000863815               0.999999986               0.000141244              -0.000803266               0.999999986               0.000121688              -0.000783251               0.999999986               0.000120608              -0.000786782               0.999999986               0.000126531              -0.000804098               0.999999986               0.000135011              -0.000829469               0.999999986               0.000143584              -0.000859357               0.999999986               0.000150868              -0.000891619               0.999999986               0.000156131              -0.000924701               0.999999986               0.000158974              -0.000957874               0.999999986               0.000159336              -0.000990623               0.999999986               0.000157098              -0.001022638               0.999999986               0.000152087              -0.001053949               0.999999986               0.000144751              -0.001084208               0.999999986               0.000135130              -0.001113055               0.999999986               0.000123458              -0.001140673               0.999999986               0.000110740              -0.001167011               0.999999986               0.000178861              -0.000918257               0.999999986               0.000112796              -0.000874555               0.999999986               0.000091461              -0.000857705               0.999999986               0.000087908              -0.000859733               0.999999986               0.000091754              -0.000874158               0.999999986               0.000098604              -0.000896683               0.999999986               0.000106022              -0.000924330               0.999999986               0.000112531              -0.000955088               0.999999986               0.000117628              -0.000987564               0.999999986               0.000120746              -0.001020621               0.999999986               0.000121330              -0.001053760               0.999999986               0.000119268              -0.001086526               0.999999986               0.000114412              -0.001118763               0.999999986               0.000106449              -0.001150155               0.999999986               0.000095493              -0.001180440               0.999999986               0.000081710              -0.001209511               0.999999986               0.000065768              -0.001237367               0.999999986               0.000145228              -0.000963911               0.999999986               0.000086915              -0.000937715               0.999999986               0.000065669              -0.000926420               0.999999986               0.000060383              -0.000929035               0.999999986               0.000062194              -0.000942248               0.999999986               0.000067069              -0.000963022               0.999999986               0.000072862              -0.000989145               0.999999986               0.000078284              -0.001018840               0.999999986               0.000082747              -0.001050894               0.999999986               0.000085724              -0.001084248               0.999999986               0.000086513              -0.001118127               0.999999986               0.000084784              -0.001152004               0.999999986               0.000080259              -0.001185615               0.999999986               0.000072306              -0.001218481               0.999999986               0.000060623              -0.001250239               0.999999986               0.000045240              -0.001280818               0.999999986               0.000026113              -0.001310287               0.999999986               0.000110186              -0.001000124               0.999999986               0.000063274              -0.000990015               0.999999986               0.000044451              -0.000985464               0.999999986               0.000038536              -0.000990303               0.999999986               0.000038754              -0.001003672               0.999999986               0.000041800              -0.001023846               0.999999986               0.000045793              -0.001049210               0.999999986               0.000049841              -0.001078427               0.999999986               0.000053306              -0.001110476               0.999999986               0.000055741              -0.001144424               0.999999986               0.000056618              -0.001179464               0.999999986               0.000055291              -0.001215005               0.999999986               0.000051316              -0.001250692               0.999999986               0.000044125              -0.001285808               0.999999986               0.000033041              -0.001319813               0.999999986               0.000017408              -0.001352620               0.999999986              -0.000003487              -0.001384117               0.999999986               0.000074043              -0.001026365               0.999999986               0.000041321              -0.001029127               0.999999986               0.000027225              -0.001031022               0.999999986               0.000022096              -0.001038760               0.999999986               0.000021442              -0.001053204               0.999999986               0.000022979              -0.001073619               0.999999986               0.000025482              -0.001098964               0.999999986               0.000028073              -0.001128198               0.999999986               0.000030327              -0.001160483               0.999999986               0.000031995              -0.001195163               0.999999986               0.000032670              -0.001231492               0.999999986               0.000031790              -0.001268913               0.999999986               0.000028844              -0.001306909               0.999999986               0.000023347              -0.001344647               0.999999986               0.000014396              -0.001381580               0.999999986               0.000001263              -0.001417308               0.999999986              -0.000017286              -0.001451440               0.999999986               0.000037196              -0.001042228               0.999999986               0.000020412              -0.001053289               0.999999986               0.000012852              -0.001059896               0.999999986               0.000009884              -0.001070070               0.999999986               0.000009259              -0.001085646               0.999999986               0.000009814              -0.001106543               0.999999986               0.000011009              -0.001132139               0.999999986               0.000012255              -0.001161698               0.999999986               0.000013363              -0.001194450               0.999999986               0.000014112              -0.001229756               0.999999986               0.000014446              -0.001267058               0.999999986               0.000014023              -0.001305858               0.999999986               0.000012539              -0.001345671               0.999999986               0.000009470              -0.001385590               0.999999986               0.000004531              -0.001424916               0.999999986              -0.000003066              -0.001463142               0.999999986              -0.000014142              -0.001499670               0.999999986               0.000000000              -0.001047570               0.999999986               0.000000000              -0.001061456               0.999999986              -0.000000000              -0.001069716               0.999999986              -0.000000000              -0.001080884               0.999999986               0.000000000              -0.001096978               0.999999986               0.000000000              -0.001118127               0.999999986               0.000000000              -0.001143906               0.999999986              -0.000000000              -0.001173560               0.999999986              -0.000000000              -0.001206519               0.999999986               0.000000000              -0.001242083               0.999999986              -0.000000000              -0.001279718               0.999999986              -0.000000000              -0.001319026               0.999999986              -0.000000000              -0.001359551               0.999999986               0.000000000              -0.001400384               0.999999986               0.000000000              -0.001440674               0.999999986              -0.000000000              -0.001479899               0.999999986              -0.000000000              -0.001517406               0.999999986               0.000399151              -0.000000000               0.999999985               0.000439346              -0.000000000               0.999999985               0.000457808              -0.000000000               0.999999986               0.000468739              -0.000000000               0.999999986               0.000477636               0.000000000               0.999999986               0.000486646              -0.000000000               0.999999986               0.000496460              -0.000000000               0.999999986               0.000507293              -0.000000000               0.999999986               0.000519051              -0.000000000               0.999999986               0.000531692               0.000000000               0.999999986               0.000545268               0.000000000               0.999999986               0.000559633               0.000000000               0.999999986               0.000574578               0.000000000               0.999999986               0.000589880               0.000000000               0.999999986               0.000605235               0.000000000               0.999999986               0.000620324               0.000000000               0.999999986               0.000634674               0.000000000               0.999999986               0.000396847               0.000102294               0.999999985               0.000434446               0.000085629               0.999999985               0.000451291               0.000079247               0.999999986               0.000461277               0.000078252               0.999999986               0.000469596               0.000080093               0.999999986               0.000478163               0.000083559               0.999999986               0.000487669               0.000087705               0.999999986               0.000498280               0.000092105               0.999999986               0.000509839               0.000096737               0.999999986               0.000522314               0.000101427               0.999999986               0.000535606               0.000105891               0.999999986               0.000549547               0.000109866               0.999999986               0.000563941               0.000113156               0.999999986               0.000578495               0.000115537               0.999999986               0.000592899               0.000116567               0.999999986               0.000606901               0.000115850               0.999999986               0.000620214               0.000112590               0.999999986               0.000389938               0.000203497               0.999999985               0.000419969               0.000170585               0.999999986               0.000432346               0.000158625               0.999999986               0.000439820               0.000157254               0.999999986               0.000446694               0.000161469               0.999999986               0.000454365               0.000168649               0.999999986               0.000463218               0.000177196               0.999999986               0.000473238               0.000186284               0.999999986               0.000484237               0.000195612               0.999999986               0.000496000               0.000205022               0.999999986               0.000508252               0.000213971               0.999999986               0.000520769               0.000221849               0.999999986               0.000533254               0.000228528               0.999999986               0.000545542               0.000233554               0.999999986               0.000557457               0.000236340               0.999999986               0.000568854               0.000236119               0.999999986               0.000579629               0.000231895               0.999999986               0.000378626               0.000302542               0.999999986               0.000396812               0.000254316               0.999999986               0.000402859               0.000238166               0.999999986               0.000407043               0.000237512               0.999999986               0.000412244               0.000244864               0.999999986               0.000418985               0.000256195               0.999999986               0.000427136               0.000269417               0.999999986               0.000436486               0.000283407               0.999999986               0.000446653               0.000297638               0.999999986               0.000457224               0.000311618               0.999999986               0.000467790               0.000324791               0.999999986               0.000478074               0.000336659               0.999999986               0.000487907               0.000346918               0.999999986               0.000497150               0.000355101               0.999999986               0.000505811               0.000360740               0.999999986               0.000513895               0.000363168               0.999999986               0.000521567               0.000361941               0.999999986               0.000363237               0.000398481               0.999999986               0.000366292               0.000336472               0.999999986               0.000365330               0.000317881               0.999999986               0.000366478               0.000319148               0.999999986               0.000370492               0.000330261               0.999999986               0.000376709               0.000346102               0.999999986               0.000384547               0.000364169               0.999999986               0.000393378               0.000383038               0.999999986               0.000402674               0.000402051               0.999999986               0.000411888               0.000420428               0.999999986               0.000420651               0.000437655               0.999999986               0.000428713               0.000453280               0.999999986               0.000435926               0.000467118               0.999999986               0.000442348               0.000479000               0.999999986               0.000448044               0.000488459               0.999999986               0.000453140               0.000495338               0.999999986               0.000457975               0.000499820               0.999999986               0.000344003               0.000490464               0.999999986               0.000330007               0.000416933               0.999999986               0.000322719               0.000397570               0.999999986               0.000321973               0.000401623               0.999999986               0.000325770               0.000416876               0.999999986               0.000332256               0.000437326               0.999999986               0.000340224               0.000460167               0.999999986               0.000348783               0.000483710               0.999999986               0.000357201               0.000507172               0.999999986               0.000365003               0.000529739               0.999999986               0.000371874               0.000550819               0.999999986               0.000377674               0.000570289               0.999999986               0.000382555               0.000587974               0.999999986               0.000386483               0.000603704               0.999999986               0.000389423               0.000617391               0.999999986               0.000391679               0.000629194               0.999999986               0.000393567               0.000639865               0.999999986               0.000321389               0.000577503               0.999999986               0.000289944               0.000495554               0.999999986               0.000278035               0.000476801               0.999999986               0.000277014               0.000484122               0.999999986               0.000281785               0.000503402               0.999999986               0.000289217               0.000528358               0.999999986               0.000297685               0.000555727               0.999999986               0.000306088               0.000583568               0.999999986               0.000313571               0.000611077               0.999999986               0.000319787               0.000637532               0.999999986               0.000324654               0.000662395               0.999999986               0.000328285               0.000685696               0.999999986               0.000330553               0.000707301               0.999999986               0.000331565               0.000726920               0.999999986               0.000331580               0.000744866               0.999999986               0.000330891               0.000761767               0.999999986               0.000329572               0.000777982               0.999999986               0.000295900               0.000658609               0.999999986               0.000248182               0.000572060               0.999999986               0.000234000               0.000554936               0.999999986               0.000234473               0.000565443               0.999999986               0.000241024               0.000588575               0.999999986               0.000249853               0.000617685               0.999999986               0.000258864               0.000649156               0.999999986               0.000266855               0.000680977               0.999999986               0.000273218               0.000712186               0.999999986               0.000277739               0.000742167               0.999999986               0.000280410               0.000770658               0.999999986               0.000281251               0.000797630               0.999999986               0.000280429               0.000822843               0.999999986               0.000278265               0.000846374               0.999999986               0.000274874               0.000868866               0.999999986               0.000270434               0.000890505               0.999999986               0.000265096               0.000911194               0.999999986               0.000268544               0.000732371               0.999999986               0.000206355               0.000646247               0.999999986               0.000192993               0.000630951               0.999999986               0.000195944               0.000644385               0.999999986               0.000204738               0.000671121               0.999999986               0.000214941               0.000704079               0.999999986               0.000224226               0.000739386               0.999999986               0.000231512               0.000774848               0.999999986               0.000236364               0.000809501               0.999999986               0.000238631               0.000842919               0.999999986               0.000238331               0.000874846               0.999999986               0.000235799               0.000905158               0.999999986               0.000231251               0.000934061               0.999999986               0.000225103               0.000961492               0.999999986               0.000217810               0.000987286               0.999999986               0.000209833               0.001011837               0.999999986               0.000201253               0.001035284               0.999999986               0.000240979               0.000801438               0.999999986               0.000172395               0.000726469               0.999999986               0.000155879               0.000706530               0.999999986               0.000157184               0.000714054               0.999999986               0.000164852               0.000735621               0.999999986               0.000174460               0.000764597               0.999999986               0.000183629               0.000797185               0.999999986               0.000191112               0.000831082               0.999999986               0.000196253               0.000864987               0.999999986               0.000198823               0.000898326               0.999999986               0.000198913               0.000930796               0.999999986               0.000196382               0.000962157               0.999999986               0.000191639               0.000992417               0.999999986               0.000184998               0.001021394               0.999999986               0.000176572               0.001048746               0.999999986               0.000167200               0.001074731               0.999999986               0.000157471               0.001099317               0.999999986               0.000210863               0.000863815               0.999999986               0.000141244               0.000803266               0.999999986               0.000121688               0.000783251               0.999999986               0.000120608               0.000786782               0.999999986               0.000126531               0.000804098               0.999999986               0.000135011               0.000829469               0.999999986               0.000143584               0.000859357               0.999999986               0.000150868               0.000891619               0.999999986               0.000156131               0.000924701               0.999999986               0.000158974               0.000957874               0.999999986               0.000159336               0.000990623               0.999999986               0.000157098               0.001022638               0.999999986               0.000152087               0.001053949               0.999999986               0.000144751               0.001084208               0.999999986               0.000135130               0.001113055               0.999999986               0.000123458               0.001140673               0.999999986               0.000110740               0.001167011               0.999999986               0.000178861               0.000918257               0.999999986               0.000112796               0.000874555               0.999999986               0.000091461               0.000857705               0.999999986               0.000087908               0.000859733               0.999999986               0.000091754               0.000874158               0.999999986               0.000098604               0.000896683               0.999999986               0.000106022               0.000924330               0.999999986               0.000112531               0.000955088               0.999999986               0.000117628               0.000987564               0.999999986               0.000120746               0.001020621               0.999999986               0.000121330               0.001053760               0.999999986               0.000119268               0.001086526               0.999999986               0.000114412               0.001118763               0.999999986               0.000106449               0.001150155               0.999999986               0.000095493               0.001180440               0.999999986               0.000081710               0.001209511               0.999999986               0.000065768               0.001237367               0.999999986               0.000145228               0.000963911               0.999999986               0.000086915               0.000937715               0.999999986               0.000065669               0.000926420               0.999999986               0.000060383               0.000929035               0.999999986               0.000062194               0.000942248               0.999999986               0.000067069               0.000963022               0.999999986               0.000072862               0.000989145               0.999999986               0.000078284               0.001018840               0.999999986               0.000082747               0.001050894               0.999999986               0.000085724               0.001084248               0.999999986               0.000086513               0.001118127               0.999999986               0.000084784               0.001152004               0.999999986               0.000080259               0.001185615               0.999999986               0.000072306               0.001218481               0.999999986               0.000060623               0.001250239               0.999999986               0.000045240               0.001280818               0.999999986               0.000026113               0.001310287               0.999999986               0.000110186               0.001000124               0.999999986               0.000063274               0.000990015               0.999999986               0.000044451               0.000985464               0.999999986               0.000038536               0.000990303               0.999999986               0.000038754               0.001003672               0.999999986               0.000041800               0.001023846               0.999999986               0.000045793               0.001049210               0.999999986               0.000049841               0.001078427               0.999999986               0.000053306               0.001110476               0.999999986               0.000055741               0.001144424               0.999999986               0.000056618               0.001179464               0.999999986               0.000055291               0.001215005               0.999999986               0.000051316               0.001250692               0.999999986               0.000044125               0.001285808               0.999999986               0.000033041               0.001319813               0.999999986               0.000017408               0.001352620               0.999999986              -0.000003487               0.001384117               0.999999986               0.000074043               0.001026365               0.999999986               0.000041321               0.001029127               0.999999986               0.000027225               0.001031022               0.999999986               0.000022096               0.001038760               0.999999986               0.000021442               0.001053204               0.999999986               0.000022979               0.001073619               0.999999986               0.000025482               0.001098964               0.999999986               0.000028073               0.001128198               0.999999986               0.000030327               0.001160483               0.999999986               0.000031995               0.001195163               0.999999986               0.000032670               0.001231492               0.999999986               0.000031790               0.001268913               0.999999986               0.000028844               0.001306909               0.999999986               0.000023347               0.001344647               0.999999986               0.000014396               0.001381580               0.999999986               0.000001263               0.001417308               0.999999986              -0.000017286               0.001451440               0.999999986               0.000037196               0.001042228               0.999999986               0.000020412               0.001053289               0.999999986               0.000012852               0.001059896               0.999999986               0.000009884               0.001070070               0.999999986               0.000009259               0.001085646               0.999999986               0.000009814               0.001106543               0.999999986               0.000011009               0.001132139               0.999999986               0.000012255               0.001161698               0.999999986               0.000013363               0.001194450               0.999999986               0.000014112               0.001229756               0.999999986               0.000014446               0.001267058               0.999999986               0.000014023               0.001305858               0.999999986               0.000012539               0.001345671               0.999999986               0.000009470               0.001385590               0.999999986               0.000004531               0.001424916               0.999999986              -0.000003066               0.001463142               0.999999986              -0.000014142               0.001499670               0.999999986              -0.000000000               0.001047570               0.999999986               0.000000000               0.001061456               0.999999986              -0.000000000               0.001069716               0.999999986              -0.000000000               0.001080884               0.999999986               0.000000000               0.001096978               0.999999986              -0.000000000               0.001118127               0.999999986              -0.000000000               0.001143906               0.999999986              -0.000000000               0.001173560               0.999999986               0.000000000               0.001206519               0.999999986              -0.000000000               0.001242083               0.999999986              -0.000000000               0.001279718               0.999999986               0.000000000               0.001319026               0.999999986               0.000000000               0.001359551               0.999999986              -0.000000000               0.001400384               0.999999986              -0.000000000               0.001440674               0.999999986               0.000000000               0.001479899               0.999999986              -0.000000000               0.001517406               0.999999986 </DataArray>
<DataArray type="Float64"                                    Name="defo"                                                      NumberOfComponents=" 3" format="ascii">
             -0.000399151               0.000000000               0.999999985              -0.000439346              -0.000000000               0.999999985              -0.000457808              -0.000000000               0.999999986              -0.000468739               0.000000000               0.999999986              -0.000477636              -0.000000000               0.999999986              -0.000486646               0.000000000               0.999999986              -0.000496460               0.000000000               0.999999986              -0.000507293               0.000000000               0.999999986              -0.000519051               0.000000000               0.999999986              -0.000531692              -0.000000000               0.999999986              -0.000545268              -0.000000000               0.999999986              -0.000559633              -0.000000000               0.999999986              -0.000574578              -0.000000000               0.999999986              -0.000589880              -0.000000000               0.999999986              -0.000605235              -0.000000000               0.999999986              -0.000620324               0.000000000               0.999999986              -0.000634674               0.000000000               0.999999986              -0.000396847               0.000102294               0.999999985              -0.000434446               0.000085629               0.999999985              -0.000451291               0.000079247               0.999999986              -0.000461277               0.000078252               0.999999986              -0.000469596               0.000080093               0.999999986              -0.000478163               0.000083559               0.999999986              -0.000487669               0.000087705               0.999999986              -0.000498280               0.000092105               0.999999986              -0.000509839               0.000096737               0.999999986              -0.000522314               0.000101427               0.999999986              -0.000535606               0.000105891               0.999999986              -0.000549547               0.000109866               0.999999986              -0.000563941               0.000113156               0.999999986              -0.000578495               0.000115537               0.999999986              -0.000592899               0.000116567               0.999999986              -0.000606901               0.000115850               0.999999986              -0.000620214               0.000112590               0.999999986              -0.000389938               0.000203497               0.999999985              -0.000419969               0.000170585               0.999999986              -0.000432346               0.000158625               0.999999986              -0.000439820               0.000157254               0.999999986              -0.000446694               0.000161469               0.999999986              -0.000454365               0.000168649               0.999999986              -0.000463218               0.000177196               0.999999986              -0.000473238               0.000186284               0.999999986              -0.000484237               0.000195612               0.999999986              -0.000496000               0.000205022               0.999999986              -0.000508252               0.000213971               0.999999986              -0.000520769               0.000221849               0.999999986              -0.000533254               0.000228528               0.999999986              -0.000545542               0.000233554               0.999999986              -0.000557457               0.000236340               0.999999986              -0.000568854               0.000236119               0.999999986              -0.000579629               0.000231895               0.999999986              -0.000378626               0.000302542               0.999999986              -0.000396812               0.000254316               0.999999986              -0.000402859               0.000238166               0.999999986              -0.000407043               0.000237512               0.999999986              -0.000412244               0.000244864               0.999999986              -0.000418985               0.000256195               0.999999986              -0.000427136               0.000269417               0.999999986              -0.000436486               0.000283407               0.999999986              -0.000446653               0.000297638               0.999999986              -0.000457224               0.000311618               0.999999986              -0.000467790               0.000324791               0.999999986              -0.000478074               0.000336659               0.999999986              -0.000487907               0.000346918               0.999999986              -0.000497150               0.000355101               0.999999986              -0.000505811               0.000360740               0.999999986              -0.000513895               0.000363168               0.999999986              -0.000521567               0.000361941               0.999999986              -0.000363237               0.000398481               0.999999986              -0.000366292               0.000336472               0.999999986              -0.000365330               0.000317881               0.999999986              -0.000366478               0.000319148               0.999999986              -0.000370492               0.000330261               0.999999986              -0.000376709               0.000346102               0.999999986              -0.000384547               0.000364169               0.999999986              -0.000393378               0.000383038               0.999999986              -0.000402674               0.000402051               0.999999986              -0.000411888               0.000420428               0.999999986              -0.000420651               0.000437655               0.999999986              -0.000428713               0.000453280               0.999999986              -0.000435926               0.000467118               0.999999986              -0.000442348               0.000479000               0.999999986              -0.000448044               0.000488459               0.999999986              -0.000453140               0.000495338               0.999999986              -0.000457975               0.000499820               0.999999986              -0.000344003               0.000490464               0.999999986              -0.000330007               0.000416933               0.999999986              -0.000322719               0.000397570               0.999999986              -0.000321973               0.000401623               0.999999986              -0.000325770               0.000416876               0.999999986              -0.000332256               0.000437326               0.999999986              -0.000340224               0.000460167               0.999999986              -0.000348783               0.000483710               0.999999986              -0.000357201               0.000507172               0.999999986              -0.000365003               0.000529739               0.999999986              -0.000371874               0.000550819               0.999999986              -0.000377674               0.000570289               0.999999986              -0.000382555               0.000587974               0.999999986              -0.000386483               0.000603704               0.999999986              -0.000389423               0.000617391               0.999999986              -0.000391679               0.000629194               0.999999986              -0.000393567               0.000639865               0.999999986              -0.000321389               0.000577503               0.999999986              -0.000289944               0.000495554               0.999999986              -0.000278035               0.000476801               0.999999986              -0.000277014               0.000484122               0.999999986              -0.000281785               0.000503402               0.999999986              -0.000289217               0.000528358               0.999999986              -0.000297685               0.000555727               0.999999986              -0.000306088               0.000583568               0.999999986              -0.000313571               0.000611077               0.999999986              -0.000319787               0.000637532               0.999999986              -0.000324654               0.000662395               0.999999986              -0.000328285               0.000685696               0.999999986              -0.000330553               0.000707301               0.999999986              -0.000331565               0.000726920               0.999999986              -0.000331580               0.000744866               0.999999986              -0.000330891               0.000761767               0.999999986              -0.000329572               0.000777982               0.999999986              -0.000295900               0.000658609               0.999999986              -0.000248182               0.000572060               0.999999986              -0.000234000               0.000554936               0.999999986              -0.000234473               0.000565443               0.999999986              -0.000241024               0.000588575               0.999999986              -0.000249853               0.000617685               0.999999986              -0.000258864               0.000649156               0.999999986              -0.000266855               0.000680977               0.999999986              -0.000273218               0.000712186               0.999999986              -0.000277739               0.000742167               0.999999986              -0.000280410               0.000770658               0.999999986              -0.000281251               0.000797630               0.999999986              -0.000280429               0.000822843               0.999999986              -0.000278265               0.000846374               0.999999986              -0.000274874               0.000868866               0.999999986              -0.000270434               0.000890505               0.999999986              -0.000265096               0.000911194               0.999999986              -0.000268544               0.000732371               0.999999986              -0.000206355               0.000646247               0.999999986              -0.000192993               0.000630951               0.999999986              -0.000195944               0.000644385               0.999999986              -0.000204738               0.000671121               0.999999986              -0.000214941               0.000704079               0.999999986              -0.000224226               0.000739386               0.999999986              -0.000231512               0.000774848               0.999999986              -0.000236364               0.000809501               0.999999986              -0.000238631               0.000842919               0.999999986              -0.000238331               0.000874846               0.999999986              -0.000235799               0.000905158               0.999999986              -0.000231251               0.000934061               0.999999986              -0.000225103               0.000961492               0.999999986              -0.000217810               0.000987286               0.999999986              -0.000209833               0.001011837               0.999999986              -0.000201253               0.001035284               0.999999986              -0.000240979               0.000801438               0.999999986              -0.000172395               0.000726469               0.999999986              -0.000155879               0.000706530               0.999999986              -0.000157184               0.000714054               0.999999986              -0.000164852               0.000735621               0.999999986              -0.000174460               0.000764597               0.999999986              -0.000183629               0.000797185               0.999999986              -0.000191112               0.000831082               0.999999986              -0.000196253               0.000864987               0.999999986              -0.000198823               0.000898326               0.999999986              -0.000198913               0.000930796               0.999999986              -0.000196382               0.000962157               0.999999986              -0.000191639               0.000992417               0.999999986              -0.000184998               0.001021394               0.999999986              -0.000176572               0.001048746               0.999999986              -0.000167200               0.001074731               0.999999986              -0.000157471               0.001099317               0.999999986              -0.000210863               0.000863815               0.999999986              -0.000141244               0.000803266               0.999999986              -0.000121688               0.000783251               0.999999986              -0.000120608               0.000786782               0.999999986              -0.000126531               0.000804098               0.999999986              -0.000135011               0.000829469               0.999999986              -0.000143584               0.000859357               0.999999986              -0.000150868               0.000891619               0.999999986              -0.000156131               0.000924701               0.999999986              -0.000158974               0.000957874               0.999999986              -0.000159336               0.000990623               0.999999986              -0.000157098               0.001022638               0.999999986              -0.000152087               0.001053949               0.999999986              -0.000144751               0.001084208               0.999999986              -0.000135130               0.001113055               0.999999986              -0.000123458               0.001140673               0.999999986              -0.000110740               0.001167011               0.999999986              -0.000178861               0.000918257               0.999999986              -0.000112796               0.000874555               0.999999986              -0.000091461               0.000857705               0.999999986              -0.000087908               0.000859733               0.999999986              -0.000091754               0.000874158               0.999999986              -0.000098604               0.000896683               0.999999986              -0.000106022               0.000924330               0.999999986              -0.000112531               0.000955088               0.999999986              -0.000117628               0.000987564               0.999999986              -0.000120746               0.001020621               0.999999986              -0.000121330               0.001053760               0.999999986              -0.000119268               0.001086526               0.999999986              -0.000114412               0.001118763               0.999999986              -0.000106449               0.001150155               0.999999986              -0.000095493               0.001180440               0.999999986              -0.000081710               0.001209511               0.999999986              -0.000065768               0.001237367               0.999999986              -0.000145228               0.000963911               0.999999986              -0.000086915               0.000937715               0.999999986              -0.000065669               0.000926420               0.999999986              -0.000060383               0.000929035               0.999999986              -0.000062194               0.000942248               0.999999986              -0.000067069               0.000963022               0.999999986              -0.000072862               0.000989145               0.999999986              -0.000078284               0.001018840               0.999999986              -0.000082747               0.001050894               0.999999986              -0.000085724               0.001084248               0.999999986              -0.000086513               0.001118127               0.999999986              -0.000084784               0.001152004               0.999999986              -0.000080259               0.001185615               0.999999986              -0.000072306               0.001218481               0.999999986              -0.000060623               0.001250239               0.999999986              -0.000045240               0.001280818               0.999999986              -0.000026113               0.001310287               0.999999986              -0.000110186               0.001000124               0.999999986              -0.000063274               0.000990015               0.999999986              -0.000044451               0.000985464               0.999999986              -0.000038536               0.000990303               0.999999986              -0.000038754               0.001003672               0.999999986              -0.000041800               0.001023846               0.999999986              -0.000045793               0.001049210               0.999999986              -0.000049841               0.001078427               0.999999986              -0.000053306               0.001110476               0.999999986              -0.000055741               0.001144424               0.999999986              -0.000056618               0.001179464               0.999999986              -0.000055291               0.001215005               0.999999986              -0.000051316               0.001250692               0.999999986              -0.000044125               0.001285808               0.999999986              -0.000033041               0.001319813               0.999999986              -0.000017408               0.001352620               0.999999986               0.000003487               0.001384117               0.999999986              -0.000074043               0.001026365               0.999999986              -0.000041321               0.001029127               0.999999986              -0.000027225               0.001031022               0.999999986              -0.000022096               0.001038760               0.999999986              -0.000021442               0.001053204               0.999999986              -0.000022979               0.001073619               0.999999986              -0.000025482               0.001098964               0.999999986              -0.000028073               0.001128198               0.999999986              -0.000030327               0.001160483               0.999999986              -0.000031995               0.001195163               0.999999986              -0.000032670               0.001231492               0.999999986              -0.000031790               0.001268913               0.999999986              -0.000028844               0.001306909               0.999999986              -0.000023347               0.001344647               0.999999986              -0.000014396               0.001381580               0.999999986              -0.000001263               0.001417308               0.999999986               0.000017286               0.001451440               0.999999986              -0.000037196               0.001042228               0.999999986              -0.000020412               0.001053289               0.999999986              -0.000012852               0.001059896               0.999999986              -0.000009884               0.001070070               0.999999986              -0.000009259               0.001085646               0.999999986              -0.000009814               0.001106543               0.999999986              -0.000011009               0.001132139               0.999999986              -0.000012255               0.001161698               0.999999986              -0.000013363               0.001194450               0.999999986              -0.000014112               0.001229756               0.999999986              -0.000014446               0.001267058               0.999999986              -0.000014023               0.001305858               0.999999986              -0.000012539               0.001345671               0.999999986              -0.000009470               0.001385590               0.999999986              -0.000004531               0.001424916               0.999999986               0.000003066               0.001463142               0.999999986               0.000014142               0.001499670               0.999999986              -0.000000000               0.001047570               0.999999986               0.000000000               0.001061456               0.999999986              -0.000000000               0.001069716               0.999999986              -0.000000000               0.001080884               0.999999986               0.000000000               0.001096978               0.999999986              -0.000000000               0.001118127               0.999999986              -0.000000000               0.001143906               0.999999986              -0.000000000               0.001173560               0.999999986               0.000000000               0.001206519               0.999999986              -0.000000000               0.001242083               0.999999986              -0.000000000               0.001279718               0.999999986               0.000000000               0.001319026               0.999999986               0.000000000               0.001359551               0.999999986              -0.000000000               0.001400384               0.999999986              -0.000000000               0.001440674               0.999999986               0.000000000               0.001479899               0.999999986              -0.000000000               0.001517406               0.999999986              -0.000399151               0.000000000               0.999999985              -0.000439346              -0.000000000               0.999999985              -0.000457808              -0.000000000               0.999999986              -0.000468739               0.000000000               0.999999986              -0.000477636              -0.000000000               0.999999986              -0.000486646               0.000000000               0.999999986              -0.000496460               0.000000000               0.999999986              -0.000507293               0.000000000               0.999999986              -0.000519051               0.000000000               0.999999986              -0.000531692              -0.000000000               0.999999986              -0.000545268              -0.000000000               0.999999986              -0.000559633              -0.000000000               0.999999986              -0.000574578              -0.000000000               0.999999986              -0.000589880              -0.000000000               0.999999986              -0.000605235              -0.000000000               0.999999986              -0.000620324               0.000000000               0.999999986              -0.000634674               0.000000000               0.999999986              -0.000396847              -0.000102294               0.999999985              -0.000434446              -0.000085629               0.999999985              -0.000451291              -0.000079247               0.999999986              -0.000461277              -0.000078252               0.999999986              -0.000469596              -0.000080093               0.999999986              -0.000478163              -0.000083559               0.999999986              -0.000487669              -0.000087705               0.999999986              -0.000498280              -0.000092105               0.999999986              -0.000509839              -0.000096737               0.999999986              -0.000522314              -0.000101427               0.999999986              -0.000535606              -0.000105891               0.999999986              -0.000549547              -0.000109866               0.999999986              -0.000563941              -0.000113156               0.999999986              -0.000578495              -0.000115537               0.999999986              -0.000592899              -0.000116567               0.999999986              -0.000606901              -0.000115850               0.999999986              -0.000620214              -0.000112590               0.999999986              -0.000389938              -0.000203497               0.999999985              -0.000419969              -0.000170585               0.999999986              -0.000432346              -0.000158625               0.999999986              -0.000439820              -0.000157254               0.999999986              -0.000446694              -0.000161469               0.999999986              -0.000454365              -0.000168649               0.999999986              -0.000463218              -0.000177196               0.999999986              -0.000473238              -0.000186284               0.999999986              -0.000484237              -0.000195612               0.999999986              -0.000496000              -0.000205022               0.999999986              -0.000508252              -0.000213971               0.999999986              -0.000520769              -0.000221849               0.999999986              -0.000533254              -0.000228528               0.999999986              -0.000545542              -0.000233554               0.999999986              -0.000557457              -0.000236340               0.999999986              -0.000568854              -0.000236119               0.999999986              -0.000579629              -0.000231895               0.999999986              -0.000378626              -0.000302542               0.999999986              -0.000396812              -0.000254316               0.999999986              -0.000402859              -0.000238166               0.999999986              -0.000407043              -0.000237512               0.999999986              -0.000412244              -0.000244864               0.999999986              -0.000418985              -0.000256195               0.999999986              -0.000427136              -0.000269417               0.999999986              -0.000436486              -0.000283407               0.999999986              -0.000446653              -0.000297638               0.999999986              -0.000457224              -0.000311618               0.999999986              -0.000467790              -0.000324791               0.999999986              -0.000478074              -0.000336659               0.999999986              -0.000487907              -0.000346918               0.999999986              -0.000497150              -0.000355101               0.999999986              -0.000505811              -0.000360740               0.999999986              -0.000513895              -0.000363168               0.999999986              -0.000521567              -0.000361941               0.999999986              -0.000363237              -0.000398481               0.999999986              -0.000366292              -0.000336472               0.999999986              -0.000365330              -0.000317881               0.999999986              -0.000366478              -0.000319148               0.999999986              -0.000370492              -0.000330261               0.999999986              -0.000376709              -0.000346102               0.999999986              -0.000384547              -0.000364169               0.999999986              -0.000393378              -0.000383038               0.999999986              -0.000402674              -0.000402051               0.999999986              -0.000411888              -0.000420428               0.999999986              -0.000420651              -0.000437655               0.999999986              -0.000428713              -0.000453280               0.999999986              -0.000435926              -0.000467118               0.999999986              -0.000442348              -0.000479000               0.999999986              -0.000448044              -0.000488459               0.999999986              -0.000453140              -0.000495338               0.999999986              -0.000457975              -0.000499820               0.999999986              -0.000344003              -0.000490464               0.999999986              -0.000330007              -0.000416933               0.999999986              -0.000322719              -0.000397570               0.999999986              -0.000321973              -0.000401623               0.999999986              -0.000325770              -0.000416876               0.999999986              -0.000332256              -0.000437326               0.999999986              -0.000340224              -0.000460167               0.999999986              -0.000348783              -0.000483710               0.999999986              -0.000357201              -0.000507172               0.999999986              -0.000365003              -0.000529739               0.999999986              -0.000371874              -0.000550819               0.999999986              -0.000377674              -0.000570289               0.999999986              -0.000382555              -0.000587974               0.999999986              -0.000386483              -0.000603704               0.999999986              -0.000389423              -0.000617391               0.999999986              -0.000391679              -0.000629194               0.999999986              -0.000393567              -0.000639865               0.999999986              -0.000321389              -0.000577503               0.999999986              -0.000289944              -0.000495554               0.999999986              -0.000278035              -0.000476801               0.999999986              -0.000277014              -0.000484122               0.999999986              -0.000281785              -0.000503402               0.999999986              -0.000289217              -0.000528358               0.999999986              -0.000297685              -0.000555727               0.999999986              -0.000306088              -0.000583568               0.999999986              -0.000313571              -0.000611077               0.999999986              -0.000319787              -0.000637532               0.999999986              -0.000324654              -0.000662395               0.999999986              -0.000328285              -0.000685696               0.999999986              -0.000330553              -0.000707301               0.999999986              -0.000331565              -0.000726920               0.999999986              -0.000331580              -0.000744866               0.999999986              -0.000330891              -0.000761767               0.999999986              -0.000329572              -0.000777982               0.999999986              -0.000295900              -0.000658609               0.999999986              -0.000248182              -0.000572060               0.999999986              -0.000234000              -0.000554936               0.999999986              -0.000234473              -0.000565443               0.999999986              -0.000241024              -0.000588575               0.999999986              -0.000249853              -0.000617685               0.999999986              -0.000258864              -0.000649156               0.999999986              -0.000266855              -0.000680977               0.999999986              -0.000273218              -0.000712186               0.999999986              -0.000277739              -0.000742167               0.999999986              -0.000280410              -0.000770658               0.999999986              -0.000281251              -0.000797630               0.999999986              -0.000280429              -0.000822843               0.999999986              -0.000278265              -0.000846374               0.999999986              -0.000274874              -0.000868866               0.999999986              -0.000270434              -0.000890505               0.999999986              -0.000265096              -0.000911194               0.999999986              -0.000268544              -0.000732371               0.999999986              -0.000206355              -0.000646247               0.999999986              -0.000192993              -0.000630951               0.999999986              -0.000195944              -0.000644385               0.999999986              -0.000204738              -0.000671121               0.999999986              -0.000214941              -0.000704079               0.999999986              -0.000224226              -0.000739386               0.999999986              -0.000231512              -0.000774848               0.999999986              -0.000236364              -0.000809501               0.999999986              -0.000238631              -0.000842919               0.999999986              -0.000238331              -0.000874846               0.999999986              -0.000235799              -0.000905158               0.999999986              -0.000231251              -0.000934061               0.999999986              -0.000225103              -0.000961492               0.999999986              -0.000217810              -0.000987286               0.999999986              -0.000209833              -0.001011837               0.999999986              -0.000201253              -0.001035284               0.999999986              -0.000240979              -0.000801438               0.999999986              -0.000172395              -0.000726469               0.999999986              -0.000155879              -0.000706530               0.999999986              -0.000157184              -0.000714054               0.999999986              -0.000164852              -0.000735621               0.999999986              -0.000174460              -0.000764597               0.999999986              -0.000183629              -0.000797185               0.999999986              -0.000191112              -0.000831082               0.999999986              -0.000196253              -0.000864987               0.999999986              -0.000198823              -0.000898326               0.999999986              -0.000198913              -0.000930796               0.999999986              -0.000196382              -0.000962157               0.999999986              -0.000191639              -0.000992417               0.999999986              -0.000184998              -0.001021394               0.999999986              -0.000176572              -0.001048746               0.999999986              -0.000167200              -0.001074731               0.999999986              -0.000157471              -0.001099317               0.999999986              -0.000210863              -0.000863815               0.999999986              -0.000141244              -0.000803266               0.999999986              -0.000121688              -0.000783251               0.999999986              -0.000120608              -0.000786782               0.999999986              -0.000126531              -0.000804098               0.999999986              -0.000135011              -0.000829469               0.999999986              -0.000143584              -0.000859357               0.999999986              -0.000150868              -0.000891619               0.999999986              -0.000156131              -0.000924701               0.999999986              -0.000158974              -0.000957874               0.999999986              -0.000159336              -0.000990623               0.999999986              -0.000157098              -0.001022638               0.999999986              -0.000152087              -0.001053949               0.999999986              -0.000144751              -0.001084208               0.999999986              -0.000135130              -0.001113055               0.999999986              -0.000123458              -0.001140673               0.999999986              -0.000110740              -0.001167011               0.999999986              -0.000178861              -0.000918257               0.999999986              -0.000112796              -0.000874555               0.999999986              -0.000091461              -0.000857705               0.999999986              -0.000087908              -0.000859733               0.999999986              -0.000091754              -0.000874158               0.999999986              -0.000098604              -0.000896683               0.999999986              -0.000106022              -0.000924330               0.999999986              -0.000112531              -0.000955088               0.999999986              -0.000117628              -0.000987564               0.999999986              -0.000120746              -0.001020621               0.999999986              -0.000121330              -0.001053760               0.999999986              -0.000119268              -0.001086526               0.999999986              -0.000114412              -0.001118763               0.999999986              -0.000106449              -0.001150155               0.999999986              -0.000095493              -0.001180440               0.999999986              -0.000081710              -0.001209511               0.999999986              -0.000065768              -0.001237367               0.999999986              -0.000145228              -0.000963911               0.999999986              -0.000086915              -0.000937715               0.999999986              -0.000065669              -0.000926420               0.999999986              -0.000060383              -0.000929035               0.999999986              -0.000062194              -0.000942248               0.999999986              -0.000067069              -0.000963022               0.999999986              -0.000072862              -0.000989145               0.999999986              -0.000078284              -0.001018840               0.999999986              -0.000082747              -0.001050894               0.999999986              -0.000085724              -0.001084248               0.999999986              -0.000086513              -0.001118127               0.999999986              -0.000084784              -0.001152004               0.999999986              -0.000080259              -0.001185615               0.999999986              -0.000072306              -0.001218481               0.999999986              -0.000060623              -0.001250239               0.999999986              -0.000045240              -0.001280818               0.999999986              -0.000026113              -0.001310287               0.999999986              -0.000110186              -0.001000124               0.999999986              -0.000063274              -0.000990015               0.999999986              -0.000044451              -0.000985464               0.999999986              -0.000038536              -0.000990303               0.999999986              -0.000038754              -0.001003672               0.999999986              -0.000041800              -0.001023846               0.999999986              -0.000045793              -0.001049210               0.999999986              -0.000049841              -0.001078427               0.999999986              -0.000053306              -0.001110476               0.999999986              -0.000055741              -0.001144424               0.999999986              -0.000056618              -0.001179464               0.999999986              -0.000055291              -0.001215005               0.999999986              -0.000051316              -0.001250692               0.999999986              -0.000044125              -0.001285808               0.999999986              -0.000033041              -0.001319813               0.999999986              -0.000017408              -0.001352620               0.999999986               0.000003487              -0.001384117               0.999999986              -0.000074043              -0.001026365               0.999999986              -0.000041321              -0.001029127               0.999999986              -0.000027225              -0.001031022               0.999999986              -0.000022096              -0.001038760               0.999999986              -0.000021442              -0.001053204               0.999999986              -0.000022979              -0.001073619               0.999999986              -0.000025482              -0.001098964               0.999999986              -0.000028073              -0.001128198               0.999999986              -0.000030327              -0.001160483               0.999999986              -0.000031995              -0.001195163               0.999999986              -0.000032670              -0.001231492               0.999999986              -0.000031790              -0.001268913               0.999999986              -0.000028844              -0.001306909               0.999999986              -0.000023347              -0.001344647               0.999999986              -0.000014396              -0.001381580               0.999999986              -0.000001263              -0.001417308               0.999999986               0.000017286              -0.001451440               0.999999986              -0.000037196              -0.001042228               0.999999986              -0.000020412              -0.001053289               0.999999986              -0.000012852              -0.001059896               0.999999986              -0.000009884              -0.001070070               0.999999986              -0.000009259              -0.001085646               0.999999986              -0.000009814              -0.001106543               0.999999986              -0.000011009              -0.001132139               0.999999986              -0.000012255              -0.001161698               0.999999986              -0.000013363              -0.001194450               0.999999986              -0.000014112              -0.001229756               0.999999986              -0.000014446              -0.001267058               0.999999986              -0.000014023              -0.001305858               0.999999986              -0.000012539              -0.001345671               0.999999986              -0.000009470              -0.001385590               0.999999986              -0.000004531              -0.001424916               0.999999986               0.000003066              -0.001463142               0.999999986               0.000014142              -0.001499670               0.999999986               0.000000000              -0.001047570               0.999999986               0.000000000              -0.001061456               0.999999986              -0.000000000              -0.001069716               0.999999986              -0.000000000              -0.001080884               0.999999986               0.000000000              -0.001096978               0.999999986               0.000000000              -0.001118127               0.999999986               0.000000000              -0.001143906               0.999999986              -0.000000000              -0.001173560               0.999999986              -0.000000000              -0.001206519               0.999999986               0.000000000              -0.001242083               0.999999986              -0.000000000              -0.001279718               0.999999986              -0.000000000              -0.001319026               0.999999986              -0.000000000              -0.001359551               0.999999986               0.000000000              -0.001400384               0.999999986               0.000000000              -0.001440674               0.999999986              -0.000000000              -0.001479899               0.999999986              -0.000000000              -0.001517406               0.999999986               0.000399151              -0.000000000               0.999999985               0.000439346              -0.000000000               0.999999985               0.000457808              -0.000000000               0.999999986               0.000468739              -0.000000000               0.999999986               0.000477636               0.000000000               0.999999986               0.000486646              -0.000000000               0.999999986               0.000496460              -0.000000000               0.999999986               0.000507293              -0.000000000               0.999999986               0.000519051              -0.000000000               0.999999986               0.000531692               0.000000000               0.999999986               0.000545268               0.000000000               0.999999986               0.000559633               0.000000000               0.999999986               0.000574578               0.000000000               0.999999986               0.000589880               0.000000000               0.999999986               0.000605235               0.000000000               0.999999986               0.000620324               0.000000000               0.999999986               0.000634674               0.000000000               0.999999986               0.000396847              -0.000102294               0.999999985               0.000434446              -0.000085629               0.999999985               0.000451291              -0.000079247               0.999999986               0.000461277              -0.000078252               0.999999986               0.000469596              -0.000080093               0.999999986               0.000478163              -0.000083559               0.999999986               0.000487669              -0.000087705               0.999999986               0.000498280              -0.000092105               0.999999986               0.000509839              -0.000096737               0.999999986               0.000522314              -0.000101427               0.999999986               0.000535606              -0.000105891               0.999999986               0.000549547              -0.000109866               0.999999986               0.000563941              -0.000113156               0.999999986               0.000578495              -0.000115537               0.999999986               0.000592899              -0.000116567               0.999999986               0.000606901              -0.000115850               0.999999986               0.000620214              -0.000112590               0.999999986               0.000389938              -0.000203497               0.999999985               0.000419969              -0.000170585               0.999999986               0.000432346              -0.000158625               0.999999986               0.000439820              -0.000157254               0.999999986               0.000446694              -0.000161469               0.999999986               0.000454365              -0.000168649               0.999999986               0.000463218              -0.000177196               0.999999986               0.000473238              -0.000186284               0.999999986               0.000484237              -0.000195612               0.999999986               0.000496000              -0.000205022               0.999999986               0.000508252              -0.000213971               0.999999986               0.000520769              -0.000221849               0.999999986               0.000533254              -0.000228528               0.999999986               0.000545542              -0.000233554               0.999999986               0.000557457              -0.000236340               0.999999986               0.000568854              -0.000236119               0.999999986               0.000579629              -0.000231895               0.999999986               0.000378626              -0.000302542               0.999999986               0.000396812              -0.000254316               0.999999986               0.000402859              -0.000238166               0.999999986               0.000407043              -0.000237512               0.999999986               0.000412244              -0.000244864               0.999999986               0.000418985              -0.000256195               0.999999986               0.000427136              -0.000269417               0.999999986               0.000436486              -0.000283407               0.999999986               0.000446653              -0.000297638               0.999999986               0.000457224              -0.000311618               0.999999986               0.000467790              -0.000324791               0.999999986               0.000478074              -0.000336659               0.999999986               0.000487907              -0.000346918               0.999999986               0.000497150              -0.000355101               0.999999986               0.000505811              -0.000360740               0.999999986               0.000513895              -0.000363168               0.999999986               0.000521567              -0.000361941               0.999999986               0.000363237              -0.000398481               0.999999986               0.000366292              -0.000336472               0.999999986               0.000365330              -0.000317881               0.999999986               0.000366478              -0.000319148               0.999999986               0.000370492              -0.000330261               0.999999986               0.000376709              -0.000346102               0.999999986               0.000384547              -0.000364169               0.999999986               0.000393378              -0.000383038               0.999999986               0.000402674              -0.000402051               0.999999986               0.000411888              -0.000420428               0.999999986               0.000420651              -0.000437655               0.999999986               0.000428713              -0.000453280               0.999999986               0.000435926              -0.000467118               0.999999986               0.000442348              -0.000479000               0.999999986               0.000448044              -0.000488459               0.999999986               0.000453140              -0.000495338               0.999999986               0.000457975              -0.000499820               0.999999986               0.000344003              -0.000490464               0.999999986               0.000330007              -0.000416933               0.999999986               0.000322719              -0.000397570               0.999999986               0.000321973              -0.000401623               0.999999986               0.000325770              -0.000416876               0.999999986               0.000332256              -0.000437326               0.999999986               0.000340224              -0.000460167               0.999999986               0.000348783              -0.000483710               0.999999986               0.000357201              -0.000507172               0.999999986               0.000365003              -0.000529739               0.999999986               0.000371874              -0.000550819               0.999999986               0.000377674              -0.000570289               0.999999986               0.000382555              -0.000587974               0.999999986               0.000386483              -0.000603704               0.999999986               0.000389423              -0.000617391               0.999999986               0.000391679              -0.000629194               0.999999986               0.000393567              -0.000639865               0.999999986               0.000321389              -0.000577503               0.999999986               0.000289944              -0.000495554               0.999999986               0.000278035              -0.000476801               0.999999986               0.000277014              -0.000484122               0.999999986               0.000281785              -0.000503402               0.999999986               0.000289217              -0.000528358               0.999999986               0.000297685              -0.000555727               0.999999986               0.000306088              -0.000583568               0.999999986               0.000313571              -0.000611077               0.999999986               0.000319787              -0.000637532               0.999999986               0.000324654              -0.000662395               0.999999986               0.000328285              -0.000685696               0.999999986               0.000330553              -0.000707301               0.999999986               0.000331565              -0.000726920               0.999999986               0.000331580              -0.000744866               0.999999986               0.000330891              -0.000761767               0.999999986               0.000329572              -0.000777982               0.999999986               0.000295900              -0.000658609               0.999999986               0.000248182              -0.000572060               0.999999986               0.000234000              -0.000554936               0.999999986               0.000234473              -0.000565443               0.999999986               0.000241024              -0.000588575               0.999999986               0.000249853              -0.000617685               0.999999986               0.000258864              -0.000649156               0.999999986               0.000266855              -0.000680977               0.999999986               0.000273218              -0.000712186               0.999999986               0.000277739              -0.000742167               0.999999986               0.000280410              -0.000770658               0.999999986               0.000281251              -0.000797630               0.999999986               0.000280429              -0.000822843               0.999999986               0.000278265              -0.000846374               0.999999986               0.000274874              -0.000868866               0.999999986               0.000270434              -0.000890505               0.999999986               0.000265096              -0.000911194               0.999999986               0.000268544              -0.000732371               0.999999986               0.000206355              -0.000646247               0.999999986               0.000192993              -0.000630951               0.999999986               0.000195944              -0.000644385               0.999999986               0.000204738              -0.000671121               0.999999986               0.000214941              -0.000704079               0.999999986               0.000224226              -0.000739386               0.999999986               0.000231512              -0.000774848               0.999999986               0.000236364              -0.000809501               0.999999986               0.000238631              -0.000842919               0.999999986               0.000238331              -0.000874846               0.999999986               0.000235799              -0.000905158               0.999999986               0.000231251              -0.000934061               0.999999986               0.000225103              -0.000961492               0.999999986               0.000217810              -0.000987286               0.999999986               0.000209833              -0.001011837               0.999999986               0.000201253              -0.001035284               0.999999986               0.000240979              -0.000801438               0.999999986               0.000172395              -0.000726469               0.999999986               0.000155879              -0.000706530               0.999999986               0.000157184              -0.000714054               0.999999986               0.000164852              -0.000735621               0.999999986               0.000174460              -0.000764597               0.999999986               0.000183629              -0.000797185               0.999999986               0.000191112              -0.000831082               0.999999986               0.000196253              -0.000864987               0.999999986               0.000198823              -0.000898326               0.999999986               0.000198913              -0.000930796               0.999999986               0.000196382              -0.000962157               0.999999986               0.000191639              -0.000992417               0.999999986               0.000184998              -0.001021394               0.999999986               0.000176572              -0.001048746               0.999999986               0.000167200              -0.001074731               0.999999986               0.000157471              -0.001099317               0.999999986               0.000210863              -0.000863815               0.999999986               0.000141244              -0.000803266               0.999999986               0.000121688              -0.000783251               0.999999986               0.000120608              -0.000786782               0.999999986               0.000126531              -0.000804098               0.999999986               0.000135011              -0.000829469               0.999999986               0.000143584              -0.000859357               0.999999986               0.000150868              -0.000891619               0.999999986               0.000156131              -0.000924701               0.999999986               0.000158974              -0.000957874               0.999999986               0.000159336              -0.000990623               0.999999986               0.000157098              -0.001022638               0.999999986               0.000152087              -0.001053949               0.999999986               0.000144751              -0.001084208               0.999999986               0.000135130              -0.001113055               0.999999986               0.000123458              -0.001140673               0.999999986               0.000110740              -0.001167011               0.999999986               0.000178861              -0.000918257               0.999999986               0.000112796              -0.000874555               0.999999986               0.000091461              -0.000857705               0.999999986               0.000087908              -0.000859733               0.999999986               0.000091754              -0.000874158               0.999999986               0.000098604              -0.000896683               0.999999986               0.000106022              -0.000924330               0.999999986               0.000112531              -0.000955088               0.999999986               0.000117628              -0.000987564               0.999999986               0.000120746              -0.001020621               0.999999986               0.000121330              -0.001053760               0.999999986               0.000119268              -0.001086526               0.999999986               0.000114412              -0.001118763               0.999999986               0.000106449              -0.001150155               0.999999986               0.000095493              -0.001180440               0.999999986               0.000081710              -0.001209511               0.999999986               0.000065768              -0.001237367               0.999999986               0.000145228              -0.000963911               0.999999986               0.000086915              -0.000937715               0.999999986               0.000065669              -0.000926420               0.999999986               0.000060383              -0.000929035               0.999999986               0.000062194              -0.000942248               0.999999986               0.000067069              -0.000963022               0.999999986               0.000072862              -0.000989145               0.999999986               0.000078284              -0.001018840               0.999999986               0.000082747              -0.001050894               0.999999986               0.000085724              -0.001084248               0.999999986               0.000086513              -0.001118127               0.999999986               0.000084784              -0.001152004               0.999999986               0.000080259              -0.001185615               0.999999986               0.000072306              -0.001218481               0.999999986               0.000060623              -0.001250239               0.999999986               0.000045240              -0.001280818               0.999999986               0.000026113              -0.001310287               0.999999986               0.000110186              -0.001000124               0.999999986               0.000063274              -0.000990015               0.999999986               0.000044451              -0.000985464               0.999999986               0.000038536              -0.000990303               0.999999986               0.000038754              -0.001003672               0.999999986               0.000041800              -0.001023846               0.999999986               0.000045793              -0.001049210               0.999999986               0.000049841              -0.001078427               0.999999986               0.000053306              -0.001110476               0.999999986               0.000055741              -0.001144424               0.999999986               0.000056618              -0.001179464               0.999999986               0.000055291              -0.001215005               0.999999986               0.000051316              -0.001250692               0.999999986               0.000044125              -0.001285808               0.999999986               0.000033041              -0.001319813               0.999999986               0.000017408              -0.001352620               0.999999986              -0.000003487              -0.001384117               0.999999986               0.000074043              -0.001026365               0.999999986               0.000041321              -0.001029127               0.999999986               0.000027225              -0.001031022               0.999999986               0.000022096              -0.001038760               0.999999986               0.000021442              -0.001053204               0.999999986               0.000022979              -0.001073619               0.999999986               0.000025482              -0.001098964               0.999999986               0.000028073              -0.001128198               0.999999986               0.000030327              -0.001160483               0.999999986               0.000031995              -0.001195163               0.999999986               0.000032670              -0.001231492               0.999999986               0.000031790              -0.001268913               0.999999986               0.000028844              -0.001306909               0.999999986               0.000023347              -0.001344647               0.999999986               0.000014396              -0.001381580               0.999999986               0.000001263              -0.001417308               0.999999986              -0.000017286              -0.001451440               0.999999986               0.000037196              -0.001042228               0.999999986               0.000020412              -0.001053289               0.999999986               0.000012852              -0.001059896               0.999999986               0.000009884              -0.001070070               0.999999986               0.000009259              -0.001085646               0.999999986               0.000009814              -0.001106543               0.999999986               0.000011009              -0.001132139               0.999999986               0.000012255              -0.001161698               0.999999986               0.000013363              -0.001194450               0.999999986               0.000014112              -0.001229756               0.999999986               0.000014446              -0.001267058               0.999999986               0.000014023              -0.001305858               0.999999986               0.000012539              -0.001345671               0.999999986               0.000009470              -0.001385590               0.999999986               0.000004531              -0.001424916               0.999999986              -0.000003066              -0.001463142               0.999999986              -0.000014142              -0.001499670               0.999999986               0.000000000              -0.001047570               0.999999986               0.000000000              -0.001061456               0.999999986              -0.000000000              -0.001069716               0.999999986              -0.000000000              -0.001080884               0.999999986               0.000000000              -0.001096978               0.999999986               0.000000000              -0.001118127               0.999999986               0.000000000              -0.001143906               0.999999986              -0.000000000              -0.001173560               0.999999986              -0.000000000              -0.001206519               0.999999986               0.000000000              -0.001242083               0.999999986              -0.000000000              -0.001279718               0.999999986              -0.000000000              -0.001319026               0.999999986              -0.000000000              -0.001359551               0.999999986               0.000000000              -0.001400384               0.999999986               0.000000000              -0.001440674               0.999999986              -0.000000000              -0.001479899               0.999999986              -0.000000000              -0.001517406               0.999999986               0.000399151              -0.000000000               0.999999985               0.000439346              -0.000000000               0.999999985               0.000457808              -0.000000000               0.999999986               0.000468739              -0.000000000               0.999999986               0.000477636               0.000000000               0.999999986               0.000486646              -0.000000000               0.999999986               0.000496460              -0.000000000               0.999999986               0.000507293              -0.000000000               0.999999986               0.000519051              -0.000000000               0.999999986               0.000531692               0.000000000               0.999999986               0.000545268               0.000000000               0.999999986               0.000559633               0.000000000               0.999999986               0.000574578               0.000000000               0.999999986               0.000589880               0.000000000               0.999999986               0.000605235               0.000000000               0.999999986               0.000620324               0.000000000               0.999999986               0.000634674               0.000000000               0.999999986               0.000396847               0.000102294               0.999999985               0.000434446               0.000085629               0.999999985               0.000451291               0.000079247               0.999999986               0.000461277               0.000078252               0.999999986               0.000469596               0.000080093               0.999999986               0.000478163               0.000083559               0.999999986               0.000487669               0.000087705               0.999999986               0.000498280               0.000092105               0.999999986               0.000509839               0.000096737               0.999999986               0.000522314               0.000101427               0.999999986               0.000535606               0.000105891               0.999999986               0.000549547               0.000109866               0.999999986               0.000563941               0.000113156               0.999999986               0.000578495               0.000115537               0.999999986               0.000592899               0.000116567               0.999999986               0.000606901               0.000115850               0.999999986               0.000620214               0.000112590               0.999999986               0.000389938               0.000203497               0.999999985               0.000419969               0.000170585               0.999999986               0.000432346               0.000158625               0.999999986               0.000439820               0.000157254               0.999999986               0.000446694               0.000161469               0.999999986               0.000454365               0.000168649               0.999999986               0.000463218               0.000177196               0.999999986               0.000473238               0.000186284               0.999999986               0.000484237               0.000195612               0.999999986               0.000496000               0.000205022               0.999999986               0.000508252               0.000213971               0.999999986               0.000520769               0.000221849               0.999999986               0.000533254               0.000228528               0.999999986               0.000545542               0.000233554               0.999999986               0.000557457               0.000236340               0.999999986               0.000568854               0.000236119               0.999999986               0.000579629               0.000231895               0.999999986               0.000378626               0.000302542               0.999999986               0.000396812               0.000254316               0.999999986               0.000402859               0.000238166               0.999999986               0.000407043               0.000237512               0.999999986               0.000412244               0.000244864               0.999999986               0.000418985               0.000256195               0.999999986               0.000427136               0.000269417               0.999999986               0.000436486               0.000283407               0.999999986               0.000446653               0.000297638               0.999999986               0.000457224               0.000311618               0.999999986               0.000467790               0.000324791               0.999999986               0.000478074               0.000336659               0.999999986               0.000487907               0.000346918               0.999999986               0.000497150               0.000355101               0.999999986               0.000505811               0.000360740               0.999999986               0.000513895               0.000363168               0.999999986               0.000521567               0.000361941               0.999999986               0.000363237               0.000398481               0.999999986               0.000366292               0.000336472               0.999999986               0.000365330               0.000317881               0.999999986               0.000366478               0.000319148               0.999999986               0.000370492               0.000330261               0.999999986               0.000376709               0.000346102               0.999999986               0.000384547               0.000364169               0.999999986               0.000393378               0.000383038               0.999999986               0.000402674               0.000402051               0.999999986               0.000411888               0.000420428               0.999999986               0.000420651               0.000437655               0.999999986               0.000428713               0.000453280               0.999999986               0.000435926               0.000467118               0.999999986               0.000442348               0.000479000               0.999999986               0.000448044               0.000488459               0.999999986               0.000453140               0.000495338               0.999999986               0.000457975               0.000499820               0.999999986               0.000344003               0.000490464               0.999999986               0.000330007               0.000416933               0.999999986               0.000322719               0.000397570               0.999999986               0.000321973               0.000401623               0.999999986               0.000325770               0.000416876               0.999999986               0.000332256               0.000437326               0.999999986               0.000340224               0.000460167               0.999999986               0.000348783               0.000483710               0.999999986               0.000357201               0.000507172               0.999999986               0.000365003               0.000529739               0.999999986               0.000371874               0.000550819               0.999999986               0.000377674               0.000570289               0.999999986               0.000382555               0.000587974               0.999999986               0.000386483               0.000603704               0.999999986               0.000389423               0.000617391               0.999999986               0.000391679               0.000629194               0.999999986               0.000393567               0.000639865               0.999999986               0.000321389               0.000577503               0.999999986               0.000289944               0.000495554               0.999999986               0.000278035               0.000476801               0.999999986               0.000277014               0.000484122               0.999999986               0.000281785               0.000503402               0.999999986               0.000289217               0.000528358               0.999999986               0.000297685               0.000555727               0.999999986               0.000306088               0.000583568               0.999999986               0.000313571               0.000611077               0.999999986               0.000319787               0.000637532               0.999999986               0.000324654               0.000662395               0.999999986               0.000328285               0.000685696               0.999999986               0.000330553               0.000707301               0.999999986               0.000331565               0.000726920               0.999999986               0.000331580               0.000744866               0.999999986               0.000330891               0.000761767               0.999999986               0.000329572               0.000777982               0.999999986               0.000295900               0.000658609               0.999999986               0.000248182               0.000572060               0.999999986               0.000234000               0.000554936               0.999999986               0.000234473               0.000565443               0.999999986               0.000241024               0.000588575               0.999999986               0.000249853               0.000617685               0.999999986               0.000258864               0.000649156               0.999999986               0.000266855               0.000680977               0.999999986               0.000273218               0.000712186               0.999999986               0.000277739               0.000742167               0.999999986               0.000280410               0.000770658               0.999999986               0.000281251               0.000797630               0.999999986               0.000280429               0.000822843               0.999999986               0.000278265               0.000846374               0.999999986               0.000274874               0.000868866               0.999999986               0.000270434               0.000890505               0.999999986               0.000265096               0.000911194               0.999999986               0.000268544               0.000732371               0.999999986               0.000206355               0.000646247               0.999999986               0.000192993               0.000630951               0.999999986               0.000195944               0.000644385               0.999999986               0.000204738               0.000671121               0.999999986               0.000214941               0.000704079               0.999999986               0.000224226               0.000739386               0.999999986               0.000231512               0.000774848               0.999999986               0.000236364               0.000809501               0.999999986               0.000238631               0.000842919               0.999999986               0.000238331               0.000874846               0.999999986               0.000235799               0.000905158               0.999999986               0.000231251               0.000934061               0.999999986               0.000225103               0.000961492               0.999999986               0.000217810               0.000987286               0.999999986               0.000209833               0.001011837               0.999999986               0.000201253               0.001035284               0.999999986               0.000240979               0.000801438               0.999999986               0.000172395               0.000726469               0.999999986               0.000155879               0.000706530               0.999999986               0.000157184               0.000714054               0.999999986               0.000164852               0.000735621               0.999999986               0.000174460               0.000764597               0.999999986               0.000183629               0.000797185               0.999999986               0.000191112               0.000831082               0.999999986               0.000196253               0.000864987               0.999999986               0.000198823               0.000898326               0.999999986               0.000198913               0.000930796               0.999999986               0.000196382               0.000962157               0.999999986               0.000191639               0.000992417               0.999999986               0.000184998               0.001021394               0.999999986               0.000176572               0.001048746               0.999999986               0.000167200               0.001074731               0.999999986               0.000157471               0.001099317               0.999999986               0.000210863               0.000863815               0.999999986               0.000141244               0.000803266               0.999999986               0.000121688               0.000783251               0.999999986               0.000120608               0.000786782               0.999999986               0.000126531               0.000804098               0.999999986               0.000135011               0.000829469               0.999999986               0.000143584               0.000859357               0.999999986               0.000150868               0.000891619               0.999999986               0.000156131               0.000924701               0.999999986               0.000158974               0.000957874               0.999999986               0.000159336               0.000990623               0.999999986               0.000157098               0.001022638               0.999999986               0.000152087               0.001053949               0.999999986               0.000144751               0.001084208               0.999999986               0.000135130               0.001113055               0.999999986               0.000123458               0.001140673               0.999999986               0.000110740               0.001167011               0.999999986               0.000178861               0.000918257               0.999999986               0.000112796               0.000874555               0.999999986               0.000091461               0.000857705               0.999999986               0.000087908               0.000859733               0.999999986               0.000091754               0.000874158               0.999999986               0.000098604               0.000896683               0.999999986               0.000106022               0.000924330               0.999999986               0.000112531               0.000955088               0.999999986               0.000117628               0.000987564               0.999999986               0.000120746               0.001020621               0.999999986               0.000121330               0.001053760               0.999999986               0.000119268               0.001086526               0.999999986               0.000114412               0.001118763               0.999999986               0.000106449               0.001150155               0.999999986               0.000095493               0.001180440               0.999999986               0.000081710               0.001209511               0.999999986               0.000065768               0.001237367               0.999999986               0.000145228               0.000963911               0.999999986               0.000086915               0.000937715               0.999999986               0.000065669               0.000926420               0.999999986               0.000060383               0.000929035               0.999999986               0.000062194               0.000942248               0.999999986               0.000067069               0.000963022               0.999999986               0.000072862               0.000989145               0.999999986               0.000078284               0.001018840               0.999999986               0.000082747               0.001050894               0.999999986               0.000085724               0.001084248               0.999999986               0.000086513               0.001118127               0.999999986               0.000084784               0.001152004               0.999999986               0.000080259               0.001185615               0.999999986               0.000072306               0.001218481               0.999999986               0.000060623               0.001250239               0.999999986               0.000045240               0.001280818               0.999999986               0.000026113               0.001310287               0.999999986               0.000110186               0.001000124               0.999999986               0.000063274               0.000990015               0.999999986               0.000044451               0.000985464               0.999999986               0.000038536               0.000990303               0.999999986               0.000038754               0.001003672               0.999999986               0.000041800               0.001023846               0.999999986               0.000045793               0.001049210               0.999999986               0.000049841               0.001078427               0.999999986               0.000053306               0.001110476               0.999999986               0.000055741               0.001144424               0.999999986               0.000056618               0.001179464               0.999999986               0.000055291               0.001215005               0.999999986               0.000051316               0.001250692               0.999999986               0.000044125               0.001285808               0.999999986               0.000033041               0.001319813               0.999999986               0.000017408               0.001352620               0.999999986              -0.000003487               0.001384117               0.999999986               0.000074043               0.001026365               0.999999986               0.000041321               0.001029127               0.999999986               0.000027225               0.001031022               0.999999986               0.000022096               0.001038760               0.999999986               0.000021442               0.001053204               0.999999986               0.000022979               0.001073619               0.999999986               0.000025482               0.001098964               0.999999986               0.000028073               0.001128198               0.999999986               0.000030327               0.001160483               0.999999986               0.000031995               0.001195163               0.999999986               0.000032670               0.001231492               0.999999986               0.000031790               0.001268913               0.999999986               0.000028844               0.001306909               0.999999986               0.000023347               0.001344647               0.999999986               0.000014396               0.001381580               0.999999986               0.000001263               0.001417308               0.999999986              -0.000017286               0.001451440               0.999999986               0.000037196               0.001042228               0.999999986               0.000020412               0.001053289               0.999999986               0.000012852               0.001059896               0.999999986               0.000009884               0.001070070               0.999999986               0.000009259               0.001085646               0.999999986               0.000009814               0.001106543               0.999999986               0.000011009               0.001132139               0.999999986               0.000012255               0.001161698               0.999999986               0.000013363               0.001194450               0.999999986               0.000014112               0.001229756               0.999999986               0.000014446               0.001267058               0.999999986               0.000014023               0.001305858               0.999999986               0.000012539               0.001345671               0.999999986               0.000009470               0.001385590               0.999999986               0.000004531               0.001424916               0.999999986              -0.000003066               0.001463142               0.999999986              -0.000014142               0.001499670               0.999999986              -0.000000000               0.001047570               0.999999986               0.000000000               0.001061456               0.999999986              -0.000000000               0.001069716               0.999999986              -0.000000000               0.001080884               0.999999986               0.000000000               0.001096978               0.999999986              -0.000000000               0.001118127               0.999999986              -0.000000000               0.001143906               0.999999986              -0.000000000               0.001173560               0.999999986               0.000000000               0.001206519               0.999999986              -0.000000000               0.001242083               0.999999986              -0.000000000               0.001279718               0.999999986               0.000000000               0.001319026               0.999999986               0.000000000               0.001359551               0.999999986              -0.000000000               0.001400384               0.999999986              -0.000000000               0.001440674               0.999999986               0.000000000               0.001479899               0.999999986              -0.000000000               0.001517406               0.999999986 </DataArray>
<DataArray type="Float64"                                    Name="stress"                                                      NumberOfComponents="10" format="ascii">
              0.001691724               0.018837744              -0.000000000              -0.001720317               0.006852624               0.005132307               0.000000000               0.000000000               0.000000000               0.000000000               0.001714528               0.014972619              -0.000000000              -0.001228627               0.005400365               0.004171739               0.000000000               0.000000000               0.000000000               0.000000000               0.002280990               0.011861782               0.000000000              -0.000627350               0.004163005               0.003535654               0.000000000               0.000000000               0.000000000               0.000000000               0.002224805               0.010141690               0.000000000              -0.000433408               0.003524999               0.003091591               0.000000000               0.000000000               0.000000000               0.000000000               0.001971724               0.009088515               0.000000000              -0.000396667               0.003161697               0.002765030               0.000000000               0.000000000               0.000000000               0.000000000               0.001680296               0.008387720               0.000000000              -0.000418353               0.002935330               0.002516977               0.000000000               0.000000000               0.000000000               0.000000000               0.001400577               0.007873136              -0.000000000              -0.000458925               0.002777327               0.002318403               0.000000000               0.000000000               0.000000000               0.000000000               0.001153288               0.007468958              -0.000000000              -0.000501135               0.002656673               0.002155537               0.000000000               0.000000000               0.000000000               0.000000000               0.000940724               0.007143504              -0.000000000              -0.000540165               0.002561199               0.002021034               0.000000000               0.000000000               0.000000000               0.000000000               0.000745497               0.006864811              -0.000000000              -0.000578539               0.002481094               0.001902555               0.000000000               0.000000000               0.000000000               0.000000000               0.000566117               0.006607927               0.000000000              -0.000613695               0.002407185               0.001793490               0.000000000               0.000000000               0.000000000               0.000000000               0.000409141               0.006357290               0.000000000              -0.000641232               0.002332820               0.001691588               0.000000000               0.000000000               0.000000000               0.000000000               0.000276507               0.006102525               0.000000000              -0.000659124               0.002253862               0.001594739               0.000000000               0.000000000               0.000000000               0.000000000               0.000171000               0.005833895               0.000000000              -0.000665110               0.002166316               0.001501205               0.000000000               0.000000000               0.000000000               0.000000000               0.000090183               0.005535542               0.000000000              -0.000658123               0.002064536               0.001406414               0.000000000               0.000000000               0.000000000               0.000000000               0.000035535               0.005192830               0.000000000              -0.000635776               0.001942851               0.001307075               0.000000000               0.000000000               0.000000000               0.000000000              -0.000012213               0.004927409               0.000000000              -0.000620504               0.001849288               0.001228784               0.000000000               0.000000000               0.000000000               0.000000000               0.001762855               0.018465768              -0.001314922              -0.001647147               0.006704243               0.005057097               0.000000000               0.000000000               0.000000000               0.000000000               0.001697575               0.014728503              -0.000703883              -0.001204469               0.005310942               0.004106472               0.000000000               0.000000000               0.000000000               0.000000000               0.002168281               0.011752477              -0.000090120              -0.000655953               0.004136104               0.003480151               0.000000000               0.000000000               0.000000000               0.000000000               0.002074046               0.010100973               0.000172253              -0.000484853               0.003528575               0.003043722               0.000000000               0.000000000               0.000000000               0.000000000               0.001815553               0.009085980               0.000281940              -0.000454914               0.003180268               0.002725354               0.000000000               0.000000000               0.000000000               0.000000000               0.001529109               0.008402127               0.000320425              -0.000476849               0.002959631               0.002482782               0.000000000               0.000000000               0.000000000               0.000000000               0.001257550               0.007897709               0.000323240              -0.000515631               0.002804420               0.002288789               0.000000000               0.000000000               0.000000000               0.000000000               0.001021038               0.007501516               0.000315444              -0.000554799               0.002685413               0.002130614               0.000000000               0.000000000               0.000000000               0.000000000               0.000818541               0.007177307               0.000305341              -0.000590209               0.002589148               0.001998939               0.000000000               0.000000000               0.000000000               0.000000000               0.000638449               0.006899387               0.000290349              -0.000623004               0.002507440               0.001884437               0.000000000               0.000000000               0.000000000               0.000000000               0.000478788               0.006644133               0.000270381              -0.000650970               0.002431679               0.001780709               0.000000000               0.000000000               0.000000000               0.000000000               0.000340322               0.006394260               0.000248830              -0.000671660               0.002355285               0.001683625               0.000000000               0.000000000               0.000000000               0.000000000               0.000226553               0.006144438               0.000226215              -0.000683096               0.002275824               0.001592728               0.000000000               0.000000000               0.000000000               0.000000000               0.000139729               0.005886335               0.000196037              -0.000683392               0.002189889               0.001506497               0.000000000               0.000000000               0.000000000               0.000000000               0.000075643               0.005607444               0.000153260              -0.000672563               0.002093317               0.001420754               0.000000000               0.000000000               0.000000000               0.000000000               0.000030528               0.005293717               0.000089507              -0.000650265               0.001981310               0.001331045               0.000000000               0.000000000               0.000000000               0.000000000              -0.000011643               0.005056483               0.000055414              -0.000636425               0.001897619               0.001261194               0.000000000               0.000000000               0.000000000               0.000000000               0.001944079               0.017400463              -0.002456912              -0.001446026               0.006282104               0.004836079               0.000000000               0.000000000               0.000000000               0.000000000               0.001635104               0.014033169              -0.001319793              -0.001140980               0.005058003               0.003917023               0.000000000               0.000000000               0.000000000               0.000000000               0.001843845               0.011439770              -0.000187972              -0.000738528               0.004059395               0.003320867               0.000000000               0.000000000               0.000000000               0.000000000               0.001653521               0.009980366               0.000283709              -0.000627474               0.003535913               0.002908439               0.000000000               0.000000000               0.000000000               0.000000000               0.001380636               0.009065410               0.000473987              -0.000615436               0.003226919               0.002611482               0.000000000               0.000000000               0.000000000               0.000000000               0.001113482               0.008428481               0.000536798              -0.000636003               0.003021467               0.002385464               0.000000000               0.000000000               0.000000000               0.000000000               0.000875146               0.007950501               0.000541558              -0.000665631               0.002872017               0.002206386               0.000000000               0.000000000               0.000000000               0.000000000               0.000674526               0.007572033               0.000526431              -0.000693555               0.002755171               0.002061616               0.000000000               0.000000000               0.000000000               0.000000000               0.000509667               0.007255697               0.000508281              -0.000715835               0.002657153               0.001941318               0.000000000               0.000000000               0.000000000               0.000000000               0.000374920               0.006977333               0.000485921              -0.000731570               0.002569611               0.001838041               0.000000000               0.000000000               0.000000000               0.000000000               0.000265273               0.006721253               0.000454130              -0.000740678               0.002487288               0.001746610               0.000000000               0.000000000               0.000000000               0.000000000               0.000178734               0.006478810               0.000419296              -0.000742824               0.002407190               0.001664366               0.000000000               0.000000000               0.000000000               0.000000000               0.000113071               0.006244670               0.000381459              -0.000738180               0.002327596               0.001589416               0.000000000               0.000000000               0.000000000               0.000000000               0.000063420               0.006012487               0.000329682              -0.000727777               0.002246734               0.001518958               0.000000000               0.000000000               0.000000000               0.000000000               0.000029334               0.005780633               0.000254510              -0.000711577               0.002164051               0.001452474               0.000000000               0.000000000               0.000000000               0.000000000               0.000007554               0.005546468               0.000145795              -0.000690474               0.002078962               0.001388488               0.000000000               0.000000000               0.000000000               0.000000000              -0.000015346               0.005388193               0.000087299              -0.000679277               0.002022472               0.001343195               0.000000000               0.000000000               0.000000000               0.000000000               0.002154287               0.015785786              -0.003298881              -0.001165365               0.005650330               0.004484966               0.000000000               0.000000000               0.000000000               0.000000000               0.001502462               0.012990672              -0.001788400              -0.001060409               0.004683650               0.003623241               0.000000000               0.000000000               0.000000000               0.000000000               0.001348176               0.010971551              -0.000302426              -0.000865876               0.003945772               0.003079897               0.000000000               0.000000000               0.000000000               0.000000000               0.001047264               0.009786822               0.000291688              -0.000830627               0.003539117               0.002708490               0.000000000               0.000000000               0.000000000               0.000000000               0.000771439               0.009002882               0.000521857              -0.000836068               0.003279620               0.002443552               0.000000000               0.000000000               0.000000000               0.000000000               0.000547964               0.008430086               0.000594635              -0.000848272               0.003092758               0.002244486               0.000000000               0.000000000               0.000000000               0.000000000               0.000369314               0.007985048               0.000600293              -0.000859636               0.002948201               0.002088565               0.000000000               0.000000000               0.000000000               0.000000000               0.000230117               0.007623020               0.000582880              -0.000866582               0.002829842               0.001963260               0.000000000               0.000000000               0.000000000               0.000000000               0.000129906               0.007315485               0.000559534              -0.000865719               0.002727044               0.001861325               0.000000000               0.000000000               0.000000000               0.000000000               0.000062343               0.007037045               0.000531433              -0.000856250               0.002631075               0.001774825               0.000000000               0.000000000               0.000000000               0.000000000               0.000020786               0.006780940               0.000495636              -0.000839821               0.002540231               0.001700410               0.000000000               0.000000000               0.000000000               0.000000000              -0.000002313               0.006546154               0.000454744              -0.000819135               0.002455074               0.001635940               0.000000000               0.000000000               0.000000000               0.000000000              -0.000012564               0.006329825               0.000406705              -0.000795938               0.002375233               0.001579295               0.000000000               0.000000000               0.000000000               0.000000000              -0.000015344               0.006133061               0.000342306              -0.000772385               0.002301795               0.001529410               0.000000000               0.000000000               0.000000000               0.000000000              -0.000012752               0.005958398               0.000253983              -0.000749580               0.002235973               0.001486393               0.000000000               0.000000000               0.000000000               0.000000000              -0.000007741               0.005816475               0.000138337              -0.000729960               0.002182126               0.001452165               0.000000000               0.000000000               0.000000000               0.000000000              -0.000009628               0.005743973               0.000076358              -0.000721605               0.002155174               0.001433568               0.000000000               0.000000000               0.000000000               0.000000000               0.002289209               0.013820272              -0.003773237              -0.000869082               0.004896404               0.004027323               0.000000000               0.000000000               0.000000000               0.000000000               0.001277703               0.011741690              -0.002085128              -0.000988571               0.004243381               0.003254810               0.000000000               0.000000000               0.000000000               0.000000000               0.000740593               0.010403787              -0.000444082              -0.001022749               0.003808810               0.002786062               0.000000000               0.000000000               0.000000000               0.000000000               0.000359103               0.009518278               0.000180314              -0.001055118               0.003524434               0.002469315               0.000000000               0.000000000               0.000000000               0.000000000               0.000116061               0.008870713               0.000415178              -0.001065314               0.003311979               0.002246666               0.000000000               0.000000000               0.000000000               0.000000000              -0.000035420               0.008364346               0.000489422              -0.001058823               0.003141029               0.002082205               0.000000000               0.000000000               0.000000000               0.000000000              -0.000132019               0.007952307               0.000498337              -0.001043543               0.002998590               0.001955047               0.000000000               0.000000000               0.000000000               0.000000000              -0.000189103               0.007604203               0.000486100              -0.001021436               0.002875188               0.001853751               0.000000000               0.000000000               0.000000000               0.000000000              -0.000212845               0.007300688               0.000466335              -0.000992400               0.002764338               0.001771938               0.000000000               0.000000000               0.000000000               0.000000000              -0.000209690               0.007026135               0.000438538              -0.000956898               0.002660988               0.001704089               0.000000000               0.000000000               0.000000000               0.000000000              -0.000188294               0.006775487               0.000404018              -0.000917544               0.002564321               0.001646777               0.000000000               0.000000000               0.000000000               0.000000000              -0.000154781               0.006552474               0.000363347              -0.000877100               0.002476503               0.001599403               0.000000000               0.000000000               0.000000000               0.000000000              -0.000116165               0.006356692               0.000315222              -0.000838146               0.002398258               0.001560112               0.000000000               0.000000000               0.000000000               0.000000000              -0.000076812               0.006189673               0.000252520              -0.000802512               0.002330708               0.001528196               0.000000000               0.000000000               0.000000000               0.000000000              -0.000040927               0.006056461               0.000173671              -0.000772403               0.002276268               0.001503865               0.000000000               0.000000000               0.000000000               0.000000000              -0.000016818               0.005967905               0.000085971              -0.000752293               0.002240046               0.001487753               0.000000000               0.000000000               0.000000000               0.000000000              -0.000008569               0.005937370               0.000041427              -0.000745383               0.002227564               0.001482182               0.000000000               0.000000000               0.000000000               0.000000000               0.002253713               0.011693040              -0.003882102              -0.000616490               0.004103136               0.003486647               0.000000000               0.000000000               0.000000000               0.000000000               0.000951136               0.010412345              -0.002227730              -0.000944866               0.003785702               0.002840835               0.000000000               0.000000000               0.000000000               0.000000000               0.000092425               0.009779204              -0.000629557              -0.001187738               0.003655615               0.002467876               0.000000000               0.000000000               0.000000000               0.000000000              -0.000304639               0.009176385              -0.000043445              -0.001261285               0.003479193               0.002217908               0.000000000               0.000000000               0.000000000               0.000000000              -0.000473055               0.008651494               0.000180288              -0.001258829               0.003303412               0.002044583               0.000000000               0.000000000               0.000000000               0.000000000              -0.000527328               0.008208356               0.000259526              -0.001223790               0.003144021               0.001920232               0.000000000               0.000000000               0.000000000               0.000000000              -0.000528762               0.007827919               0.000280975              -0.001176773               0.003001538               0.001824765               0.000000000               0.000000000               0.000000000               0.000000000              -0.000496775               0.007493582               0.000283700              -0.001122986               0.002872164               0.001749179               0.000000000               0.000000000               0.000000000               0.000000000              -0.000444818               0.007195263               0.000279599              -0.001066212               0.002753801               0.001687589               0.000000000               0.000000000               0.000000000               0.000000000              -0.000381688               0.006927213               0.000263797              -0.001009032               0.002645392               0.001636360               0.000000000               0.000000000               0.000000000               0.000000000              -0.000312030               0.006688655               0.000240994              -0.000953091               0.002547226               0.001594135               0.000000000               0.000000000               0.000000000               0.000000000              -0.000242682               0.006483297               0.000211687              -0.000901415               0.002461549               0.001560134               0.000000000               0.000000000               0.000000000               0.000000000              -0.000177781               0.006306770               0.000173467              -0.000855012               0.002387240               0.001532228               0.000000000               0.000000000               0.000000000               0.000000000              -0.000113667               0.006157275               0.000127338              -0.000812283               0.002323165               0.001510883               0.000000000               0.000000000               0.000000000               0.000000000              -0.000058518               0.006043255               0.000076238              -0.000777349               0.002273514               0.001496165               0.000000000               0.000000000               0.000000000               0.000000000              -0.000022093               0.005971154               0.000030859              -0.000754677               0.002241924               0.001487247               0.000000000               0.000000000               0.000000000               0.000000000              -0.000011314               0.005942320               0.000013387              -0.000747031               0.002229764               0.001482733               0.000000000               0.000000000               0.000000000               0.000000000               0.001997973               0.009569445              -0.003678750              -0.000446944               0.003338763               0.002891820               0.000000000               0.000000000               0.000000000               0.000000000               0.000542271               0.009100840              -0.002253630              -0.000934253               0.003345000               0.002410747               0.000000000               0.000000000               0.000000000               0.000000000              -0.000516758               0.009130241              -0.000864472              -0.001335061               0.003488404               0.002153342               0.000000000               0.000000000               0.000000000               0.000000000              -0.000855246               0.008771306              -0.000351972              -0.001417127               0.003396115               0.001978988               0.000000000               0.000000000               0.000000000               0.000000000              -0.000916627               0.008355084              -0.000133685              -0.001388117               0.003247706               0.001859589               0.000000000               0.000000000               0.000000000               0.000000000              -0.000864941               0.007969292              -0.000034479              -0.001320511               0.003096574               0.001776063               0.000000000               0.000000000               0.000000000               0.000000000              -0.000775538               0.007616696               0.000012352              -0.001242911               0.002953177               0.001710266               0.000000000               0.000000000               0.000000000               0.000000000              -0.000665908               0.007298147               0.000040816              -0.001161981               0.002820018               0.001658038               0.000000000               0.000000000               0.000000000               0.000000000              -0.000549391               0.007009859               0.000061003              -0.001082251               0.002697347               0.001615095               0.000000000               0.000000000               0.000000000               0.000000000              -0.000440513               0.006750298               0.000067519              -0.001008977               0.002586403               0.001577426               0.000000000               0.000000000               0.000000000               0.000000000              -0.000343973               0.006524185               0.000065577              -0.000944510               0.002489543               0.001545033               0.000000000               0.000000000               0.000000000               0.000000000              -0.000255701               0.006330827               0.000058533              -0.000887239               0.002406001               0.001518762               0.000000000               0.000000000               0.000000000               0.000000000              -0.000176023               0.006164269               0.000041526              -0.000836540               0.002333582               0.001497042               0.000000000               0.000000000               0.000000000               0.000000000              -0.000108834               0.006026385               0.000019628              -0.000794109               0.002273478               0.001479369               0.000000000               0.000000000               0.000000000               0.000000000              -0.000057620               0.005924037               0.000003032              -0.000762110               0.002228696               0.001466586               0.000000000               0.000000000               0.000000000               0.000000000              -0.000023037               0.005850048              -0.000004414              -0.000739893               0.002196628               0.001456735               0.000000000               0.000000000               0.000000000               0.000000000              -0.000018402               0.005803860              -0.000000139              -0.000732381               0.002178728               0.001446346               0.000000000               0.000000000               0.000000000               0.000000000               0.001537358               0.007583648              -0.003237219              -0.000371449               0.002651673               0.002280223               0.000000000               0.000000000               0.000000000               0.000000000               0.000081402               0.007881394              -0.002198664              -0.000954648               0.002945320               0.001990673               0.000000000               0.000000000               0.000000000               0.000000000              -0.001023911               0.008467719              -0.001139113              -0.001442428               0.003303354               0.001860926               0.000000000               0.000000000               0.000000000               0.000000000              -0.001243239               0.008312893              -0.000696324              -0.001505322               0.003272711               0.001767388               0.000000000               0.000000000               0.000000000               0.000000000              -0.001187277               0.008001161              -0.000466670              -0.001445370               0.003148817               0.001703447               0.000000000               0.000000000               0.000000000               0.000000000              -0.001041845               0.007669517              -0.000334263              -0.001349378               0.003006273               0.001656895               0.000000000               0.000000000               0.000000000               0.000000000              -0.000874511               0.007347868              -0.000250616              -0.001246422               0.002864739               0.001618317               0.000000000               0.000000000               0.000000000               0.000000000              -0.000708490               0.007047868              -0.000189663              -0.001146664               0.002731487               0.001584823               0.000000000               0.000000000               0.000000000               0.000000000              -0.000553695               0.006772566              -0.000141878              -0.001054204               0.002608901               0.001554697               0.000000000               0.000000000               0.000000000               0.000000000              -0.000418140               0.006526397              -0.000106559              -0.000972600               0.002499644               0.001527044               0.000000000               0.000000000               0.000000000               0.000000000              -0.000305075               0.006311516              -0.000078696              -0.000903341               0.002404931               0.001501591               0.000000000               0.000000000               0.000000000               0.000000000              -0.000212750               0.006122891              -0.000057944              -0.000845141               0.002322657               0.001477516               0.000000000               0.000000000               0.000000000               0.000000000              -0.000142216               0.005961285              -0.000048519              -0.000798490               0.002253238               0.001454749               0.000000000               0.000000000               0.000000000               0.000000000              -0.000089726               0.005826770              -0.000040711              -0.000761992               0.002196234               0.001434243               0.000000000               0.000000000               0.000000000               0.000000000              -0.000052157               0.005707604              -0.000025739              -0.000733007               0.002146851               0.001413844               0.000000000               0.000000000               0.000000000               0.000000000              -0.000026541               0.005594639              -0.000009990              -0.000709281               0.002101288               0.001392007               0.000000000               0.000000000               0.000000000               0.000000000              -0.000027171               0.005516455               0.000005192              -0.000699744               0.002072048               0.001372304               0.000000000               0.000000000               0.000000000               0.000000000               0.000961929               0.005880965              -0.002655231              -0.000374399               0.002085101               0.001710702               0.000000000               0.000000000               0.000000000               0.000000000              -0.000349703               0.006785321              -0.002108433              -0.000979303               0.002588185               0.001608882               0.000000000               0.000000000               0.000000000               0.000000000              -0.001383176               0.007825523              -0.001450106              -0.001496878               0.003107441               0.001610562               0.000000000               0.000000000               0.000000000               0.000000000              -0.001478509               0.007883794              -0.001053958              -0.001539912               0.003141209               0.001601297               0.000000000               0.000000000               0.000000000               0.000000000              -0.001335181               0.007690234              -0.000799879              -0.001461968               0.003050709               0.001588740               0.000000000               0.000000000               0.000000000               0.000000000              -0.001124263               0.007425782              -0.000627136              -0.001349818               0.002925175               0.001575357               0.000000000               0.000000000               0.000000000               0.000000000              -0.000903490               0.007143745              -0.000503872              -0.001231774               0.002791816               0.001560042               0.000000000               0.000000000               0.000000000               0.000000000              -0.000698541               0.006868268              -0.000409723              -0.001120484               0.002662894               0.001542411               0.000000000               0.000000000               0.000000000               0.000000000              -0.000519048               0.006613068              -0.000330864              -0.001021274               0.002544759               0.001523485               0.000000000               0.000000000               0.000000000               0.000000000              -0.000367026               0.006383900              -0.000263670              -0.000935620               0.002439819               0.001504199               0.000000000               0.000000000               0.000000000               0.000000000              -0.000246140               0.006176407              -0.000206621              -0.000864351               0.002346899               0.001482548               0.000000000               0.000000000               0.000000000               0.000000000              -0.000157415               0.005990899              -0.000156519              -0.000807891               0.002266243               0.001458353               0.000000000               0.000000000               0.000000000               0.000000000              -0.000097383               0.005826879              -0.000116392              -0.000764877               0.002197233               0.001432356               0.000000000               0.000000000               0.000000000               0.000000000              -0.000073477               0.005660811              -0.000083580              -0.000735153               0.002131969               0.001396816               0.000000000               0.000000000               0.000000000               0.000000000              -0.000082578               0.005487018              -0.000051570              -0.000716842               0.002067935               0.001351093               0.000000000               0.000000000               0.000000000               0.000000000              -0.000100919               0.005318565              -0.000023688              -0.000702664               0.002007058               0.001304395               0.000000000               0.000000000               0.000000000               0.000000000              -0.000112404               0.005218869              -0.000006238              -0.000694508               0.001971108               0.001276600               0.000000000               0.000000000               0.000000000               0.000000000               0.000263943               0.004284843              -0.002021398              -0.000436628               0.001573808               0.001137181               0.000000000               0.000000000               0.000000000               0.000000000              -0.000680169               0.005524145              -0.001994314              -0.000945581               0.002156556               0.001210975               0.000000000               0.000000000               0.000000000               0.000000000              -0.001539419               0.006891034              -0.001780402              -0.001438659               0.002776541               0.001337882               0.000000000               0.000000000               0.000000000               0.000000000              -0.001577322               0.007239017              -0.001445769              -0.001496370               0.002911771               0.001415402               0.000000000               0.000000000               0.000000000               0.000000000              -0.001408576               0.007239007              -0.001169973              -0.001433089               0.002890674               0.001457586               0.000000000               0.000000000               0.000000000               0.000000000              -0.001184871               0.007107683              -0.000958728              -0.001332784               0.002813465               0.001480681               0.000000000               0.000000000               0.000000000               0.000000000              -0.000953523               0.006920338              -0.000794066              -0.001222611               0.002714293               0.001491683               0.000000000               0.000000000               0.000000000               0.000000000              -0.000738196               0.006713490              -0.000662323              -0.001116007               0.002609810               0.001493803               0.000000000               0.000000000               0.000000000               0.000000000              -0.000548865               0.006508647              -0.000550298              -0.001019403               0.002509328               0.001489925               0.000000000               0.000000000               0.000000000               0.000000000              -0.000388387               0.006317168              -0.000453446              -0.000935289               0.002417465               0.001482176               0.000000000               0.000000000               0.000000000               0.000000000              -0.000258167               0.006134445              -0.000366002              -0.000863616               0.002332666               0.001469050               0.000000000               0.000000000               0.000000000               0.000000000              -0.000162206               0.005964328              -0.000284448              -0.000806366               0.002256878               0.001450512               0.000000000               0.000000000               0.000000000               0.000000000              -0.000106959               0.005795646              -0.000211751              -0.000764564               0.002186717               0.001422154               0.000000000               0.000000000               0.000000000               0.000000000              -0.000097594               0.005598666              -0.000143231              -0.000736429               0.002111680               0.001375251               0.000000000               0.000000000               0.000000000               0.000000000              -0.000128922               0.005392743              -0.000081966              -0.000722437               0.002038375               0.001315939               0.000000000               0.000000000               0.000000000               0.000000000              -0.000191630               0.005191333              -0.000035649              -0.000720776               0.001970686               0.001249910               0.000000000               0.000000000               0.000000000               0.000000000              -0.000233443               0.005081128              -0.000013211              -0.000722680               0.001934586               0.001211906               0.000000000               0.000000000               0.000000000               0.000000000              -0.000673711               0.002835699              -0.001372072              -0.000607104               0.001147591               0.000540487               0.000000000               0.000000000               0.000000000               0.000000000              -0.001055985               0.004266369              -0.001812511              -0.000929289               0.001731871               0.000802582               0.000000000               0.000000000               0.000000000               0.000000000              -0.001603612               0.005820629              -0.002030758              -0.001328931               0.002383167               0.001054236               0.000000000               0.000000000               0.000000000               0.000000000              -0.001587581               0.006437714              -0.001812745              -0.001400054               0.002612567               0.001212513               0.000000000               0.000000000               0.000000000               0.000000000              -0.001410927               0.006654101              -0.001546860              -0.001360857               0.002671630               0.001310773               0.000000000               0.000000000               0.000000000               0.000000000              -0.001193719               0.006684659              -0.001313278              -0.001283224               0.002655939               0.001372714               0.000000000               0.000000000               0.000000000               0.000000000              -0.000971296               0.006624368              -0.001115145              -0.001192279               0.002605527               0.001413248               0.000000000               0.000000000               0.000000000               0.000000000              -0.000761706               0.006515088              -0.000950030              -0.001100023               0.002538349               0.001438325               0.000000000               0.000000000               0.000000000               0.000000000              -0.000565051               0.006384777              -0.000812143              -0.001009989               0.002464900               0.001454911               0.000000000               0.000000000               0.000000000               0.000000000              -0.000389456               0.006247089              -0.000690935              -0.000926930               0.002391319               0.001464389               0.000000000               0.000000000               0.000000000               0.000000000              -0.000247968               0.006100257              -0.000578003              -0.000855518               0.002318571               0.001463053               0.000000000               0.000000000               0.000000000               0.000000000              -0.000136105               0.005957401              -0.000467335              -0.000795713               0.002251018               0.001455306               0.000000000               0.000000000               0.000000000               0.000000000              -0.000066546               0.005804959              -0.000360776              -0.000750573               0.002185158               0.001434585               0.000000000               0.000000000               0.000000000               0.000000000              -0.000055182               0.005613991              -0.000256603              -0.000722440               0.002112125               0.001389685               0.000000000               0.000000000               0.000000000               0.000000000              -0.000091263               0.005409744              -0.000154242              -0.000710440               0.002040043               0.001329603               0.000000000               0.000000000               0.000000000               0.000000000              -0.000174839               0.005202028              -0.000066495              -0.000715816               0.001972598               0.001256781               0.000000000               0.000000000               0.000000000               0.000000000              -0.000243728               0.005085196              -0.000023324              -0.000727046               0.001937397               0.001210351               0.000000000               0.000000000               0.000000000               0.000000000              -0.001791346               0.001629388              -0.000752468              -0.000875427               0.000834932              -0.000040495               0.000000000               0.000000000               0.000000000               0.000000000              -0.001531012               0.003082288              -0.001542988              -0.000959414               0.001347223               0.000387809               0.000000000               0.000000000               0.000000000               0.000000000              -0.001627991               0.004627561              -0.002111189              -0.001188940               0.001938817               0.000749877               0.000000000               0.000000000               0.000000000               0.000000000              -0.001493583               0.005431704              -0.002041845              -0.001239055               0.002223568               0.000984513               0.000000000               0.000000000               0.000000000               0.000000000              -0.001293485               0.005848704              -0.001826530              -0.001216143               0.002354929               0.001138786               0.000000000               0.000000000               0.000000000               0.000000000              -0.001086429               0.006054454              -0.001597842              -0.001164216               0.002406203               0.001241987               0.000000000               0.000000000               0.000000000               0.000000000              -0.000882579               0.006140797              -0.001386962              -0.001098564               0.002413100               0.001314535               0.000000000               0.000000000               0.000000000               0.000000000              -0.000686685               0.006155022              -0.001206161              -0.001026882               0.002393947               0.001367065               0.000000000               0.000000000               0.000000000               0.000000000              -0.000498705               0.006120899              -0.001055937              -0.000952125               0.002357654               0.001405529               0.000000000               0.000000000               0.000000000               0.000000000              -0.000321689               0.006056327              -0.000919451              -0.000877672               0.002311313               0.001433641               0.000000000               0.000000000               0.000000000               0.000000000              -0.000169318               0.005970492              -0.000789205              -0.000809804               0.002260079               0.001450275               0.000000000               0.000000000               0.000000000               0.000000000              -0.000044607               0.005871655              -0.000662690              -0.000750683               0.002207426               0.001456744               0.000000000               0.000000000               0.000000000               0.000000000               0.000046259               0.005752350              -0.000531463              -0.000701695               0.002151329               0.001449634               0.000000000               0.000000000               0.000000000               0.000000000               0.000080232               0.005591467              -0.000392843              -0.000668845               0.002086752               0.001417907               0.000000000               0.000000000               0.000000000               0.000000000               0.000057535               0.005402253              -0.000251995              -0.000653704               0.002018634               0.001364930               0.000000000               0.000000000               0.000000000               0.000000000              -0.000018646               0.005197849              -0.000118510              -0.000656722               0.001951506               0.001294784               0.000000000               0.000000000               0.000000000               0.000000000              -0.000091187               0.005080668              -0.000048932              -0.000669277               0.001916632               0.001247354               0.000000000               0.000000000               0.000000000               0.000000000              -0.003005137               0.000724893              -0.000236950              -0.001217536               0.000647472              -0.000570064               0.000000000               0.000000000               0.000000000               0.000000000              -0.002072024               0.002031400              -0.001215451              -0.001030932               0.001020770              -0.000010163               0.000000000               0.000000000               0.000000000               0.000000000              -0.001634709               0.003407556              -0.002005073              -0.001038959               0.001482159               0.000443200               0.000000000               0.000000000               0.000000000               0.000000000              -0.001327358               0.004307797              -0.002073843              -0.001036233               0.001781328               0.000745095               0.000000000               0.000000000               0.000000000               0.000000000              -0.001079929               0.004885985              -0.001929423              -0.001015720               0.001967218               0.000951498               0.000000000               0.000000000               0.000000000               0.000000000              -0.000872316               0.005255798              -0.001732797              -0.000984092               0.002079945               0.001095853               0.000000000               0.000000000               0.000000000               0.000000000              -0.000686718               0.005490050              -0.001536192              -0.000943774               0.002144589               0.001200815               0.000000000               0.000000000               0.000000000               0.000000000              -0.000508065               0.005636431              -0.001361820              -0.000895077               0.002177150               0.001282074               0.000000000               0.000000000               0.000000000               0.000000000              -0.000338426               0.005717435              -0.001212384              -0.000841587               0.002186321               0.001344734               0.000000000               0.000000000               0.000000000               0.000000000              -0.000175119               0.005747088              -0.001076208              -0.000784054               0.002177028               0.001392974               0.000000000               0.000000000               0.000000000               0.000000000              -0.000019058               0.005739163              -0.000945334              -0.000724541               0.002154549               0.001430008               0.000000000               0.000000000               0.000000000               0.000000000               0.000119981               0.005706500              -0.000817125              -0.000668318               0.002124920               0.001456602               0.000000000               0.000000000               0.000000000               0.000000000               0.000231088               0.005638788              -0.000679545              -0.000618189               0.002085640               0.001467451               0.000000000               0.000000000               0.000000000               0.000000000               0.000301470               0.005518081              -0.000525681              -0.000576707               0.002031578               0.001454870               0.000000000               0.000000000               0.000000000               0.000000000               0.000322097               0.005359710              -0.000359838              -0.000549176               0.001969611               0.001420435               0.000000000               0.000000000               0.000000000               0.000000000               0.000283825               0.005181657              -0.000183458              -0.000541271               0.001907625               0.001366354               0.000000000               0.000000000               0.000000000               0.000000000               0.000229962               0.005078573              -0.000087074              -0.000548585               0.001875702               0.001327118               0.000000000               0.000000000               0.000000000               0.000000000              -0.004192800               0.000113172               0.000101362              -0.001586445               0.000566535              -0.001019910               0.000000000               0.000000000               0.000000000               0.000000000              -0.002627114               0.001169871              -0.000871120              -0.001131400               0.000767085              -0.000364316               0.000000000               0.000000000               0.000000000               0.000000000              -0.001639042               0.002281141              -0.001707775              -0.000899782               0.001060299               0.000160517               0.000000000               0.000000000               0.000000000               0.000000000              -0.001130179               0.003192584              -0.001867402              -0.000822889               0.001338479               0.000515590               0.000000000               0.000000000               0.000000000               0.000000000              -0.000817412               0.003875976              -0.001795184              -0.000791026               0.001555654               0.000764628               0.000000000               0.000000000               0.000000000               0.000000000              -0.000594035               0.004378431              -0.001649616              -0.000770066               0.001716151               0.000946084               0.000000000               0.000000000               0.000000000               0.000000000              -0.000412390               0.004746640              -0.001490657              -0.000747975               0.001831522               0.001083547               0.000000000               0.000000000               0.000000000               0.000000000              -0.000251041               0.005018267              -0.001342328              -0.000721423               0.001913213               0.001191790               0.000000000               0.000000000               0.000000000               0.000000000              -0.000100942               0.005215335              -0.001210364              -0.000689769               0.001968350               0.001278581               0.000000000               0.000000000               0.000000000               0.000000000               0.000045695               0.005348208              -0.001091566              -0.000651389               0.001999848               0.001348459               0.000000000               0.000000000               0.000000000               0.000000000               0.000195419               0.005431208              -0.000976621              -0.000605618               0.002012257               0.001406639               0.000000000               0.000000000               0.000000000               0.000000000               0.000344684               0.005480628              -0.000860482              -0.000555821               0.002012131               0.001456310               0.000000000               0.000000000               0.000000000               0.000000000               0.000480099               0.005478069              -0.000736234              -0.000504720               0.001994245               0.001489524               0.000000000               0.000000000               0.000000000               0.000000000               0.000594156               0.005407592              -0.000593421              -0.000453139               0.001953559               0.001500420               0.000000000               0.000000000               0.000000000               0.000000000               0.000682791               0.005295925              -0.000426635              -0.000405943               0.001900605               0.001494662               0.000000000               0.000000000               0.000000000               0.000000000               0.000733510               0.005156852              -0.000228767              -0.000369539               0.001842113               0.001472574               0.000000000               0.000000000               0.000000000               0.000000000               0.000749585               0.005078711              -0.000120159              -0.000353744               0.001810801               0.001457058               0.000000000               0.000000000               0.000000000               0.000000000              -0.005198800              -0.000250621               0.000229325              -0.001918221               0.000555863              -0.001362358               0.000000000               0.000000000               0.000000000               0.000000000              -0.003122634               0.000541321              -0.000546842              -0.001238651               0.000593320              -0.000645332               0.000000000               0.000000000               0.000000000               0.000000000              -0.001656720               0.001372856              -0.001242654              -0.000792876               0.000721905              -0.000070971               0.000000000               0.000000000               0.000000000               0.000000000              -0.000945800               0.002239718              -0.001418365              -0.000634639               0.000958111               0.000323472               0.000000000               0.000000000               0.000000000               0.000000000              -0.000555735               0.002975067              -0.001398639              -0.000580283               0.001185106               0.000604823               0.000000000               0.000000000               0.000000000               0.000000000              -0.000309565               0.003566958              -0.001310286              -0.000561956               0.001376292               0.000814336               0.000000000               0.000000000               0.000000000               0.000000000              -0.000125507               0.004037105              -0.001202425              -0.000551702               0.001529589               0.000977886               0.000000000               0.000000000               0.000000000               0.000000000               0.000024944               0.004407650              -0.001095060              -0.000541601               0.001649736               0.001108134               0.000000000               0.000000000               0.000000000               0.000000000               0.000161328               0.004702148              -0.000997923              -0.000527270               0.001743123               0.001215854               0.000000000               0.000000000               0.000000000               0.000000000               0.000293295               0.004929448              -0.000910232              -0.000506194               0.001811864               0.001305670               0.000000000               0.000000000               0.000000000               0.000000000               0.000432821               0.005100366              -0.000824716              -0.000475237               0.001858517               0.001383280               0.000000000               0.000000000               0.000000000               0.000000000               0.000587446               0.005228420              -0.000736422              -0.000433260               0.001887209               0.001453949               0.000000000               0.000000000               0.000000000               0.000000000               0.000747653               0.005291036              -0.000641638              -0.000381009               0.001890664               0.001509655               0.000000000               0.000000000               0.000000000               0.000000000               0.000908356               0.005279392              -0.000529683              -0.000319290               0.001866210               0.001546920               0.000000000               0.000000000               0.000000000               0.000000000               0.001079861               0.005220938              -0.000392396              -0.000247669               0.001822851               0.001575183               0.000000000               0.000000000               0.000000000               0.000000000               0.001258662               0.005122167              -0.000218019              -0.000168272               0.001763463               0.001595191               0.000000000               0.000000000               0.000000000               0.000000000               0.001391320               0.005077045              -0.000123853              -0.000112885               0.001729960               0.001617074               0.000000000               0.000000000               0.000000000               0.000000000              -0.005872714              -0.000429042               0.000169512              -0.002148636               0.000573194              -0.001575442               0.000000000               0.000000000               0.000000000               0.000000000              -0.003467848               0.000166390              -0.000258883              -0.001321241               0.000495873              -0.000825367               0.000000000               0.000000000               0.000000000               0.000000000              -0.001677877               0.000786572              -0.000652855              -0.000727524               0.000504695              -0.000222829               0.000000000               0.000000000               0.000000000               0.000000000              -0.000816451               0.001594461              -0.000767239              -0.000505476               0.000699973               0.000194497               0.000000000               0.000000000               0.000000000               0.000000000              -0.000359224               0.002343719              -0.000769342              -0.000427673               0.000923789               0.000496116               0.000000000               0.000000000               0.000000000               0.000000000              -0.000088423               0.002984456              -0.000730356              -0.000406215               0.001130214               0.000723998               0.000000000               0.000000000               0.000000000               0.000000000               0.000094599               0.003517170              -0.000676805              -0.000404171               0.001307102               0.000902931               0.000000000               0.000000000               0.000000000               0.000000000               0.000239728               0.003954289              -0.000620586              -0.000404387               0.001452879               0.001048491               0.000000000               0.000000000               0.000000000               0.000000000               0.000369309               0.004310668              -0.000569224              -0.000400342               0.001570322               0.001169980               0.000000000               0.000000000               0.000000000               0.000000000               0.000494467               0.004598414              -0.000522568              -0.000389376               0.001662581               0.001273205               0.000000000               0.000000000               0.000000000               0.000000000               0.000628140               0.004830973              -0.000477629              -0.000368318               0.001733081               0.001364763               0.000000000               0.000000000               0.000000000               0.000000000               0.000783108               0.005017871              -0.000430562              -0.000333568               0.001783796               0.001450229               0.000000000               0.000000000               0.000000000               0.000000000               0.000957830               0.005134165              -0.000377957              -0.000282584               0.001805566               0.001522982               0.000000000               0.000000000               0.000000000               0.000000000               0.001154658               0.005168020              -0.000316616              -0.000213005               0.001793658               0.001580653               0.000000000               0.000000000               0.000000000               0.000000000               0.001393926               0.005148317              -0.000239043              -0.000120817               0.001756361               0.001635544               0.000000000               0.000000000               0.000000000               0.000000000               0.001688367               0.005085477              -0.000134653              -0.000002547               0.001695991               0.001693444               0.000000000               0.000000000               0.000000000               0.000000000               0.001931677               0.005071490              -0.000079957               0.000090442               0.001660333               0.001750774               0.000000000               0.000000000               0.000000000               0.000000000              -0.006110706              -0.000482508               0.000000000              -0.002231200               0.000582893              -0.001648306               0.000000000               0.000000000               0.000000000               0.000000000              -0.003592141               0.000040171              -0.000000000              -0.001352073               0.000464078              -0.000887995               0.000000000               0.000000000               0.000000000               0.000000000              -0.001686222               0.000584106              -0.000000000              -0.000705345               0.000429814              -0.000275531               0.000000000               0.000000000               0.000000000               0.000000000              -0.000769201               0.001367675               0.000000000              -0.000459409               0.000609023               0.000149614               0.000000000               0.000000000               0.000000000               0.000000000              -0.000286127               0.002116816               0.000000000              -0.000371899               0.000829565               0.000457666               0.000000000               0.000000000               0.000000000               0.000000000              -0.000003986               0.002773047              -0.000000000              -0.000348125               0.001040381               0.000692256               0.000000000               0.000000000               0.000000000               0.000000000               0.000177874               0.003324394               0.000000000              -0.000348846               0.001224402               0.000875557               0.000000000               0.000000000               0.000000000               0.000000000               0.000320489               0.003783502               0.000000000              -0.000352754               0.001378739               0.001025986               0.000000000               0.000000000               0.000000000               0.000000000               0.000448112               0.004162114              -0.000000000              -0.000352222               0.001504765               0.001152543               0.000000000               0.000000000               0.000000000               0.000000000               0.000573678               0.004470163              -0.000000000              -0.000343640               0.001604586               0.001260946               0.000000000               0.000000000               0.000000000               0.000000000               0.000706354               0.004724901               0.000000000              -0.000325729               0.001683528               0.001357798               0.000000000               0.000000000               0.000000000               0.000000000               0.000860519               0.004935352               0.000000000              -0.000294224               0.001743176               0.001448952               0.000000000               0.000000000               0.000000000               0.000000000               0.001038857               0.005074215              -0.000000000              -0.000244705               0.001772956               0.001528252               0.000000000               0.000000000               0.000000000               0.000000000               0.001250004               0.005125367              -0.000000000              -0.000171919               0.001765745               0.001593826               0.000000000               0.000000000               0.000000000               0.000000000               0.001512709               0.005117756               0.000000000              -0.000072453               0.001730053               0.001657599               0.000000000               0.000000000               0.000000000               0.000000000               0.001853643               0.005069277               0.000000000               0.000061456               0.001669257               0.001730713               0.000000000               0.000000000               0.000000000               0.000000000               0.002142857               0.005068223              -0.000000000               0.000170042               0.001632710               0.001802752               0.000000000               0.000000000               0.000000000               0.000000000               0.000000000               0.000000000               0.000000000               0.000000000               0.000000000               0.000000000               0.000000000               0.000000000               0.000000000               0.000000000               0.000000000               0.000000000               0.000000000               0.000000000               0.000000000               0.000000000               0.000000000               0.000000000               0.000000000               0.000000000               0.000000000               0.000000000               0.000000000               0.000000000               0.000000000               0.000000000               0.000000000               0.000000000               0.000000000               0.000000000               0.000000000               0.000000000               0.000000000               0.000000000               0.000000000               0.000000000               0.000000000               0.000000000               0.000000000               0.000000000               0.000000000               0.000000000               0.000000000               0.000000000               0.000000000               0.000000000               0.000000000               0.000000000               0.000000000               0.000000000               0.000000000               0.000000000               0.000000000               0.000000000               0.000000000               0.000000000               0.000000000               0.000000000               0.000000000               0.000000000               0.000000000               0.000000000               0.000000000               0.000000000               0.000000000               0.000000000               0.000000000               0.000000000               0.000000000               0.000000000               0.000000000               0.000000000               0.000000000               0.000000000               0.000000000               0.000000000               0.000000000               0.000000000               0.000000000               0.000000000               0.000000000               0.000000000               0.000000000               0.000000000               0.000000000               0.000000000               0.000000000               0.000000000               0.000000000               0.000000000               0.000000000               0.000000000               0.000000000               0.000000000               0.000000000               0.000000000               0.000000000               0.000000000               0.000000000               0.000000000               0.000000000               0.000000000               0.000000000               0.000000000               0.000000000               0.000000000               0.000000000               0.000000000               0.000000000               0.000000000               0.000000000               0.000000000               0.000000000               0.000000000               0.000000000               0.000000000               0.000000000               0.000000000               0.000000000               0.000000000               0.000000000               0.000000000               0.000000000               0.000000000               0.000000000               0.000000000               0.000000000               0.000000000               0.000000000               0.000000000               0.000000000               0.000000000               0.000000000               0.000000000               0.000000000               0.000000000               0.000000000               0.000000000               0.000000000               0.000000000               0.000000000               0.000000000               0.000000000               0.000000000               0.000000000               0.000000000               0.000000000               0.000000000               0.000000000               0.000000000               0.000000000               0.000000000               0.000000000               0.000000000               0.000000000               0.000000000               0.000000000               0.000000000               0.000000000               0.000000000               0.000000000               0.000000000               0.000000000               0.000000000               0.000000000               0.000000000               0.000000000               0.000000000               0.000000000               0.000000000               0.001762855               0.018465768               0.001314922              -0.001647147               0.006704243               0.005057097               0.000000000               0.000000000               0.000000000               0.000000000               0.001697575               0.014728503               0.000703883              -0.001204469               0.005310942               0.004106472               0.000000000               0.000000000               0.000000000               0.000000000               0.002168281               0.011752477               0.000090120              -0.000655953               0.004136104               0.003480151               0.000000000               0.000000000               0.000000000               0.000000000               0.002074046               0.010100973              -0.000172253              -0.000484853               0.003528575               0.003043722               0.000000000               0.000000000               0.000000000               0.000000000               0.001815553               0.009085980              -0.000281940              -0.000454914               0.003180268               0.002725354               0.000000000               0.000000000               0.000000000               0.000000000               0.001529109               0.008402127              -0.000320425              -0.000476849               0.002959631               0.002482782               0.000000000               0.000000000               0.000000000               0.000000000               0.001257550               0.007897709              -0.000323240              -0.000515631               0.002804420               0.002288789               0.000000000               0.000000000               0.000000000               0.000000000               0.001021038               0.007501516              -0.000315444              -0.000554799               0.002685413               0.002130614               0.000000000               0.000000000               0.000000000               0.000000000               0.000818541               0.007177307              -0.000305341              -0.000590209               0.002589148               0.001998939               0.000000000               0.000000000               0.000000000               0.000000000               0.000638449               0.006899387              -0.000290349              -0.000623004               0.002507440               0.001884437               0.000000000               0.000000000               0.000000000               0.000000000               0.000478788               0.006644133              -0.000270381              -0.000650970               0.002431679               0.001780709               0.000000000               0.000000000               0.000000000               0.000000000               0.000340322               0.006394260              -0.000248830              -0.000671660               0.002355285               0.001683625               0.000000000               0.000000000               0.000000000               0.000000000               0.000226553               0.006144438              -0.000226215              -0.000683096               0.002275824               0.001592728               0.000000000               0.000000000               0.000000000               0.000000000               0.000139729               0.005886335              -0.000196037              -0.000683392               0.002189889               0.001506497               0.000000000               0.000000000               0.000000000               0.000000000               0.000075643               0.005607444              -0.000153260              -0.000672563               0.002093317               0.001420754               0.000000000               0.000000000               0.000000000               0.000000000               0.000030528               0.005293717              -0.000089507              -0.000650265               0.001981310               0.001331045               0.000000000               0.000000000               0.000000000               0.000000000              -0.000011643               0.005056483              -0.000055414              -0.000636425               0.001897619               0.001261194               0.000000000               0.000000000               0.000000000               0.000000000               0.001944079               0.017400463               0.002456912              -0.001446026               0.006282104               0.004836079               0.000000000               0.000000000               0.000000000               0.000000000               0.001635104               0.014033169               0.001319793              -0.001140980               0.005058003               0.003917023               0.000000000               0.000000000               0.000000000               0.000000000               0.001843845               0.011439770               0.000187972              -0.000738528               0.004059395               0.003320867               0.000000000               0.000000000               0.000000000               0.000000000               0.001653521               0.009980366              -0.000283709              -0.000627474               0.003535913               0.002908439               0.000000000               0.000000000               0.000000000               0.000000000               0.001380636               0.009065410              -0.000473987              -0.000615436               0.003226919               0.002611482               0.000000000               0.000000000               0.000000000               0.000000000               0.001113482               0.008428481              -0.000536798              -0.000636003               0.003021467               0.002385464               0.000000000               0.000000000               0.000000000               0.000000000               0.000875146               0.007950501              -0.000541558              -0.000665631               0.002872017               0.002206386               0.000000000               0.000000000               0.000000000               0.000000000               0.000674526               0.007572033              -0.000526431              -0.000693555               0.002755171               0.002061616               0.000000000               0.000000000               0.000000000               0.000000000               0.000509667               0.007255697              -0.000508281              -0.000715835               0.002657153               0.001941318               0.000000000               0.000000000               0.000000000               0.000000000               0.000374920               0.006977333              -0.000485921              -0.000731570               0.002569611               0.001838041               0.000000000               0.000000000               0.000000000               0.000000000               0.000265273               0.006721253              -0.000454130              -0.000740678               0.002487288               0.001746610               0.000000000               0.000000000               0.000000000               0.000000000               0.000178734               0.006478810              -0.000419296              -0.000742824               0.002407190               0.001664366               0.000000000               0.000000000               0.000000000               0.000000000               0.000113071               0.006244670              -0.000381459              -0.000738180               0.002327596               0.001589416               0.000000000               0.000000000               0.000000000               0.000000000               0.000063420               0.006012487              -0.000329682              -0.000727777               0.002246734               0.001518958               0.000000000               0.000000000               0.000000000               0.000000000               0.000029334               0.005780633              -0.000254510              -0.000711577               0.002164051               0.001452474               0.000000000               0.000000000               0.000000000               0.000000000               0.000007554               0.005546468              -0.000145795              -0.000690474               0.002078962               0.001388488               0.000000000               0.000000000               0.000000000               0.000000000              -0.000015346               0.005388193              -0.000087299              -0.000679277               0.002022472               0.001343195               0.000000000               0.000000000               0.000000000               0.000000000               0.002154287               0.015785786               0.003298881              -0.001165365               0.005650330               0.004484966               0.000000000               0.000000000               0.000000000               0.000000000               0.001502462               0.012990672               0.001788400              -0.001060409               0.004683650               0.003623241               0.000000000               0.000000000               0.000000000               0.000000000               0.001348176               0.010971551               0.000302426              -0.000865876               0.003945772               0.003079897               0.000000000               0.000000000               0.000000000               0.000000000               0.001047264               0.009786822              -0.000291688              -0.000830627               0.003539117               0.002708490               0.000000000               0.000000000               0.000000000               0.000000000               0.000771439               0.009002882              -0.000521857              -0.000836068               0.003279620               0.002443552               0.000000000               0.000000000               0.000000000               0.000000000               0.000547964               0.008430086              -0.000594635              -0.000848272               0.003092758               0.002244486               0.000000000               0.000000000               0.000000000               0.000000000               0.000369314               0.007985048              -0.000600293              -0.000859636               0.002948201               0.002088565               0.000000000               0.000000000               0.000000000               0.000000000               0.000230117               0.007623020              -0.000582880              -0.000866582               0.002829842               0.001963260               0.000000000               0.000000000               0.000000000               0.000000000               0.000129906               0.007315485              -0.000559534              -0.000865719               0.002727044               0.001861325               0.000000000               0.000000000               0.000000000               0.000000000               0.000062343               0.007037045              -0.000531433              -0.000856250               0.002631075               0.001774825               0.000000000               0.000000000               0.000000000               0.000000000               0.000020786               0.006780940              -0.000495636              -0.000839821               0.002540231               0.001700410               0.000000000               0.000000000               0.000000000               0.000000000              -0.000002313               0.006546154              -0.000454744              -0.000819135               0.002455074               0.001635940               0.000000000               0.000000000               0.000000000               0.000000000              -0.000012564               0.006329825              -0.000406705              -0.000795938               0.002375233               0.001579295               0.000000000               0.000000000               0.000000000               0.000000000              -0.000015344               0.006133061              -0.000342306              -0.000772385               0.002301795               0.001529410               0.000000000               0.000000000               0.000000000               0.000000000              -0.000012752               0.005958398              -0.000253983              -0.000749580               0.002235973               0.001486393               0.000000000               0.000000000               0.000000000               0.000000000              -0.000007741               0.005816475              -0.000138337              -0.000729960               0.002182126               0.001452165               0.000000000               0.000000000               0.000000000               0.000000000              -0.000009628               0.005743973              -0.000076358              -0.000721605               0.002155174               0.001433568               0.000000000               0.000000000               0.000000000               0.000000000               0.002289209               0.013820272               0.003773237              -0.000869082               0.004896404               0.004027323               0.000000000               0.000000000               0.000000000               0.000000000               0.001277703               0.011741690               0.002085128              -0.000988571               0.004243381               0.003254810               0.000000000               0.000000000               0.000000000               0.000000000               0.000740593               0.010403787               0.000444082              -0.001022749               0.003808810               0.002786062               0.000000000               0.000000000               0.000000000               0.000000000               0.000359103               0.009518278              -0.000180314              -0.001055118               0.003524434               0.002469315               0.000000000               0.000000000               0.000000000               0.000000000               0.000116061               0.008870713              -0.000415178              -0.001065314               0.003311979               0.002246666               0.000000000               0.000000000               0.000000000               0.000000000              -0.000035420               0.008364346              -0.000489422              -0.001058823               0.003141029               0.002082205               0.000000000               0.000000000               0.000000000               0.000000000              -0.000132019               0.007952307              -0.000498337              -0.001043543               0.002998590               0.001955047               0.000000000               0.000000000               0.000000000               0.000000000              -0.000189103               0.007604203              -0.000486100              -0.001021436               0.002875188               0.001853751               0.000000000               0.000000000               0.000000000               0.000000000              -0.000212845               0.007300688              -0.000466335              -0.000992400               0.002764338               0.001771938               0.000000000               0.000000000               0.000000000               0.000000000              -0.000209690               0.007026135              -0.000438538              -0.000956898               0.002660988               0.001704089               0.000000000               0.000000000               0.000000000               0.000000000              -0.000188294               0.006775487              -0.000404018              -0.000917544               0.002564321               0.001646777               0.000000000               0.000000000               0.000000000               0.000000000              -0.000154781               0.006552474              -0.000363347              -0.000877100               0.002476503               0.001599403               0.000000000               0.000000000               0.000000000               0.000000000              -0.000116165               0.006356692              -0.000315222              -0.000838146               0.002398258               0.001560112               0.000000000               0.000000000               0.000000000               0.000000000              -0.000076812               0.006189673              -0.000252520              -0.000802512               0.002330708               0.001528196               0.000000000               0.000000000               0.000000000               0.000000000              -0.000040927               0.006056461              -0.000173671              -0.000772403               0.002276268               0.001503865               0.000000000               0.000000000               0.000000000               0.000000000              -0.000016818               0.005967905              -0.000085971              -0.000752293               0.002240046               0.001487753               0.000000000               0.000000000               0.000000000               0.000000000              -0.000008569               0.005937370              -0.000041427              -0.000745383               0.002227564               0.001482182               0.000000000               0.000000000               0.000000000               0.000000000               0.002253713               0.011693040               0.003882102              -0.000616490               0.004103136               0.003486647               0.000000000               0.000000000               0.000000000               0.000000000               0.000951136               0.010412345               0.002227730              -0.000944866               0.003785702               0.002840835               0.000000000               0.000000000               0.000000000               0.000000000               0.000092425               0.009779204               0.000629557              -0.001187738               0.003655615               0.002467876               0.000000000               0.000000000               0.000000000               0.000000000              -0.000304639               0.009176385               0.000043445              -0.001261285               0.003479193               0.002217908               0.000000000               0.000000000               0.000000000               0.000000000              -0.000473055               0.008651494              -0.000180288              -0.001258829               0.003303412               0.002044583               0.000000000               0.000000000               0.000000000               0.000000000              -0.000527328               0.008208356              -0.000259526              -0.001223790               0.003144021               0.001920232               0.000000000               0.000000000               0.000000000               0.000000000              -0.000528762               0.007827919              -0.000280975              -0.001176773               0.003001538               0.001824765               0.000000000               0.000000000               0.000000000               0.000000000              -0.000496775               0.007493582              -0.000283700              -0.001122986               0.002872164               0.001749179               0.000000000               0.000000000               0.000000000               0.000000000              -0.000444818               0.007195263              -0.000279599              -0.001066212               0.002753801               0.001687589               0.000000000               0.000000000               0.000000000               0.000000000              -0.000381688               0.006927213              -0.000263797              -0.001009032               0.002645392               0.001636360               0.000000000               0.000000000               0.000000000               0.000000000              -0.000312030               0.006688655              -0.000240994              -0.000953091               0.002547226               0.001594135               0.000000000               0.000000000               0.000000000               0.000000000              -0.000242682               0.006483297              -0.000211687              -0.000901415               0.002461549               0.001560134               0.000000000               0.000000000               0.000000000               0.000000000              -0.000177781               0.006306770              -0.000173467              -0.000855012               0.002387240               0.001532228               0.000000000               0.000000000               0.000000000               0.000000000              -0.000113667               0.006157275              -0.000127338              -0.000812283               0.002323165               0.001510883               0.000000000               0.000000000               0.000000000               0.000000000              -0.000058518               0.006043255              -0.000076238              -0.000777349               0.002273514               0.001496165               0.000000000               0.000000000               0.000000000               0.000000000              -0.000022093               0.005971154              -0.000030859              -0.000754677               0.002241924               0.001487247               0.000000000               0.000000000               0.000000000               0.000000000              -0.000011314               0.005942320              -0.000013387              -0.000747031               0.002229764               0.001482733               0.000000000               0.000000000               0.000000000               0.000000000               0.001997973               0.009569445               0.003678750              -0.000446944               0.003338763               0.002891820               0.000000000               0.000000000               0.000000000               0.000000000               0.000542271               0.009100840               0.002253630              -0.000934253               0.003345000               0.002410747               0.000000000               0.000000000               0.000000000               0.000000000              -0.000516758               0.009130241               0.000864472              -0.001335061               0.003488404               0.002153342               0.000000000               0.000000000               0.000000000               0.000000000              -0.000855246               0.008771306               0.000351972              -0.001417127               0.003396115               0.001978988               0.000000000               0.000000000               0.000000000               0.000000000              -0.000916627               0.008355084               0.000133685              -0.001388117               0.003247706               0.001859589               0.000000000               0.000000000               0.000000000               0.000000000              -0.000864941               0.007969292               0.000034479              -0.001320511               0.003096574               0.001776063               0.000000000               0.000000000               0.000000000               0.000000000              -0.000775538               0.007616696              -0.000012352              -0.001242911               0.002953177               0.001710266               0.000000000               0.000000000               0.000000000               0.000000000              -0.000665908               0.007298147              -0.000040816              -0.001161981               0.002820018               0.001658038               0.000000000               0.000000000               0.000000000               0.000000000              -0.000549391               0.007009859              -0.000061003              -0.001082251               0.002697347               0.001615095               0.000000000               0.000000000               0.000000000               0.000000000              -0.000440513               0.006750298              -0.000067519              -0.001008977               0.002586403               0.001577426               0.000000000               0.000000000               0.000000000               0.000000000              -0.000343973               0.006524185              -0.000065577              -0.000944510               0.002489543               0.001545033               0.000000000               0.000000000               0.000000000               0.000000000              -0.000255701               0.006330827              -0.000058533              -0.000887239               0.002406001               0.001518762               0.000000000               0.000000000               0.000000000               0.000000000              -0.000176023               0.006164269              -0.000041526              -0.000836540               0.002333582               0.001497042               0.000000000               0.000000000               0.000000000               0.000000000              -0.000108834               0.006026385              -0.000019628              -0.000794109               0.002273478               0.001479369               0.000000000               0.000000000               0.000000000               0.000000000              -0.000057620               0.005924037              -0.000003032              -0.000762110               0.002228696               0.001466586               0.000000000               0.000000000               0.000000000               0.000000000              -0.000023037               0.005850048               0.000004414              -0.000739893               0.002196628               0.001456735               0.000000000               0.000000000               0.000000000               0.000000000              -0.000018402               0.005803860               0.000000139              -0.000732381               0.002178728               0.001446346               0.000000000               0.000000000               0.000000000               0.000000000               0.001537358               0.007583648               0.003237219              -0.000371449               0.002651673               0.002280223               0.000000000               0.000000000               0.000000000               0.000000000               0.000081402               0.007881394               0.002198664              -0.000954648               0.002945320               0.001990673               0.000000000               0.000000000               0.000000000               0.000000000              -0.001023911               0.008467719               0.001139113              -0.001442428               0.003303354               0.001860926               0.000000000               0.000000000               0.000000000               0.000000000              -0.001243239               0.008312893               0.000696324              -0.001505322               0.003272711               0.001767388               0.000000000               0.000000000               0.000000000               0.000000000              -0.001187277               0.008001161               0.000466670              -0.001445370               0.003148817               0.001703447               0.000000000               0.000000000               0.000000000               0.000000000              -0.001041845               0.007669517               0.000334263              -0.001349378               0.003006273               0.001656895               0.000000000               0.000000000               0.000000000               0.000000000              -0.000874511               0.007347868               0.000250616              -0.001246422               0.002864739               0.001618317               0.000000000               0.000000000               0.000000000               0.000000000              -0.000708490               0.007047868               0.000189663              -0.001146664               0.002731487               0.001584823               0.000000000               0.000000000               0.000000000               0.000000000              -0.000553695               0.006772566               0.000141878              -0.001054204               0.002608901               0.001554697               0.000000000               0.000000000               0.000000000               0.000000000              -0.000418140               0.006526397               0.000106559              -0.000972600               0.002499644               0.001527044               0.000000000               0.000000000               0.000000000               0.000000000              -0.000305075               0.006311516               0.000078696              -0.000903341               0.002404931               0.001501591               0.000000000               0.000000000               0.000000000               0.000000000              -0.000212750               0.006122891               0.000057944              -0.000845141               0.002322657               0.001477516               0.000000000               0.000000000               0.000000000               0.000000000              -0.000142216               0.005961285               0.000048519              -0.000798490               0.002253238               0.001454749               0.000000000               0.000000000               0.000000000               0.000000000              -0.000089726               0.005826770               0.000040711              -0.000761992               0.002196234               0.001434243               0.000000000               0.000000000               0.000000000               0.000000000              -0.000052157               0.005707604               0.000025739              -0.000733007               0.002146851               0.001413844               0.000000000               0.000000000               0.000000000               0.000000000              -0.000026541               0.005594639               0.000009990              -0.000709281               0.002101288               0.001392007               0.000000000               0.000000000               0.000000000               0.000000000              -0.000027171               0.005516455              -0.000005192              -0.000699744               0.002072048               0.001372304               0.000000000               0.000000000               0.000000000               0.000000000               0.000961929               0.005880965               0.002655231              -0.000374399               0.002085101               0.001710702               0.000000000               0.000000000               0.000000000               0.000000000              -0.000349703               0.006785321               0.002108433              -0.000979303               0.002588185               0.001608882               0.000000000               0.000000000               0.000000000               0.000000000              -0.001383176               0.007825523               0.001450106              -0.001496878               0.003107441               0.001610562               0.000000000               0.000000000               0.000000000               0.000000000              -0.001478509               0.007883794               0.001053958              -0.001539912               0.003141209               0.001601297               0.000000000               0.000000000               0.000000000               0.000000000              -0.001335181               0.007690234               0.000799879              -0.001461968               0.003050709               0.001588740               0.000000000               0.000000000               0.000000000               0.000000000              -0.001124263               0.007425782               0.000627136              -0.001349818               0.002925175               0.001575357               0.000000000               0.000000000               0.000000000               0.000000000              -0.000903490               0.007143745               0.000503872              -0.001231774               0.002791816               0.001560042               0.000000000               0.000000000               0.000000000               0.000000000              -0.000698541               0.006868268               0.000409723              -0.001120484               0.002662894               0.001542411               0.000000000               0.000000000               0.000000000               0.000000000              -0.000519048               0.006613068               0.000330864              -0.001021274               0.002544759               0.001523485               0.000000000               0.000000000               0.000000000               0.000000000              -0.000367026               0.006383900               0.000263670              -0.000935620               0.002439819               0.001504199               0.000000000               0.000000000               0.000000000               0.000000000              -0.000246140               0.006176407               0.000206621              -0.000864351               0.002346899               0.001482548               0.000000000               0.000000000               0.000000000               0.000000000              -0.000157415               0.005990899               0.000156519              -0.000807891               0.002266243               0.001458353               0.000000000               0.000000000               0.000000000               0.000000000              -0.000097383               0.005826879               0.000116392              -0.000764877               0.002197233               0.001432356               0.000000000               0.000000000               0.000000000               0.000000000              -0.000073477               0.005660811               0.000083580              -0.000735153               0.002131969               0.001396816               0.000000000               0.000000000               0.000000000               0.000000000              -0.000082578               0.005487018               0.000051570              -0.000716842               0.002067935               0.001351093               0.000000000               0.000000000               0.000000000               0.000000000              -0.000100919               0.005318565               0.000023688              -0.000702664               0.002007058               0.001304395               0.000000000               0.000000000               0.000000000               0.000000000              -0.000112404               0.005218869               0.000006238              -0.000694508               0.001971108               0.001276600               0.000000000               0.000000000               0.000000000               0.000000000               0.000263943               0.004284843               0.002021398              -0.000436628               0.001573808               0.001137181               0.000000000               0.000000000               0.000000000               0.000000000              -0.000680169               0.005524145               0.001994314              -0.000945581               0.002156556               0.001210975               0.000000000               0.000000000               0.000000000               0.000000000              -0.001539419               0.006891034               0.001780402              -0.001438659               0.002776541               0.001337882               0.000000000               0.000000000               0.000000000               0.000000000              -0.001577322               0.007239017               0.001445769              -0.001496370               0.002911771               0.001415402               0.000000000               0.000000000               0.000000000               0.000000000              -0.001408576               0.007239007               0.001169973              -0.001433089               0.002890674               0.001457586               0.000000000               0.000000000               0.000000000               0.000000000              -0.001184871               0.007107683               0.000958728              -0.001332784               0.002813465               0.001480681               0.000000000               0.000000000               0.000000000               0.000000000              -0.000953523               0.006920338               0.000794066              -0.001222611               0.002714293               0.001491683               0.000000000               0.000000000               0.000000000               0.000000000              -0.000738196               0.006713490               0.000662323              -0.001116007               0.002609810               0.001493803               0.000000000               0.000000000               0.000000000               0.000000000              -0.000548865               0.006508647               0.000550298              -0.001019403               0.002509328               0.001489925               0.000000000               0.000000000               0.000000000               0.000000000              -0.000388387               0.006317168               0.000453446              -0.000935289               0.002417465               0.001482176               0.000000000               0.000000000               0.000000000               0.000000000              -0.000258167               0.006134445               0.000366002              -0.000863616               0.002332666               0.001469050               0.000000000               0.000000000               0.000000000               0.000000000              -0.000162206               0.005964328               0.000284448              -0.000806366               0.002256878               0.001450512               0.000000000               0.000000000               0.000000000               0.000000000              -0.000106959               0.005795646               0.000211751              -0.000764564               0.002186717               0.001422154               0.000000000               0.000000000               0.000000000               0.000000000              -0.000097594               0.005598666               0.000143231              -0.000736429               0.002111680               0.001375251               0.000000000               0.000000000               0.000000000               0.000000000              -0.000128922               0.005392743               0.000081966              -0.000722437               0.002038375               0.001315939               0.000000000               0.000000000               0.000000000               0.000000000              -0.000191630               0.005191333               0.000035649              -0.000720776               0.001970686               0.001249910               0.000000000               0.000000000               0.000000000               0.000000000              -0.000233443               0.005081128               0.000013211              -0.000722680               0.001934586               0.001211906               0.000000000               0.000000000               0.000000000               0.000000000              -0.000673711               0.002835699               0.001372072              -0.000607104               0.001147591               0.000540487               0.000000000               0.000000000               0.000000000               0.000000000              -0.001055985               0.004266369               0.001812511              -0.000929289               0.001731871               0.000802582               0.000000000               0.000000000               0.000000000               0.000000000              -0.001603612               0.005820629               0.002030758              -0.001328931               0.002383167               0.001054236               0.000000000               0.000000000               0.000000000               0.000000000              -0.001587581               0.006437714               0.001812745              -0.001400054               0.002612567               0.001212513               0.000000000               0.000000000               0.000000000               0.000000000              -0.001410927               0.006654101               0.001546860              -0.001360857               0.002671630               0.001310773               0.000000000               0.000000000               0.000000000               0.000000000              -0.001193719               0.006684659               0.001313278              -0.001283224               0.002655939               0.001372714               0.000000000               0.000000000               0.000000000               0.000000000              -0.000971296               0.006624368               0.001115145              -0.001192279               0.002605527               0.001413248               0.000000000               0.000000000               0.000000000               0.000000000              -0.000761706               0.006515088               0.000950030              -0.001100023               0.002538349               0.001438325               0.000000000               0.000000000               0.000000000               0.000000000              -0.000565051               0.006384777               0.000812143              -0.001009989               0.002464900               0.001454911               0.000000000               0.000000000               0.000000000               0.000000000              -0.000389456               0.006247089               0.000690935              -0.000926930               0.002391319               0.001464389               0.000000000               0.000000000               0.000000000               0.000000000              -0.000247968               0.006100257               0.000578003              -0.000855518               0.002318571               0.001463053               0.000000000               0.000000000               0.000000000               0.000000000              -0.000136105               0.005957401               0.000467335              -0.000795713               0.002251018               0.001455306               0.000000000               0.000000000               0.000000000               0.000000000              -0.000066546               0.005804959               0.000360776              -0.000750573               0.002185158               0.001434585               0.000000000               0.000000000               0.000000000               0.000000000              -0.000055182               0.005613991               0.000256603              -0.000722440               0.002112125               0.001389685               0.000000000               0.000000000               0.000000000               0.000000000              -0.000091263               0.005409744               0.000154242              -0.000710440               0.002040043               0.001329603               0.000000000               0.000000000               0.000000000               0.000000000              -0.000174839               0.005202028               0.000066495              -0.000715816               0.001972598               0.001256781               0.000000000               0.000000000               0.000000000               0.000000000              -0.000243728               0.005085196               0.000023324              -0.000727046               0.001937397               0.001210351               0.000000000               0.000000000               0.000000000               0.000000000              -0.001791346               0.001629388               0.000752468              -0.000875427               0.000834932              -0.000040495               0.000000000               0.000000000               0.000000000               0.000000000              -0.001531012               0.003082288               0.001542988              -0.000959414               0.001347223               0.000387809               0.000000000               0.000000000               0.000000000               0.000000000              -0.001627991               0.004627561               0.002111189              -0.001188940               0.001938817               0.000749877               0.000000000               0.000000000               0.000000000               0.000000000              -0.001493583               0.005431704               0.002041845              -0.001239055               0.002223568               0.000984513               0.000000000               0.000000000               0.000000000               0.000000000              -0.001293485               0.005848704               0.001826530              -0.001216143               0.002354929               0.001138786               0.000000000               0.000000000               0.000000000               0.000000000              -0.001086429               0.006054454               0.001597842              -0.001164216               0.002406203               0.001241987               0.000000000               0.000000000               0.000000000               0.000000000              -0.000882579               0.006140797               0.001386962              -0.001098564               0.002413100               0.001314535               0.000000000               0.000000000               0.000000000               0.000000000              -0.000686685               0.006155022               0.001206161              -0.001026882               0.002393947               0.001367065               0.000000000               0.000000000               0.000000000               0.000000000              -0.000498705               0.006120899               0.001055937              -0.000952125               0.002357654               0.001405529               0.000000000               0.000000000               0.000000000               0.000000000              -0.000321689               0.006056327               0.000919451              -0.000877672               0.002311313               0.001433641               0.000000000               0.000000000               0.000000000               0.000000000              -0.000169318               0.005970492               0.000789205              -0.000809804               0.002260079               0.001450275               0.000000000               0.000000000               0.000000000               0.000000000              -0.000044607               0.005871655               0.000662690              -0.000750683               0.002207426               0.001456744               0.000000000               0.000000000               0.000000000               0.000000000               0.000046259               0.005752350               0.000531463              -0.000701695               0.002151329               0.001449634               0.000000000               0.000000000               0.000000000               0.000000000               0.000080232               0.005591467               0.000392843              -0.000668845               0.002086752               0.001417907               0.000000000               0.000000000               0.000000000               0.000000000               0.000057535               0.005402253               0.000251995              -0.000653704               0.002018634               0.001364930               0.000000000               0.000000000               0.000000000               0.000000000              -0.000018646               0.005197849               0.000118510              -0.000656722               0.001951506               0.001294784               0.000000000               0.000000000               0.000000000               0.000000000              -0.000091187               0.005080668               0.000048932              -0.000669277               0.001916632               0.001247354               0.000000000               0.000000000               0.000000000               0.000000000              -0.003005137               0.000724893               0.000236950              -0.001217536               0.000647472              -0.000570064               0.000000000               0.000000000               0.000000000               0.000000000              -0.002072024               0.002031400               0.001215451              -0.001030932               0.001020770              -0.000010163               0.000000000               0.000000000               0.000000000               0.000000000              -0.001634709               0.003407556               0.002005073              -0.001038959               0.001482159               0.000443200               0.000000000               0.000000000               0.000000000               0.000000000              -0.001327358               0.004307797               0.002073843              -0.001036233               0.001781328               0.000745095               0.000000000               0.000000000               0.000000000               0.000000000              -0.001079929               0.004885985               0.001929423              -0.001015720               0.001967218               0.000951498               0.000000000               0.000000000               0.000000000               0.000000000              -0.000872316               0.005255798               0.001732797              -0.000984092               0.002079945               0.001095853               0.000000000               0.000000000               0.000000000               0.000000000              -0.000686718               0.005490050               0.001536192              -0.000943774               0.002144589               0.001200815               0.000000000               0.000000000               0.000000000               0.000000000              -0.000508065               0.005636431               0.001361820              -0.000895077               0.002177150               0.001282074               0.000000000               0.000000000               0.000000000               0.000000000              -0.000338426               0.005717435               0.001212384              -0.000841587               0.002186321               0.001344734               0.000000000               0.000000000               0.000000000               0.000000000              -0.000175119               0.005747088               0.001076208              -0.000784054               0.002177028               0.001392974               0.000000000               0.000000000               0.000000000               0.000000000              -0.000019058               0.005739163               0.000945334              -0.000724541               0.002154549               0.001430008               0.000000000               0.000000000               0.000000000               0.000000000               0.000119981               0.005706500               0.000817125              -0.000668318               0.002124920               0.001456602               0.000000000               0.000000000               0.000000000               0.000000000               0.000231088               0.005638788               0.000679545              -0.000618189               0.002085640               0.001467451               0.000000000               0.000000000               0.000000000               0.000000000               0.000301470               0.005518081               0.000525681              -0.000576707               0.002031578               0.001454870               0.000000000               0.000000000               0.000000000               0.000000000               0.000322097               0.005359710               0.000359838              -0.000549176               0.001969611               0.001420435               0.000000000               0.000000000               0.000000000               0.000000000               0.000283825               0.005181657               0.000183458              -0.000541271               0.001907625               0.001366354               0.000000000               0.000000000               0.000000000               0.000000000               0.000229962               0.005078573               0.000087074              -0.000548585               0.001875702               0.001327118               0.000000000               0.000000000               0.000000000               0.000000000              -0.004192800               0.000113172              -0.000101362              -0.001586445               0.000566535              -0.001019910               0.000000000               0.000000000               0.000000000               0.000000000              -0.002627114               0.001169871               0.000871120              -0.001131400               0.000767085              -0.000364316               0.000000000               0.000000000               0.000000000               0.000000000              -0.001639042               0.002281141               0.001707775              -0.000899782               0.001060299               0.000160517               0.000000000               0.000000000               0.000000000               0.000000000              -0.001130179               0.003192584               0.001867402              -0.000822889               0.001338479               0.000515590               0.000000000               0.000000000               0.000000000               0.000000000              -0.000817412               0.003875976               0.001795184              -0.000791026               0.001555654               0.000764628               0.000000000               0.000000000               0.000000000               0.000000000              -0.000594035               0.004378431               0.001649616              -0.000770066               0.001716151               0.000946084               0.000000000               0.000000000               0.000000000               0.000000000              -0.000412390               0.004746640               0.001490657              -0.000747975               0.001831522               0.001083547               0.000000000               0.000000000               0.000000000               0.000000000              -0.000251041               0.005018267               0.001342328              -0.000721423               0.001913213               0.001191790               0.000000000               0.000000000               0.000000000               0.000000000              -0.000100942               0.005215335               0.001210364              -0.000689769               0.001968350               0.001278581               0.000000000               0.000000000               0.000000000               0.000000000               0.000045695               0.005348208               0.001091566              -0.000651389               0.001999848               0.001348459               0.000000000               0.000000000               0.000000000               0.000000000               0.000195419               0.005431208               0.000976621              -0.000605618               0.002012257               0.001406639               0.000000000               0.000000000               0.000000000               0.000000000               0.000344684               0.005480628               0.000860482              -0.000555821               0.002012131               0.001456310               0.000000000               0.000000000               0.000000000               0.000000000               0.000480099               0.005478069               0.000736234              -0.000504720               0.001994245               0.001489524               0.000000000               0.000000000               0.000000000               0.000000000               0.000594156               0.005407592               0.000593421              -0.000453139               0.001953559               0.001500420               0.000000000               0.000000000               0.000000000               0.000000000               0.000682791               0.005295925               0.000426635              -0.000405943               0.001900605               0.001494662               0.000000000               0.000000000               0.000000000               0.000000000               0.000733510               0.005156852               0.000228767              -0.000369539               0.001842113               0.001472574               0.000000000               0.000000000               0.000000000               0.000000000               0.000749585               0.005078711               0.000120159              -0.000353744               0.001810801               0.001457058               0.000000000               0.000000000               0.000000000               0.000000000              -0.005198800              -0.000250621              -0.000229325              -0.001918221               0.000555863              -0.001362358               0.000000000               0.000000000               0.000000000               0.000000000              -0.003122634               0.000541321               0.000546842              -0.001238651               0.000593320              -0.000645332               0.000000000               0.000000000               0.000000000               0.000000000              -0.001656720               0.001372856               0.001242654              -0.000792876               0.000721905              -0.000070971               0.000000000               0.000000000               0.000000000               0.000000000              -0.000945800               0.002239718               0.001418365              -0.000634639               0.000958111               0.000323472               0.000000000               0.000000000               0.000000000               0.000000000              -0.000555735               0.002975067               0.001398639              -0.000580283               0.001185106               0.000604823               0.000000000               0.000000000               0.000000000               0.000000000              -0.000309565               0.003566958               0.001310286              -0.000561956               0.001376292               0.000814336               0.000000000               0.000000000               0.000000000               0.000000000              -0.000125507               0.004037105               0.001202425              -0.000551702               0.001529589               0.000977886               0.000000000               0.000000000               0.000000000               0.000000000               0.000024944               0.004407650               0.001095060              -0.000541601               0.001649736               0.001108134               0.000000000               0.000000000               0.000000000               0.000000000               0.000161328               0.004702148               0.000997923              -0.000527270               0.001743123               0.001215854               0.000000000               0.000000000               0.000000000               0.000000000               0.000293295               0.004929448               0.000910232              -0.000506194               0.001811864               0.001305670               0.000000000               0.000000000               0.000000000               0.000000000               0.000432821               0.005100366               0.000824716              -0.000475237               0.001858517               0.001383280               0.000000000               0.000000000               0.000000000               0.000000000               0.000587446               0.005228420               0.000736422              -0.000433260               0.001887209               0.001453949               0.000000000               0.000000000               0.000000000               0.000000000               0.000747653               0.005291036               0.000641638              -0.000381009               0.001890664               0.001509655               0.000000000               0.000000000               0.000000000               0.000000000               0.000908356               0.005279392               0.000529683              -0.000319290               0.001866210               0.001546920               0.000000000               0.000000000               0.000000000               0.000000000               0.001079861               0.005220938               0.000392396              -0.000247669               0.001822851               0.001575183               0.000000000               0.000000000               0.000000000               0.000000000               0.001258662               0.005122167               0.000218019              -0.000168272               0.001763463               0.001595191               0.000000000               0.000000000               0.000000000               0.000000000               0.001391320               0.005077045               0.000123853              -0.000112885               0.001729960               0.001617074               0.000000000               0.000000000               0.000000000               0.000000000              -0.005872714              -0.000429042              -0.000169512              -0.002148636               0.000573194              -0.001575442               0.000000000               0.000000000               0.000000000               0.000000000              -0.003467848               0.000166390               0.000258883              -0.001321241               0.000495873              -0.000825367               0.000000000               0.000000000               0.000000000               0.000000000              -0.001677877               0.000786572               0.000652855              -0.000727524               0.000504695              -0.000222829               0.000000000               0.000000000               0.000000000               0.000000000              -0.000816451               0.001594461               0.000767239              -0.000505476               0.000699973               0.000194497               0.000000000               0.000000000               0.000000000               0.000000000              -0.000359224               0.002343719               0.000769342              -0.000427673               0.000923789               0.000496116               0.000000000               0.000000000               0.000000000               0.000000000              -0.000088423               0.002984456               0.000730356              -0.000406215               0.001130214               0.000723998               0.000000000               0.000000000               0.000000000               0.000000000               0.000094599               0.003517170               0.000676805              -0.000404171               0.001307102               0.000902931               0.000000000               0.000000000               0.000000000               0.000000000               0.000239728               0.003954289               0.000620586              -0.000404387               0.001452879               0.001048491               0.000000000               0.000000000               0.000000000               0.000000000               0.000369309               0.004310668               0.000569224              -0.000400342               0.001570322               0.001169980               0.000000000               0.000000000               0.000000000               0.000000000               0.000494467               0.004598414               0.000522568              -0.000389376               0.001662581               0.001273205               0.000000000               0.000000000               0.000000000               0.000000000               0.000628140               0.004830973               0.000477629              -0.000368318               0.001733081               0.001364763               0.000000000               0.000000000               0.000000000               0.000000000               0.000783108               0.005017871               0.000430562              -0.000333568               0.001783796               0.001450229               0.000000000               0.000000000               0.000000000               0.000000000               0.000957830               0.005134165               0.000377957              -0.000282584               0.001805566               0.001522982               0.000000000               0.000000000               0.000000000               0.000000000               0.001154658               0.005168020               0.000316616              -0.000213005               0.001793658               0.001580653               0.000000000               0.000000000               0.000000000               0.000000000               0.001393926               0.005148317               0.000239043              -0.000120817               0.001756361               0.001635544               0.000000000               0.000000000               0.000000000               0.000000000               0.001688367               0.005085477               0.000134653              -0.000002547               0.001695991               0.001693444               0.000000000               0.000000000               0.000000000               0.000000000               0.001931677               0.005071490               0.000079957               0.000090442               0.001660333               0.001750774               0.000000000               0.000000000               0.000000000               0.000000000              -0.006110706              -0.000482508              -0.000000000              -0.002231200               0.000582893              -0.001648306               0.000000000               0.000000000               0.000000000               0.000000000              -0.003592141               0.000040171              -0.000000000              -0.001352073               0.000464078              -0.000887995               0.000000000               0.000000000               0.000000000               0.000000000              -0.001686222               0.000584106               0.000000000              -0.000705345               0.000429814              -0.000275531               0.000000000               0.000000000               0.000000000               0.000000000              -0.000769201               0.001367675               0.000000000              -0.000459409               0.000609023               0.000149614               0.000000000               0.000000000               0.000000000               0.000000000              -0.000286127               0.002116816               0.000000000              -0.000371899               0.000829565               0.000457666               0.000000000               0.000000000               0.000000000               0.000000000              -0.000003986               0.002773047               0.000000000              -0.000348125               0.001040381               0.000692256               0.000000000               0.000000000               0.000000000               0.000000000               0.000177874               0.003324394               0.000000000              -0.000348846               0.001224402               0.000875557               0.000000000               0.000000000               0.000000000               0.000000000               0.000320489               0.003783502               0.000000000              -0.000352754               0.001378739               0.001025986               0.000000000               0.000000000               0.000000000               0.000000000               0.000448112               0.004162114              -0.000000000              -0.000352222               0.001504765               0.001152543               0.000000000               0.000000000               0.000000000               0.000000000               0.000573678               0.004470163               0.000000000              -0.000343640               0.001604586               0.001260946               0.000000000               0.000000000               0.000000000               0.000000000               0.000706354               0.004724901               0.000000000              -0.000325729               0.001683528               0.001357798               0.000000000               0.000000000               0.000000000               0.000000000               0.000860519               0.004935352               0.000000000              -0.000294224               0.001743176               0.001448952               0.000000000               0.000000000               0.000000000               0.000000000               0.001038857               0.005074215               0.000000000              -0.000244705               0.001772956               0.001528252               0.000000000               0.000000000               0.000000000               0.000000000               0.001250004               0.005125367              -0.000000000              -0.000171919               0.001765745               0.001593826               0.000000000               0.000000000               0.000000000               0.000000000               0.001512709               0.005117756               0.000000000              -0.000072453               0.001730053               0.001657599               0.000000000               0.000000000               0.000000000               0.000000000               0.001853643               0.005069277               0.000000000               0.000061456               0.001669257               0.001730713               0.000000000               0.000000000               0.000000000               0.000000000               0.002142857               0.005068223               0.000000000               0.000170042               0.001632710               0.001802752               0.000000000               0.000000000               0.000000000               0.000000000               0.001691724               0.018837744              -0.000000000              -0.001720317               0.006852624               0.005132307               0.000000000               0.000000000               0.000000000               0.000000000               0.001714528               0.014972619              -0.000000000              -0.001228627               0.005400365               0.004171739               0.000000000               0.000000000               0.000000000               0.000000000               0.002280990               0.011861782              -0.000000000              -0.000627350               0.004163005               0.003535654               0.000000000               0.000000000               0.000000000               0.000000000               0.002224805               0.010141690               0.000000000              -0.000433408               0.003524999               0.003091591               0.000000000               0.000000000               0.000000000               0.000000000               0.001971724               0.009088515               0.000000000              -0.000396667               0.003161697               0.002765030               0.000000000               0.000000000               0.000000000               0.000000000               0.001680296               0.008387720               0.000000000              -0.000418353               0.002935330               0.002516977               0.000000000               0.000000000               0.000000000               0.000000000               0.001400577               0.007873136               0.000000000              -0.000458925               0.002777327               0.002318403               0.000000000               0.000000000               0.000000000               0.000000000               0.001153288               0.007468958               0.000000000              -0.000501135               0.002656673               0.002155537               0.000000000               0.000000000               0.000000000               0.000000000               0.000940724               0.007143504              -0.000000000              -0.000540165               0.002561199               0.002021034               0.000000000               0.000000000               0.000000000               0.000000000               0.000745497               0.006864811              -0.000000000              -0.000578539               0.002481094               0.001902555               0.000000000               0.000000000               0.000000000               0.000000000               0.000566117               0.006607927              -0.000000000              -0.000613695               0.002407185               0.001793490               0.000000000               0.000000000               0.000000000               0.000000000               0.000409141               0.006357290              -0.000000000              -0.000641232               0.002332820               0.001691588               0.000000000               0.000000000               0.000000000               0.000000000               0.000276507               0.006102525               0.000000000              -0.000659124               0.002253862               0.001594739               0.000000000               0.000000000               0.000000000               0.000000000               0.000171000               0.005833895               0.000000000              -0.000665110               0.002166316               0.001501205               0.000000000               0.000000000               0.000000000               0.000000000               0.000090183               0.005535542              -0.000000000              -0.000658123               0.002064536               0.001406414               0.000000000               0.000000000               0.000000000               0.000000000               0.000035535               0.005192830              -0.000000000              -0.000635776               0.001942851               0.001307075               0.000000000               0.000000000               0.000000000               0.000000000              -0.000012213               0.004927409              -0.000000000              -0.000620504               0.001849288               0.001228784               0.000000000               0.000000000               0.000000000               0.000000000               0.001762855               0.018465768              -0.001314922              -0.001647147               0.006704243               0.005057097               0.000000000               0.000000000               0.000000000               0.000000000               0.001697575               0.014728503              -0.000703883              -0.001204469               0.005310942               0.004106472               0.000000000               0.000000000               0.000000000               0.000000000               0.002168281               0.011752477              -0.000090120              -0.000655953               0.004136104               0.003480151               0.000000000               0.000000000               0.000000000               0.000000000               0.002074046               0.010100973               0.000172253              -0.000484853               0.003528575               0.003043722               0.000000000               0.000000000               0.000000000               0.000000000               0.001815553               0.009085980               0.000281940              -0.000454914               0.003180268               0.002725354               0.000000000               0.000000000               0.000000000               0.000000000               0.001529109               0.008402127               0.000320425              -0.000476849               0.002959631               0.002482782               0.000000000               0.000000000               0.000000000               0.000000000               0.001257550               0.007897709               0.000323240              -0.000515631               0.002804420               0.002288789               0.000000000               0.000000000               0.000000000               0.000000000               0.001021038               0.007501516               0.000315444              -0.000554799               0.002685413               0.002130614               0.000000000               0.000000000               0.000000000               0.000000000               0.000818541               0.007177307               0.000305341              -0.000590209               0.002589148               0.001998939               0.000000000               0.000000000               0.000000000               0.000000000               0.000638449               0.006899387               0.000290349              -0.000623004               0.002507440               0.001884437               0.000000000               0.000000000               0.000000000               0.000000000               0.000478788               0.006644133               0.000270381              -0.000650970               0.002431679               0.001780709               0.000000000               0.000000000               0.000000000               0.000000000               0.000340322               0.006394260               0.000248830              -0.000671660               0.002355285               0.001683625               0.000000000               0.000000000               0.000000000               0.000000000               0.000226553               0.006144438               0.000226215              -0.000683096               0.002275824               0.001592728               0.000000000               0.000000000               0.000000000               0.000000000               0.000139729               0.005886335               0.000196037              -0.000683392               0.002189889               0.001506497               0.000000000               0.000000000               0.000000000               0.000000000               0.000075643               0.005607444               0.000153260              -0.000672563               0.002093317               0.001420754               0.000000000               0.000000000               0.000000000               0.000000000               0.000030528               0.005293717               0.000089507              -0.000650265               0.001981310               0.001331045               0.000000000               0.000000000               0.000000000               0.000000000              -0.000011643               0.005056483               0.000055414              -0.000636425               0.001897619               0.001261194               0.000000000               0.000000000               0.000000000               0.000000000               0.001944079               0.017400463              -0.002456912              -0.001446026               0.006282104               0.004836079               0.000000000               0.000000000               0.000000000               0.000000000               0.001635104               0.014033169              -0.001319793              -0.001140980               0.005058003               0.003917023               0.000000000               0.000000000               0.000000000               0.000000000               0.001843845               0.011439770              -0.000187972              -0.000738528               0.004059395               0.003320867               0.000000000               0.000000000               0.000000000               0.000000000               0.001653521               0.009980366               0.000283709              -0.000627474               0.003535913               0.002908439               0.000000000               0.000000000               0.000000000               0.000000000               0.001380636               0.009065410               0.000473987              -0.000615436               0.003226919               0.002611482               0.000000000               0.000000000               0.000000000               0.000000000               0.001113482               0.008428481               0.000536798              -0.000636003               0.003021467               0.002385464               0.000000000               0.000000000               0.000000000               0.000000000               0.000875146               0.007950501               0.000541558              -0.000665631               0.002872017               0.002206386               0.000000000               0.000000000               0.000000000               0.000000000               0.000674526               0.007572033               0.000526431              -0.000693555               0.002755171               0.002061616               0.000000000               0.000000000               0.000000000               0.000000000               0.000509667               0.007255697               0.000508281              -0.000715835               0.002657153               0.001941318               0.000000000               0.000000000               0.000000000               0.000000000               0.000374920               0.006977333               0.000485921              -0.000731570               0.002569611               0.001838041               0.000000000               0.000000000               0.000000000               0.000000000               0.000265273               0.006721253               0.000454130              -0.000740678               0.002487288               0.001746610               0.000000000               0.000000000               0.000000000               0.000000000               0.000178734               0.006478810               0.000419296              -0.000742824               0.002407190               0.001664366               0.000000000               0.000000000               0.000000000               0.000000000               0.000113071               0.006244670               0.000381459              -0.000738180               0.002327596               0.001589416               0.000000000               0.000000000               0.000000000               0.000000000               0.000063420               0.006012487               0.000329682              -0.000727777               0.002246734               0.001518958               0.000000000               0.000000000               0.000000000               0.000000000               0.000029334               0.005780633               0.000254510              -0.000711577               0.002164051               0.001452474               0.000000000               0.000000000               0.000000000               0.000000000               0.000007554               0.005546468               0.000145795              -0.000690474               0.002078962               0.001388488               0.000000000               0.000000000               0.000000000               0.000000000              -0.000015346               0.005388193               0.000087299              -0.000679277               0.002022472               0.001343195               0.000000000               0.000000000               0.000000000               0.000000000               0.002154287               0.015785786              -0.003298881              -0.001165365               0.005650330               0.004484966               0.000000000               0.000000000               0.000000000               0.000000000               0.001502462               0.012990672              -0.001788400              -0.001060409               0.004683650               0.003623241               0.000000000               0.000000000               0.000000000               0.000000000               0.001348176               0.010971551              -0.000302426              -0.000865876               0.003945772               0.003079897               0.000000000               0.000000000               0.000000000               0.000000000               0.001047264               0.009786822               0.000291688              -0.000830627               0.003539117               0.002708490               0.000000000               0.000000000               0.000000000               0.000000000               0.000771439               0.009002882               0.000521857              -0.000836068               0.003279620               0.002443552               0.000000000               0.000000000               0.000000000               0.000000000               0.000547964               0.008430086               0.000594635              -0.000848272               0.003092758               0.002244486               0.000000000               0.000000000               0.000000000               0.000000000               0.000369314               0.007985048               0.000600293              -0.000859636               0.002948201               0.002088565               0.000000000               0.000000000               0.000000000               0.000000000               0.000230117               0.007623020               0.000582880              -0.000866582               0.002829842               0.001963260               0.000000000               0.000000000               0.000000000               0.000000000               0.000129906               0.007315485               0.000559534              -0.000865719               0.002727044               0.001861325               0.000000000               0.000000000               0.000000000               0.000000000               0.000062343               0.007037045               0.000531433              -0.000856250               0.002631075               0.001774825               0.000000000               0.000000000               0.000000000               0.000000000               0.000020786               0.006780940               0.000495636              -0.000839821               0.002540231               0.001700410               0.000000000               0.000000000               0.000000000               0.000000000              -0.000002313               0.006546154               0.000454744              -0.000819135               0.002455074               0.001635940               0.000000000               0.000000000               0.000000000               0.000000000              -0.000012564               0.006329825               0.000406705              -0.000795938               0.002375233               0.001579295               0.000000000               0.000000000               0.000000000               0.000000000              -0.000015344               0.006133061               0.000342306              -0.000772385               0.002301795               0.001529410               0.000000000               0.000000000               0.000000000               0.000000000              -0.000012752               0.005958398               0.000253983              -0.000749580               0.002235973               0.001486393               0.000000000               0.000000000               0.000000000               0.000000000              -0.000007741               0.005816475               0.000138337              -0.000729960               0.002182126               0.001452165               0.000000000               0.000000000               0.000000000               0.000000000              -0.000009628               0.005743973               0.000076358              -0.000721605               0.002155174               0.001433568               0.000000000               0.000000000               0.000000000               0.000000000               0.002289209               0.013820272              -0.003773237              -0.000869082               0.004896404               0.004027323               0.000000000               0.000000000               0.000000000               0.000000000               0.001277703               0.011741690              -0.002085128              -0.000988571               0.004243381               0.003254810               0.000000000               0.000000000               0.000000000               0.000000000               0.000740593               0.010403787              -0.000444082              -0.001022749               0.003808810               0.002786062               0.000000000               0.000000000               0.000000000               0.000000000               0.000359103               0.009518278               0.000180314              -0.001055118               0.003524434               0.002469315               0.000000000               0.000000000               0.000000000               0.000000000               0.000116061               0.008870713               0.000415178              -0.001065314               0.003311979               0.002246666               0.000000000               0.000000000               0.000000000               0.000000000              -0.000035420               0.008364346               0.000489422              -0.001058823               0.003141029               0.002082205               0.000000000               0.000000000               0.000000000               0.000000000              -0.000132019               0.007952307               0.000498337              -0.001043543               0.002998590               0.001955047               0.000000000               0.000000000               0.000000000               0.000000000              -0.000189103               0.007604203               0.000486100              -0.001021436               0.002875188               0.001853751               0.000000000               0.000000000               0.000000000               0.000000000              -0.000212845               0.007300688               0.000466335              -0.000992400               0.002764338               0.001771938               0.000000000               0.000000000               0.000000000               0.000000000              -0.000209690               0.007026135               0.000438538              -0.000956898               0.002660988               0.001704089               0.000000000               0.000000000               0.000000000               0.000000000              -0.000188294               0.006775487               0.000404018              -0.000917544               0.002564321               0.001646777               0.000000000               0.000000000               0.000000000               0.000000000              -0.000154781               0.006552474               0.000363347              -0.000877100               0.002476503               0.001599403               0.000000000               0.000000000               0.000000000               0.000000000              -0.000116165               0.006356692               0.000315222              -0.000838146               0.002398258               0.001560112               0.000000000               0.000000000               0.000000000               0.000000000              -0.000076812               0.006189673               0.000252520              -0.000802512               0.002330708               0.001528196               0.000000000               0.000000000               0.000000000               0.000000000              -0.000040927               0.006056461               0.000173671              -0.000772403               0.002276268               0.001503865               0.000000000               0.000000000               0.000000000               0.000000000              -0.000016818               0.005967905               0.000085971              -0.000752293               0.002240046               0.001487753               0.000000000               0.000000000               0.000000000               0.000000000              -0.000008569               0.005937370               0.000041427              -0.000745383               0.002227564               0.001482182               0.000000000               0.000000000               0.000000000               0.000000000               0.002253713               0.011693040              -0.003882102              -0.000616490               0.004103136               0.003486647               0.000000000               0.000000000               0.000000000               0.000000000               0.000951136               0.010412345              -0.002227730              -0.000944866               0.003785702               0.002840835               0.000000000               0.000000000               0.000000000               0.000000000               0.000092425               0.009779204              -0.000629557              -0.001187738               0.003655615               0.002467876               0.000000000               0.000000000               0.000000000               0.000000000              -0.000304639               0.009176385              -0.000043445              -0.001261285               0.003479193               0.002217908               0.000000000               0.000000000               0.000000000               0.000000000              -0.000473055               0.008651494               0.000180288              -0.001258829               0.003303412               0.002044583               0.000000000               0.000000000               0.000000000               0.000000000              -0.000527328               0.008208356               0.000259526              -0.001223790               0.003144021               0.001920232               0.000000000               0.000000000               0.000000000               0.000000000              -0.000528762               0.007827919               0.000280975              -0.001176773               0.003001538               0.001824765               0.000000000               0.000000000               0.000000000               0.000000000              -0.000496775               0.007493582               0.000283700              -0.001122986               0.002872164               0.001749179               0.000000000               0.000000000               0.000000000               0.000000000              -0.000444818               0.007195263               0.000279599              -0.001066212               0.002753801               0.001687589               0.000000000               0.000000000               0.000000000               0.000000000              -0.000381688               0.006927213               0.000263797              -0.001009032               0.002645392               0.001636360               0.000000000               0.000000000               0.000000000               0.000000000              -0.000312030               0.006688655               0.000240994              -0.000953091               0.002547226               0.001594135               0.000000000               0.000000000               0.000000000               0.000000000              -0.000242682               0.006483297               0.000211687              -0.000901415               0.002461549               0.001560134               0.000000000               0.000000000               0.000000000               0.000000000              -0.000177781               0.006306770               0.000173467              -0.000855012               0.002387240               0.001532228               0.000000000               0.000000000               0.000000000               0.000000000              -0.000113667               0.006157275               0.000127338              -0.000812283               0.002323165               0.001510883               0.000000000               0.000000000               0.000000000               0.000000000              -0.000058518               0.006043255               0.000076238              -0.000777349               0.002273514               0.001496165               0.000000000               0.000000000               0.000000000               0.000000000              -0.000022093               0.005971154               0.000030859              -0.000754677               0.002241924               0.001487247               0.000000000               0.000000000               0.000000000               0.000000000              -0.000011314               0.005942320               0.000013387              -0.000747031               0.002229764               0.001482733               0.000000000               0.000000000               0.000000000               0.000000000               0.001997973               0.009569445              -0.003678750              -0.000446944               0.003338763               0.002891820               0.000000000               0.000000000               0.000000000               0.000000000               0.000542271               0.009100840              -0.002253630              -0.000934253               0.003345000               0.002410747               0.000000000               0.000000000               0.000000000               0.000000000              -0.000516758               0.009130241              -0.000864472              -0.001335061               0.003488404               0.002153342               0.000000000               0.000000000               0.000000000               0.000000000              -0.000855246               0.008771306              -0.000351972              -0.001417127               0.003396115               0.001978988               0.000000000               0.000000000               0.000000000               0.000000000              -0.000916627               0.008355084              -0.000133685              -0.001388117               0.003247706               0.001859589               0.000000000               0.000000000               0.000000000               0.000000000              -0.000864941               0.007969292              -0.000034479              -0.001320511               0.003096574               0.001776063               0.000000000               0.000000000               0.000000000               0.000000000              -0.000775538               0.007616696               0.000012352              -0.001242911               0.002953177               0.001710266               0.000000000               0.000000000               0.000000000               0.000000000              -0.000665908               0.007298147               0.000040816              -0.001161981               0.002820018               0.001658038               0.000000000               0.000000000               0.000000000               0.000000000              -0.000549391               0.007009859               0.000061003              -0.001082251               0.002697347               0.001615095               0.000000000               0.000000000               0.000000000               0.000000000              -0.000440513               0.006750298               0.000067519              -0.001008977               0.002586403               0.001577426               0.000000000               0.000000000               0.000000000               0.000000000              -0.000343973               0.006524185               0.000065577              -0.000944510               0.002489543               0.001545033               0.000000000               0.000000000               0.000000000               0.000000000              -0.000255701               0.006330827               0.000058533              -0.000887239               0.002406001               0.001518762               0.000000000               0.000000000               0.000000000               0.000000000              -0.000176023               0.006164269               0.000041526              -0.000836540               0.002333582               0.001497042               0.000000000               0.000000000               0.000000000               0.000000000              -0.000108834               0.006026385               0.000019628              -0.000794109               0.002273478               0.001479369               0.000000000               0.000000000               0.000000000               0.000000000              -0.000057620               0.005924037               0.000003032              -0.000762110               0.002228696               0.001466586               0.000000000               0.000000000               0.000000000               0.000000000              -0.000023037               0.005850048              -0.000004414              -0.000739893               0.002196628               0.001456735               0.000000000               0.000000000               0.000000000               0.000000000              -0.000018402               0.005803860              -0.000000139              -0.000732381               0.002178728               0.001446346               0.000000000               0.000000000               0.000000000               0.000000000               0.001537358               0.007583648              -0.003237219              -0.000371449               0.002651673               0.002280223               0.000000000               0.000000000               0.000000000               0.000000000               0.000081402               0.007881394              -0.002198664              -0.000954648               0.002945320               0.001990673               0.000000000               0.000000000               0.000000000               0.000000000              -0.001023911               0.008467719              -0.001139113              -0.001442428               0.003303354               0.001860926               0.000000000               0.000000000               0.000000000               0.000000000              -0.001243239               0.008312893              -0.000696324              -0.001505322               0.003272711               0.001767388               0.000000000               0.000000000               0.000000000               0.000000000              -0.001187277               0.008001161              -0.000466670              -0.001445370               0.003148817               0.001703447               0.000000000               0.000000000               0.000000000               0.000000000              -0.001041845               0.007669517              -0.000334263              -0.001349378               0.003006273               0.001656895               0.000000000               0.000000000               0.000000000               0.000000000              -0.000874511               0.007347868              -0.000250616              -0.001246422               0.002864739               0.001618317               0.000000000               0.000000000               0.000000000               0.000000000              -0.000708490               0.007047868              -0.000189663              -0.001146664               0.002731487               0.001584823               0.000000000               0.000000000               0.000000000               0.000000000              -0.000553695               0.006772566              -0.000141878              -0.001054204               0.002608901               0.001554697               0.000000000               0.000000000               0.000000000               0.000000000              -0.000418140               0.006526397              -0.000106559              -0.000972600               0.002499644               0.001527044               0.000000000               0.000000000               0.000000000               0.000000000              -0.000305075               0.006311516              -0.000078696              -0.000903341               0.002404931               0.001501591               0.000000000               0.000000000               0.000000000               0.000000000              -0.000212750               0.006122891              -0.000057944              -0.000845141               0.002322657               0.001477516               0.000000000               0.000000000               0.000000000               0.000000000              -0.000142216               0.005961285              -0.000048519              -0.000798490               0.002253238               0.001454749               0.000000000               0.000000000               0.000000000               0.000000000              -0.000089726               0.005826770              -0.000040711              -0.000761992               0.002196234               0.001434243               0.000000000               0.000000000               0.000000000               0.000000000              -0.000052157               0.005707604              -0.000025739              -0.000733007               0.002146851               0.001413844               0.000000000               0.000000000               0.000000000               0.000000000              -0.000026541               0.005594639              -0.000009990              -0.000709281               0.002101288               0.001392007               0.000000000               0.000000000               0.000000000               0.000000000              -0.000027171               0.005516455               0.000005192              -0.000699744               0.002072048               0.001372304               0.000000000               0.000000000               0.000000000               0.000000000               0.000961929               0.005880965              -0.002655231              -0.000374399               0.002085101               0.001710702               0.000000000               0.000000000               0.000000000               0.000000000              -0.000349703               0.006785321              -0.002108433              -0.000979303               0.002588185               0.001608882               0.000000000               0.000000000               0.000000000               0.000000000              -0.001383176               0.007825523              -0.001450106              -0.001496878               0.003107441               0.001610562               0.000000000               0.000000000               0.000000000               0.000000000              -0.001478509               0.007883794              -0.001053958              -0.001539912               0.003141209               0.001601297               0.000000000               0.000000000               0.000000000               0.000000000              -0.001335181               0.007690234              -0.000799879              -0.001461968               0.003050709               0.001588740               0.000000000               0.000000000               0.000000000               0.000000000              -0.001124263               0.007425782              -0.000627136              -0.001349818               0.002925175               0.001575357               0.000000000               0.000000000               0.000000000               0.000000000              -0.000903490               0.007143745              -0.000503872              -0.001231774               0.002791816               0.001560042               0.000000000               0.000000000               0.000000000               0.000000000              -0.000698541               0.006868268              -0.000409723              -0.001120484               0.002662894               0.001542411               0.000000000               0.000000000               0.000000000               0.000000000              -0.000519048               0.006613068              -0.000330864              -0.001021274               0.002544759               0.001523485               0.000000000               0.000000000               0.000000000               0.000000000              -0.000367026               0.006383900              -0.000263670              -0.000935620               0.002439819               0.001504199               0.000000000               0.000000000               0.000000000               0.000000000              -0.000246140               0.006176407              -0.000206621              -0.000864351               0.002346899               0.001482548               0.000000000               0.000000000               0.000000000               0.000000000              -0.000157415               0.005990899              -0.000156519              -0.000807891               0.002266243               0.001458353               0.000000000               0.000000000               0.000000000               0.000000000              -0.000097383               0.005826879              -0.000116392              -0.000764877               0.002197233               0.001432356               0.000000000               0.000000000               0.000000000               0.000000000              -0.000073477               0.005660811              -0.000083580              -0.000735153               0.002131969               0.001396816               0.000000000               0.000000000               0.000000000               0.000000000              -0.000082578               0.005487018              -0.000051570              -0.000716842               0.002067935               0.001351093               0.000000000               0.000000000               0.000000000               0.000000000              -0.000100919               0.005318565              -0.000023688              -0.000702664               0.002007058               0.001304395               0.000000000               0.000000000               0.000000000               0.000000000              -0.000112404               0.005218869              -0.000006238              -0.000694508               0.001971108               0.001276600               0.000000000               0.000000000               0.000000000               0.000000000               0.000263943               0.004284843              -0.002021398              -0.000436628               0.001573808               0.001137181               0.000000000               0.000000000               0.000000000               0.000000000              -0.000680169               0.005524145              -0.001994314              -0.000945581               0.002156556               0.001210975               0.000000000               0.000000000               0.000000000               0.000000000              -0.001539419               0.006891034              -0.001780402              -0.001438659               0.002776541               0.001337882               0.000000000               0.000000000               0.000000000               0.000000000              -0.001577322               0.007239017              -0.001445769              -0.001496370               0.002911771               0.001415402               0.000000000               0.000000000               0.000000000               0.000000000              -0.001408576               0.007239007              -0.001169973              -0.001433089               0.002890674               0.001457586               0.000000000               0.000000000               0.000000000               0.000000000              -0.001184871               0.007107683              -0.000958728              -0.001332784               0.002813465               0.001480681               0.000000000               0.000000000               0.000000000               0.000000000              -0.000953523               0.006920338              -0.000794066              -0.001222611               0.002714293               0.001491683               0.000000000               0.000000000               0.000000000               0.000000000              -0.000738196               0.006713490              -0.000662323              -0.001116007               0.002609810               0.001493803               0.000000000               0.000000000               0.000000000               0.000000000              -0.000548865               0.006508647              -0.000550298              -0.001019403               0.002509328               0.001489925               0.000000000               0.000000000               0.000000000               0.000000000              -0.000388387               0.006317168              -0.000453446              -0.000935289               0.002417465               0.001482176               0.000000000               0.000000000               0.000000000               0.000000000              -0.000258167               0.006134445              -0.000366002              -0.000863616               0.002332666               0.001469050               0.000000000               0.000000000               0.000000000               0.000000000              -0.000162206               0.005964328              -0.000284448              -0.000806366               0.002256878               0.001450512               0.000000000               0.000000000               0.000000000               0.000000000              -0.000106959               0.005795646              -0.000211751              -0.000764564               0.002186717               0.001422154               0.000000000               0.000000000               0.000000000               0.000000000              -0.000097594               0.005598666              -0.000143231              -0.000736429               0.002111680               0.001375251               0.000000000               0.000000000               0.000000000               0.000000000              -0.000128922               0.005392743              -0.000081966              -0.000722437               0.002038375               0.001315939               0.000000000               0.000000000               0.000000000               0.000000000              -0.000191630               0.005191333              -0.000035649              -0.000720776               0.001970686               0.001249910               0.000000000               0.000000000               0.000000000               0.000000000              -0.000233443               0.005081128              -0.000013211              -0.000722680               0.001934586               0.001211906               0.000000000               0.000000000               0.000000000               0.000000000              -0.000673711               0.002835699              -0.001372072              -0.000607104               0.001147591               0.000540487               0.000000000               0.000000000               0.000000000               0.000000000              -0.001055985               0.004266369              -0.001812511              -0.000929289               0.001731871               0.000802582               0.000000000               0.000000000               0.000000000               0.000000000              -0.001603612               0.005820629              -0.002030758              -0.001328931               0.002383167               0.001054236               0.000000000               0.000000000               0.000000000               0.000000000              -0.001587581               0.006437714              -0.001812745              -0.001400054               0.002612567               0.001212513               0.000000000               0.000000000               0.000000000               0.000000000              -0.001410927               0.006654101              -0.001546860              -0.001360857               0.002671630               0.001310773               0.000000000               0.000000000               0.000000000               0.000000000              -0.001193719               0.006684659              -0.001313278              -0.001283224               0.002655939               0.001372714               0.000000000               0.000000000               0.000000000               0.000000000              -0.000971296               0.006624368              -0.001115145              -0.001192279               0.002605527               0.001413248               0.000000000               0.000000000               0.000000000               0.000000000              -0.000761706               0.006515088              -0.000950030              -0.001100023               0.002538349               0.001438325               0.000000000               0.000000000               0.000000000               0.000000000              -0.000565051               0.006384777              -0.000812143              -0.001009989               0.002464900               0.001454911               0.000000000               0.000000000               0.000000000               0.000000000              -0.000389456               0.006247089              -0.000690935              -0.000926930               0.002391319               0.001464389               0.000000000               0.000000000               0.000000000               0.000000000              -0.000247968               0.006100257              -0.000578003              -0.000855518               0.002318571               0.001463053               0.000000000               0.000000000               0.000000000               0.000000000              -0.000136105               0.005957401              -0.000467335              -0.000795713               0.002251018               0.001455306               0.000000000               0.000000000               0.000000000               0.000000000              -0.000066546               0.005804959              -0.000360776              -0.000750573               0.002185158               0.001434585               0.000000000               0.000000000               0.000000000               0.000000000              -0.000055182               0.005613991              -0.000256603              -0.000722440               0.002112125               0.001389685               0.000000000               0.000000000               0.000000000               0.000000000              -0.000091263               0.005409744              -0.000154242              -0.000710440               0.002040043               0.001329603               0.000000000               0.000000000               0.000000000               0.000000000              -0.000174839               0.005202028              -0.000066495              -0.000715816               0.001972598               0.001256781               0.000000000               0.000000000               0.000000000               0.000000000              -0.000243728               0.005085196              -0.000023324              -0.000727046               0.001937397               0.001210351               0.000000000               0.000000000               0.000000000               0.000000000              -0.001791346               0.001629388              -0.000752468              -0.000875427               0.000834932              -0.000040495               0.000000000               0.000000000               0.000000000               0.000000000              -0.001531012               0.003082288              -0.001542988              -0.000959414               0.001347223               0.000387809               0.000000000               0.000000000               0.000000000               0.000000000              -0.001627991               0.004627561              -0.002111189              -0.001188940               0.001938817               0.000749877               0.000000000               0.000000000               0.000000000               0.000000000              -0.001493583               0.005431704              -0.002041845              -0.001239055               0.002223568               0.000984513               0.000000000               0.000000000               0.000000000               0.000000000              -0.001293485               0.005848704              -0.001826530              -0.001216143               0.002354929               0.001138786               0.000000000               0.000000000               0.000000000               0.000000000              -0.001086429               0.006054454              -0.001597842              -0.001164216               0.002406203               0.001241987               0.000000000               0.000000000               0.000000000               0.000000000              -0.000882579               0.006140797              -0.001386962              -0.001098564               0.002413100               0.001314535               0.000000000               0.000000000               0.000000000               0.000000000              -0.000686685               0.006155022              -0.001206161              -0.001026882               0.002393947               0.001367065               0.000000000               0.000000000               0.000000000               0.000000000              -0.000498705               0.006120899              -0.001055937              -0.000952125               0.002357654               0.001405529               0.000000000               0.000000000               0.000000000               0.000000000              -0.000321689               0.006056327              -0.000919451              -0.000877672               0.002311313               0.001433641               0.000000000               0.000000000               0.000000000               0.000000000              -0.000169318               0.005970492              -0.000789205              -0.000809804               0.002260079               0.001450275               0.000000000               0.000000000               0.000000000               0.000000000              -0.000044607               0.005871655              -0.000662690              -0.000750683               0.002207426               0.001456744               0.000000000               0.000000000               0.000000000               0.000000000               0.000046259               0.005752350              -0.000531463              -0.000701695               0.002151329               0.001449634               0.000000000               0.000000000               0.000000000               0.000000000               0.000080232               0.005591467              -0.000392843              -0.000668845               0.002086752               0.001417907               0.000000000               0.000000000               0.000000000               0.000000000               0.000057535               0.005402253              -0.000251995              -0.000653704               0.002018634               0.001364930               0.000000000               0.000000000               0.000000000               0.000000000              -0.000018646               0.005197849              -0.000118510              -0.000656722               0.001951506               0.001294784               0.000000000               0.000000000               0.000000000               0.000000000              -0.000091187               0.005080668              -0.000048932              -0.000669277               0.001916632               0.001247354               0.000000000               0.000000000               0.000000000               0.000000000              -0.003005137               0.000724893              -0.000236950              -0.001217536               0.000647472              -0.000570064               0.000000000               0.000000000               0.000000000               0.000000000              -0.002072024               0.002031400              -0.001215451              -0.001030932               0.001020770              -0.000010163               0.000000000               0.000000000               0.000000000               0.000000000              -0.001634709               0.003407556              -0.002005073              -0.001038959               0.001482159               0.000443200               0.000000000               0.000000000               0.000000000               0.000000000              -0.001327358               0.004307797              -0.002073843              -0.001036233               0.001781328               0.000745095               0.000000000               0.000000000               0.000000000               0.000000000              -0.001079929               0.004885985              -0.001929423              -0.001015720               0.001967218               0.000951498               0.000000000               0.000000000               0.000000000               0.000000000              -0.000872316               0.005255798              -0.001732797              -0.000984092               0.002079945               0.001095853               0.000000000               0.000000000               0.000000000               0.000000000              -0.000686718               0.005490050              -0.001536192              -0.000943774               0.002144589               0.001200815               0.000000000               0.000000000               0.000000000               0.000000000              -0.000508065               0.005636431              -0.001361820              -0.000895077               0.002177150               0.001282074               0.000000000               0.000000000               0.000000000               0.000000000              -0.000338426               0.005717435              -0.001212384              -0.000841587               0.002186321               0.001344734               0.000000000               0.000000000               0.000000000               0.000000000              -0.000175119               0.005747088              -0.001076208              -0.000784054               0.002177028               0.001392974               0.000000000               0.000000000               0.000000000               0.000000000              -0.000019058               0.005739163              -0.000945334              -0.000724541               0.002154549               0.001430008               0.000000000               0.000000000               0.000000000               0.000000000               0.000119981               0.005706500              -0.000817125              -0.000668318               0.002124920               0.001456602               0.000000000               0.000000000               0.000000000               0.000000000               0.000231088               0.005638788              -0.000679545              -0.000618189               0.002085640               0.001467451               0.000000000               0.000000000               0.000000000               0.000000000               0.000301470               0.005518081              -0.000525681              -0.000576707               0.002031578               0.001454870               0.000000000               0.000000000               0.000000000               0.000000000               0.000322097               0.005359710              -0.000359838              -0.000549176               0.001969611               0.001420435               0.000000000               0.000000000               0.000000000               0.000000000               0.000283825               0.005181657              -0.000183458              -0.000541271               0.001907625               0.001366354               0.000000000               0.000000000               0.000000000               0.000000000               0.000229962               0.005078573              -0.000087074              -0.000548585               0.001875702               0.001327118               0.000000000               0.000000000               0.000000000               0.000000000              -0.004192800               0.000113172               0.000101362              -0.001586445               0.000566535              -0.001019910               0.000000000               0.000000000               0.000000000               0.000000000              -0.002627114               0.001169871              -0.000871120              -0.001131400               0.000767085              -0.000364316               0.000000000               0.000000000               0.000000000               0.000000000              -0.001639042               0.002281141              -0.001707775              -0.000899782               0.001060299               0.000160517               0.000000000               0.000000000               0.000000000               0.000000000              -0.001130179               0.003192584              -0.001867402              -0.000822889               0.001338479               0.000515590               0.000000000               0.000000000               0.000000000               0.000000000              -0.000817412               0.003875976              -0.001795184              -0.000791026               0.001555654               0.000764628               0.000000000               0.000000000               0.000000000               0.000000000              -0.000594035               0.004378431              -0.001649616              -0.000770066               0.001716151               0.000946084               0.000000000               0.000000000               0.000000000               0.000000000              -0.000412390               0.004746640              -0.001490657              -0.000747975               0.001831522               0.001083547               0.000000000               0.000000000               0.000000000               0.000000000              -0.000251041               0.005018267              -0.001342328              -0.000721423               0.001913213               0.001191790               0.000000000               0.000000000               0.000000000               0.000000000              -0.000100942               0.005215335              -0.001210364              -0.000689769               0.001968350               0.001278581               0.000000000               0.000000000               0.000000000               0.000000000               0.000045695               0.005348208              -0.001091566              -0.000651389               0.001999848               0.001348459               0.000000000               0.000000000               0.000000000               0.000000000               0.000195419               0.005431208              -0.000976621              -0.000605618               0.002012257               0.001406639               0.000000000               0.000000000               0.000000000               0.000000000               0.000344684               0.005480628              -0.000860482              -0.000555821               0.002012131               0.001456310               0.000000000               0.000000000               0.000000000               0.000000000               0.000480099               0.005478069              -0.000736234              -0.000504720               0.001994245               0.001489524               0.000000000               0.000000000               0.000000000               0.000000000               0.000594156               0.005407592              -0.000593421              -0.000453139               0.001953559               0.001500420               0.000000000               0.000000000               0.000000000               0.000000000               0.000682791               0.005295925              -0.000426635              -0.000405943               0.001900605               0.001494662               0.000000000               0.000000000               0.000000000               0.000000000               0.000733510               0.005156852              -0.000228767              -0.000369539               0.001842113               0.001472574               0.000000000               0.000000000               0.000000000               0.000000000               0.000749585               0.005078711              -0.000120159              -0.000353744               0.001810801               0.001457058               0.000000000               0.000000000               0.000000000               0.000000000              -0.005198800              -0.000250621               0.000229325              -0.001918221               0.000555863              -0.001362358               0.000000000               0.000000000               0.000000000               0.000000000              -0.003122634               0.000541321              -0.000546842              -0.001238651               0.000593320              -0.000645332               0.000000000               0.000000000               0.000000000               0.000000000              -0.001656720               0.001372856              -0.001242654              -0.000792876               0.000721905              -0.000070971               0.000000000               0.000000000               0.000000000               0.000000000              -0.000945800               0.002239718              -0.001418365              -0.000634639               0.000958111               0.000323472               0.000000000               0.000000000               0.000000000               0.000000000              -0.000555735               0.002975067              -0.001398639              -0.000580283               0.001185106               0.000604823               0.000000000               0.000000000               0.000000000               0.000000000              -0.000309565               0.003566958              -0.001310286              -0.000561956               0.001376292               0.000814336               0.000000000               0.000000000               0.000000000               0.000000000              -0.000125507               0.004037105              -0.001202425              -0.000551702               0.001529589               0.000977886               0.000000000               0.000000000               0.000000000               0.000000000               0.000024944               0.004407650              -0.001095060              -0.000541601               0.001649736               0.001108134               0.000000000               0.000000000               0.000000000               0.000000000               0.000161328               0.004702148              -0.000997923              -0.000527270               0.001743123               0.001215854               0.000000000               0.000000000               0.000000000               0.000000000               0.000293295               0.004929448              -0.000910232              -0.000506194               0.001811864               0.001305670               0.000000000               0.000000000               0.000000000               0.000000000               0.000432821               0.005100366              -0.000824716              -0.000475237               0.001858517               0.001383280               0.000000000               0.000000000               0.000000000               0.000000000               0.000587446               0.005228420              -0.000736422              -0.000433260               0.001887209               0.001453949               0.000000000               0.000000000               0.000000000               0.000000000               0.000747653               0.005291036              -0.000641638              -0.000381009               0.001890664               0.001509655               0.000000000               0.000000000               0.000000000               0.000000000               0.000908356               0.005279392              -0.000529683              -0.000319290               0.001866210               0.001546920               0.000000000               0.000000000               0.000000000               0.000000000               0.001079861               0.005220938              -0.000392396              -0.000247669               0.001822851               0.001575183               0.000000000               0.000000000               0.000000000               0.000000000               0.001258662               0.005122167              -0.000218019              -0.000168272               0.001763463               0.001595191               0.000000000               0.000000000               0.000000000               0.000000000               0.001391320               0.005077045              -0.000123853              -0.000112885               0.001729960               0.001617074               0.000000000               0.000000000               0.000000000               0.000000000              -0.005872714              -0.000429042               0.000169512              -0.002148636               0.000573194              -0.001575442               0.000000000               0.000000000               0.000000000               0.000000000              -0.003467848               0.000166390              -0.000258883              -0.001321241               0.000495873              -0.000825367               0.000000000               0.000000000               0.000000000               0.000000000              -0.001677877               0.000786572              -0.000652855              -0.000727524               0.000504695              -0.000222829               0.000000000               0.000000000               0.000000000               0.000000000              -0.000816451               0.001594461              -0.000767239              -0.000505476               0.000699973               0.000194497               0.000000000               0.000000000               0.000000000               0.000000000              -0.000359224               0.002343719              -0.000769342              -0.000427673               0.000923789               0.000496116               0.000000000               0.000000000               0.000000000               0.000000000              -0.000088423               0.002984456              -0.000730356              -0.000406215               0.001130214               0.000723998               0.000000000               0.000000000               0.000000000               0.000000000               0.000094599               0.003517170              -0.000676805              -0.000404171               0.001307102               0.000902931               0.000000000               0.000000000               0.000000000               0.000000000               0.000239728               0.003954289              -0.000620586              -0.000404387               0.001452879               0.001048491               0.000000000               0.000000000               0.000000000               0.000000000               0.000369309               0.004310668              -0.000569224              -0.000400342               0.001570322               0.001169980               0.000000000               0.000000000               0.000000000               0.000000000               0.000494467               0.004598414              -0.000522568              -0.000389376               0.001662581               0.001273205               0.000000000               0.000000000               0.000000000               0.000000000               0.000628140               0.004830973              -0.000477629              -0.000368318               0.001733081               0.001364763               0.000000000               0.000000000               0.000000000               0.000000000               0.000783108               0.005017871              -0.000430562              -0.000333568               0.001783796               0.001450229               0.000000000               0.000000000               0.000000000               0.000000000               0.000957830               0.005134165              -0.000377957              -0.000282584               0.001805566               0.001522982               0.000000000               0.000000000               0.000000000               0.000000000               0.001154658               0.005168020              -0.000316616              -0.000213005               0.001793658               0.001580653               0.000000000               0.000000000               0.000000000               0.000000000               0.001393926               0.005148317              -0.000239043              -0.000120817               0.001756361               0.001635544               0.000000000               0.000000000               0.000000000               0.000000000               0.001688367               0.005085477              -0.000134653              -0.000002547               0.001695991               0.001693444               0.000000000               0.000000000               0.000000000               0.000000000               0.001931677               0.005071490              -0.000079957               0.000090442               0.001660333               0.001750774               0.000000000               0.000000000               0.000000000               0.000000000               0.000000000               0.000000000               0.000000000               0.000000000               0.000000000               0.000000000               0.000000000               0.000000000               0.000000000               0.000000000               0.000000000               0.000000000               0.000000000               0.000000000               0.000000000               0.000000000               0.000000000               0.000000000               0.000000000               0.000000000               0.000000000               0.000000000               0.000000000               0.000000000               0.000000000               0.000000000               0.000000000               0.000000000               0.000000000               0.000000000               0.000000000               0.000000000               0.000000000               0.000000000               0.000000000               0.000000000               0.000000000               0.000000000               0.000000000               0.000000000               0.000000000               0.000000000               0.000000000               0.000000000               0.000000000               0.000000000               0.000000000               0.000000000               0.000000000               0.000000000               0.000000000               0.000000000               0.000000000               0.000000000               0.000000000               0.000000000               0.000000000               0.000000000               0.000000000               0.000000000               0.000000000               0.000000000               0.000000000               0.000000000               0.000000000               0.000000000               0.000000000               0.000000000               0.000000000               0.000000000               0.000000000               0.000000000               0.000000000               0.000000000               0.000000000               0.000000000               0.000000000               0.000000000               0.000000000               0.000000000               0.000000000               0.000000000               0.000000000               0.000000000               0.000000000               0.000000000               0.000000000               0.000000000               0.000000000               0.000000000               0.000000000               0.000000000               0.000000000               0.000000000               0.000000000               0.000000000               0.000000000               0.000000000               0.000000000               0.000000000               0.000000000               0.000000000               0.000000000               0.000000000               0.000000000               0.000000000               0.000000000               0.000000000               0.000000000               0.000000000               0.000000000               0.000000000               0.000000000               0.000000000               0.000000000               0.000000000               0.000000000               0.000000000               0.000000000               0.000000000               0.000000000               0.000000000               0.000000000               0.000000000               0.000000000               0.000000000               0.000000000               0.000000000               0.000000000               0.000000000               0.000000000               0.000000000               0.000000000               0.000000000               0.000000000               0.000000000               0.000000000               0.000000000               0.000000000               0.000000000               0.000000000               0.000000000               0.000000000               0.000000000               0.000000000               0.000000000               0.000000000               0.000000000               0.000000000               0.000000000               0.000000000               0.000000000               0.000000000               0.000000000               0.000000000               0.000000000               0.000000000               0.000000000               0.000000000               0.000000000               0.000000000               0.000000000               0.000000000               0.000000000               0.000000000               0.000000000               0.000000000               0.000000000               0.000000000               0.000000000               0.000000000               0.000000000               0.000000000               0.000000000               0.000000000               0.000000000               0.000000000               0.000000000               0.000000000               0.000000000               0.000000000               0.000000000               0.000000000               0.000000000               0.000000000               0.000000000               0.000000000               0.000000000               0.000000000               0.000000000               0.000000000               0.000000000               0.000000000               0.000000000               0.000000000               0.000000000               0.000000000               0.000000000               0.000000000               0.000000000               0.000000000               0.000000000               0.000000000               0.000000000               0.000000000               0.000000000               0.000000000               0.000000000               0.000000000               0.000000000               0.000000000               0.000000000               0.000000000               0.000000000               0.000000000               0.000000000               0.000000000               0.000000000               0.000000000               0.000000000               0.000000000               0.000000000               0.000000000               0.000000000               0.000000000               0.000000000               0.000000000               0.000000000               0.000000000               0.000000000               0.000000000               0.000000000               0.000000000               0.000000000               0.000000000               0.000000000               0.000000000               0.000000000               0.000000000               0.000000000               0.000000000               0.000000000               0.000000000               0.000000000               0.000000000               0.000000000               0.000000000               0.000000000               0.000000000               0.000000000               0.000000000               0.000000000               0.000000000               0.000000000               0.000000000               0.000000000               0.000000000               0.000000000               0.000000000               0.000000000               0.000000000               0.000000000               0.000000000               0.000000000               0.000000000               0.000000000               0.000000000               0.000000000               0.000000000               0.000000000               0.000000000               0.000000000               0.000000000               0.000000000               0.000000000               0.000000000               0.000000000               0.000000000               0.000000000               0.000000000               0.000000000               0.000000000               0.000000000               0.000000000               0.000000000               0.000000000               0.000000000               0.000000000               0.000000000               0.000000000               0.000000000               0.000000000               0.000000000               0.000000000               0.000000000               0.000000000               0.000000000               0.000000000               0.000000000               0.000000000               0.000000000               0.000000000               0.000000000               0.000000000               0.000000000               0.000000000               0.000000000               0.000000000               0.000000000               0.000000000               0.000000000               0.000000000               0.000000000               0.000000000               0.000000000               0.000000000               0.000000000               0.000000000               0.000000000               0.000000000               0.000000000               0.000000000               0.000000000               0.000000000               0.000000000               0.000000000               0.000000000               0.000000000               0.000000000               0.000000000               0.000000000               0.000000000               0.000000000               0.000000000               0.000000000               0.000000000               0.000000000               0.000000000               0.000000000               0.000000000               0.001762855               0.018465768               0.001314922              -0.001647147               0.006704243               0.005057097               0.000000000               0.000000000               0.000000000               0.000000000               0.001697575               0.014728503               0.000703883              -0.001204469               0.005310942               0.004106472               0.000000000               0.000000000               0.000000000               0.000000000               0.002168281               0.011752477               0.000090120              -0.000655953               0.004136104               0.003480151               0.000000000               0.000000000               0.000000000               0.000000000               0.002074046               0.010100973              -0.000172253              -0.000484853               0.003528575               0.003043722               0.000000000               0.000000000               0.000000000               0.000000000               0.001815553               0.009085980              -0.000281940              -0.000454914               0.003180268               0.002725354               0.000000000               0.000000000               0.000000000               0.000000000               0.001529109               0.008402127              -0.000320425              -0.000476849               0.002959631               0.002482782               0.000000000               0.000000000               0.000000000               0.000000000               0.001257550               0.007897709              -0.000323240              -0.000515631               0.002804420               0.002288789               0.000000000               0.000000000               0.000000000               0.000000000               0.001021038               0.007501516              -0.000315444              -0.000554799               0.002685413               0.002130614               0.000000000               0.000000000               0.000000000               0.000000000               0.000818541               0.007177307              -0.000305341              -0.000590209               0.002589148               0.001998939               0.000000000               0.000000000               0.000000000               0.000000000               0.000638449               0.006899387              -0.000290349              -0.000623004               0.002507440               0.001884437               0.000000000               0.000000000               0.000000000               0.000000000               0.000478788               0.006644133              -0.000270381              -0.000650970               0.002431679               0.001780709               0.000000000               0.000000000               0.000000000               0.000000000               0.000340322               0.006394260              -0.000248830              -0.000671660               0.002355285               0.001683625               0.000000000               0.000000000               0.000000000               0.000000000               0.000226553               0.006144438              -0.000226215              -0.000683096               0.002275824               0.001592728               0.000000000               0.000000000               0.000000000               0.000000000               0.000139729               0.005886335              -0.000196037              -0.000683392               0.002189889               0.001506497               0.000000000               0.000000000               0.000000000               0.000000000               0.000075643               0.005607444              -0.000153260              -0.000672563               0.002093317               0.001420754               0.000000000               0.000000000               0.000000000               0.000000000               0.000030528               0.005293717              -0.000089507              -0.000650265               0.001981310               0.001331045               0.000000000               0.000000000               0.000000000               0.000000000              -0.000011643               0.005056483              -0.000055414              -0.000636425               0.001897619               0.001261194               0.000000000               0.000000000               0.000000000               0.000000000               0.001944079               0.017400463               0.002456912              -0.001446026               0.006282104               0.004836079               0.000000000               0.000000000               0.000000000               0.000000000               0.001635104               0.014033169               0.001319793              -0.001140980               0.005058003               0.003917023               0.000000000               0.000000000               0.000000000               0.000000000               0.001843845               0.011439770               0.000187972              -0.000738528               0.004059395               0.003320867               0.000000000               0.000000000               0.000000000               0.000000000               0.001653521               0.009980366              -0.000283709              -0.000627474               0.003535913               0.002908439               0.000000000               0.000000000               0.000000000               0.000000000               0.001380636               0.009065410              -0.000473987              -0.000615436               0.003226919               0.002611482               0.000000000               0.000000000               0.000000000               0.000000000               0.001113482               0.008428481              -0.000536798              -0.000636003               0.003021467               0.002385464               0.000000000               0.000000000               0.000000000               0.000000000               0.000875146               0.007950501              -0.000541558              -0.000665631               0.002872017               0.002206386               0.000000000               0.000000000               0.000000000               0.000000000               0.000674526               0.007572033              -0.000526431              -0.000693555               0.002755171               0.002061616               0.000000000               0.000000000               0.000000000               0.000000000               0.000509667               0.007255697              -0.000508281              -0.000715835               0.002657153               0.001941318               0.000000000               0.000000000               0.000000000               0.000000000               0.000374920               0.006977333              -0.000485921              -0.000731570               0.002569611               0.001838041               0.000000000               0.000000000               0.000000000               0.000000000               0.000265273               0.006721253              -0.000454130              -0.000740678               0.002487288               0.001746610               0.000000000               0.000000000               0.000000000               0.000000000               0.000178734               0.006478810              -0.000419296              -0.000742824               0.002407190               0.001664366               0.000000000               0.000000000               0.000000000               0.000000000               0.000113071               0.006244670              -0.000381459              -0.000738180               0.002327596               0.001589416               0.000000000               0.000000000               0.000000000               0.000000000               0.000063420               0.006012487              -0.000329682              -0.000727777               0.002246734               0.001518958               0.000000000               0.000000000               0.000000000               0.000000000               0.000029334               0.005780633              -0.000254510              -0.000711577               0.002164051               0.001452474               0.000000000               0.000000000               0.000000000               0.000000000               0.000007554               0.005546468              -0.000145795              -0.000690474               0.002078962               0.001388488               0.000000000               0.000000000               0.000000000               0.000000000              -0.000015346               0.005388193              -0.000087299              -0.000679277               0.002022472               0.001343195               0.000000000               0.000000000               0.000000000               0.000000000               0.002154287               0.015785786               0.003298881              -0.001165365               0.005650330               0.004484966               0.000000000               0.000000000               0.000000000               0.000000000               0.001502462               0.012990672               0.001788400              -0.001060409               0.004683650               0.003623241               0.000000000               0.000000000               0.000000000               0.000000000               0.001348176               0.010971551               0.000302426              -0.000865876               0.003945772               0.003079897               0.000000000               0.000000000               0.000000000               0.000000000               0.001047264               0.009786822              -0.000291688              -0.000830627               0.003539117               0.002708490               0.000000000               0.000000000               0.000000000               0.000000000               0.000771439               0.009002882              -0.000521857              -0.000836068               0.003279620               0.002443552               0.000000000               0.000000000               0.000000000               0.000000000               0.000547964               0.008430086              -0.000594635              -0.000848272               0.003092758               0.002244486               0.000000000               0.000000000               0.000000000               0.000000000               0.000369314               0.007985048              -0.000600293              -0.000859636               0.002948201               0.002088565               0.000000000               0.000000000               0.000000000               0.000000000               0.000230117               0.007623020              -0.000582880              -0.000866582               0.002829842               0.001963260               0.000000000               0.000000000               0.000000000               0.000000000               0.000129906               0.007315485              -0.000559534              -0.000865719               0.002727044               0.001861325               0.000000000               0.000000000               0.000000000               0.000000000               0.000062343               0.007037045              -0.000531433              -0.000856250               0.002631075               0.001774825               0.000000000               0.000000000               0.000000000               0.000000000               0.000020786               0.006780940              -0.000495636              -0.000839821               0.002540231               0.001700410               0.000000000               0.000000000               0.000000000               0.000000000              -0.000002313               0.006546154              -0.000454744              -0.000819135               0.002455074               0.001635940               0.000000000               0.000000000               0.000000000               0.000000000              -0.000012564               0.006329825              -0.000406705              -0.000795938               0.002375233               0.001579295               0.000000000               0.000000000               0.000000000               0.000000000              -0.000015344               0.006133061              -0.000342306              -0.000772385               0.002301795               0.001529410               0.000000000               0.000000000               0.000000000               0.000000000              -0.000012752               0.005958398              -0.000253983              -0.000749580               0.002235973               0.001486393               0.000000000               0.000000000               0.000000000               0.000000000              -0.000007741               0.005816475              -0.000138337              -0.000729960               0.002182126               0.001452165               0.000000000               0.000000000               0.000000000               0.000000000              -0.000009628               0.005743973              -0.000076358              -0.000721605               0.002155174               0.001433568               0.000000000               0.000000000               0.000000000               0.000000000               0.002289209               0.013820272               0.003773237              -0.000869082               0.004896404               0.004027323               0.000000000               0.000000000               0.000000000               0.000000000               0.001277703               0.011741690               0.002085128              -0.000988571               0.004243381               0.003254810               0.000000000               0.000000000               0.000000000               0.000000000               0.000740593               0.010403787               0.000444082              -0.001022749               0.003808810               0.002786062               0.000000000               0.000000000               0.000000000               0.000000000               0.000359103               0.009518278              -0.000180314              -0.001055118               0.003524434               0.002469315               0.000000000               0.000000000               0.000000000               0.000000000               0.000116061               0.008870713              -0.000415178              -0.001065314               0.003311979               0.002246666               0.000000000               0.000000000               0.000000000               0.000000000              -0.000035420               0.008364346              -0.000489422              -0.001058823               0.003141029               0.002082205               0.000000000               0.000000000               0.000000000               0.000000000              -0.000132019               0.007952307              -0.000498337              -0.001043543               0.002998590               0.001955047               0.000000000               0.000000000               0.000000000               0.000000000              -0.000189103               0.007604203              -0.000486100              -0.001021436               0.002875188               0.001853751               0.000000000               0.000000000               0.000000000               0.000000000              -0.000212845               0.007300688              -0.000466335              -0.000992400               0.002764338               0.001771938               0.000000000               0.000000000               0.000000000               0.000000000              -0.000209690               0.007026135              -0.000438538              -0.000956898               0.002660988               0.001704089               0.000000000               0.000000000               0.000000000               0.000000000              -0.000188294               0.006775487              -0.000404018              -0.000917544               0.002564321               0.001646777               0.000000000               0.000000000               0.000000000               0.000000000              -0.000154781               0.006552474              -0.000363347              -0.000877100               0.002476503               0.001599403               0.000000000               0.000000000               0.000000000               0.000000000              -0.000116165               0.006356692              -0.000315222              -0.000838146               0.002398258               0.001560112               0.000000000               0.000000000               0.000000000               0.000000000              -0.000076812               0.006189673              -0.000252520              -0.000802512               0.002330708               0.001528196               0.000000000               0.000000000               0.000000000               0.000000000              -0.000040927               0.006056461              -0.000173671              -0.000772403               0.002276268               0.001503865               0.000000000               0.000000000               0.000000000               0.000000000              -0.000016818               0.005967905              -0.000085971              -0.000752293               0.002240046               0.001487753               0.000000000               0.000000000               0.000000000               0.000000000              -0.000008569               0.005937370              -0.000041427              -0.000745383               0.002227564               0.001482182               0.000000000               0.000000000               0.000000000               0.000000000               0.002253713               0.011693040               0.003882102              -0.000616490               0.004103136               0.003486647               0.000000000               0.000000000               0.000000000               0.000000000               0.000951136               0.010412345               0.002227730              -0.000944866               0.003785702               0.002840835               0.000000000               0.000000000               0.000000000               0.000000000               0.000092425               0.009779204               0.000629557              -0.001187738               0.003655615               0.002467876               0.000000000               0.000000000               0.000000000               0.000000000              -0.000304639               0.009176385               0.000043445              -0.001261285               0.003479193               0.002217908               0.000000000               0.000000000               0.000000000               0.000000000              -0.000473055               0.008651494              -0.000180288              -0.001258829               0.003303412               0.002044583               0.000000000               0.000000000               0.000000000               0.000000000              -0.000527328               0.008208356              -0.000259526              -0.001223790               0.003144021               0.001920232               0.000000000               0.000000000               0.000000000               0.000000000              -0.000528762               0.007827919              -0.000280975              -0.001176773               0.003001538               0.001824765               0.000000000               0.000000000               0.000000000               0.000000000              -0.000496775               0.007493582              -0.000283700              -0.001122986               0.002872164               0.001749179               0.000000000               0.000000000               0.000000000               0.000000000              -0.000444818               0.007195263              -0.000279599              -0.001066212               0.002753801               0.001687589               0.000000000               0.000000000               0.000000000               0.000000000              -0.000381688               0.006927213              -0.000263797              -0.001009032               0.002645392               0.001636360               0.000000000               0.000000000               0.000000000               0.000000000              -0.000312030               0.006688655              -0.000240994              -0.000953091               0.002547226               0.001594135               0.000000000               0.000000000               0.000000000               0.000000000              -0.000242682               0.006483297              -0.000211687              -0.000901415               0.002461549               0.001560134               0.000000000               0.000000000               0.000000000               0.000000000              -0.000177781               0.006306770              -0.000173467              -0.000855012               0.002387240               0.001532228               0.000000000               0.000000000               0.000000000               0.000000000              -0.000113667               0.006157275              -0.000127338              -0.000812283               0.002323165               0.001510883               0.000000000               0.000000000               0.000000000               0.000000000              -0.000058518               0.006043255              -0.000076238              -0.000777349               0.002273514               0.001496165               0.000000000               0.000000000               0.000000000               0.000000000              -0.000022093               0.005971154              -0.000030859              -0.000754677               0.002241924               0.001487247               0.000000000               0.000000000               0.000000000               0.000000000              -0.000011314               0.005942320              -0.000013387              -0.000747031               0.002229764               0.001482733               0.000000000               0.000000000               0.000000000               0.000000000               0.001997973               0.009569445               0.003678750              -0.000446944               0.003338763               0.002891820               0.000000000               0.000000000               0.000000000               0.000000000               0.000542271               0.009100840               0.002253630              -0.000934253               0.003345000               0.002410747               0.000000000               0.000000000               0.000000000               0.000000000              -0.000516758               0.009130241               0.000864472              -0.001335061               0.003488404               0.002153342               0.000000000               0.000000000               0.000000000               0.000000000              -0.000855246               0.008771306               0.000351972              -0.001417127               0.003396115               0.001978988               0.000000000               0.000000000               0.000000000               0.000000000              -0.000916627               0.008355084               0.000133685              -0.001388117               0.003247706               0.001859589               0.000000000               0.000000000               0.000000000               0.000000000              -0.000864941               0.007969292               0.000034479              -0.001320511               0.003096574               0.001776063               0.000000000               0.000000000               0.000000000               0.000000000              -0.000775538               0.007616696              -0.000012352              -0.001242911               0.002953177               0.001710266               0.000000000               0.000000000               0.000000000               0.000000000              -0.000665908               0.007298147              -0.000040816              -0.001161981               0.002820018               0.001658038               0.000000000               0.000000000               0.000000000               0.000000000              -0.000549391               0.007009859              -0.000061003              -0.001082251               0.002697347               0.001615095               0.000000000               0.000000000               0.000000000               0.000000000              -0.000440513               0.006750298              -0.000067519              -0.001008977               0.002586403               0.001577426               0.000000000               0.000000000               0.000000000               0.000000000              -0.000343973               0.006524185              -0.000065577              -0.000944510               0.002489543               0.001545033               0.000000000               0.000000000               0.000000000               0.000000000              -0.000255701               0.006330827              -0.000058533              -0.000887239               0.002406001               0.001518762               0.000000000               0.000000000               0.000000000               0.000000000              -0.000176023               0.006164269              -0.000041526              -0.000836540               0.002333582               0.001497042               0.000000000               0.000000000               0.000000000               0.000000000              -0.000108834               0.006026385              -0.000019628              -0.000794109               0.002273478               0.001479369               0.000000000               0.000000000               0.000000000               0.000000000              -0.000057620               0.005924037              -0.000003032              -0.000762110               0.002228696               0.001466586               0.000000000               0.000000000               0.000000000               0.000000000              -0.000023037               0.005850048               0.000004414              -0.000739893               0.002196628               0.001456735               0.000000000               0.000000000               0.000000000               0.000000000              -0.000018402               0.005803860               0.000000139              -0.000732381               0.002178728               0.001446346               0.000000000               0.000000000               0.000000000               0.000000000               0.001537358               0.007583648               0.003237219              -0.000371449               0.002651673               0.002280223               0.000000000               0.000000000               0.000000000               0.000000000               0.000081402               0.007881394               0.002198664              -0.000954648               0.002945320               0.001990673               0.000000000               0.000000000               0.000000000               0.000000000              -0.001023911               0.008467719               0.001139113              -0.001442428               0.003303354               0.001860926               0.000000000               0.000000000               0.000000000               0.000000000              -0.001243239               0.008312893               0.000696324              -0.001505322               0.003272711               0.001767388               0.000000000               0.000000000               0.000000000               0.000000000              -0.001187277               0.008001161               0.000466670              -0.001445370               0.003148817               0.001703447               0.000000000               0.000000000               0.000000000               0.000000000              -0.001041845               0.007669517               0.000334263              -0.001349378               0.003006273               0.001656895               0.000000000               0.000000000               0.000000000               0.000000000              -0.000874511               0.007347868               0.000250616              -0.001246422               0.002864739               0.001618317               0.000000000               0.000000000               0.000000000               0.000000000              -0.000708490               0.007047868               0.000189663              -0.001146664               0.002731487               0.001584823               0.000000000               0.000000000               0.000000000               0.000000000              -0.000553695               0.006772566               0.000141878              -0.001054204               0.002608901               0.001554697               0.000000000               0.000000000               0.000000000               0.000000000              -0.000418140               0.006526397               0.000106559              -0.000972600               0.002499644               0.001527044               0.000000000               0.000000000               0.000000000               0.000000000              -0.000305075               0.006311516               0.000078696              -0.000903341               0.002404931               0.001501591               0.000000000               0.000000000               0.000000000               0.000000000              -0.000212750               0.006122891               0.000057944              -0.000845141               0.002322657               0.001477516               0.000000000               0.000000000               0.000000000               0.000000000              -0.000142216               0.005961285               0.000048519              -0.000798490               0.002253238               0.001454749               0.000000000               0.000000000               0.000000000               0.000000000              -0.000089726               0.005826770               0.000040711              -0.000761992               0.002196234               0.001434243               0.000000000               0.000000000               0.000000000               0.000000000              -0.000052157               0.005707604               0.000025739              -0.000733007               0.002146851               0.001413844               0.000000000               0.000000000               0.000000000               0.000000000              -0.000026541               0.005594639               0.000009990              -0.000709281               0.002101288               0.001392007               0.000000000               0.000000000               0.000000000               0.000000000              -0.000027171               0.005516455              -0.000005192              -0.000699744               0.002072048               0.001372304               0.000000000               0.000000000               0.000000000               0.000000000               0.000961929               0.005880965               0.002655231              -0.000374399               0.002085101               0.001710702               0.000000000               0.000000000               0.000000000               0.000000000              -0.000349703               0.006785321               0.002108433              -0.000979303               0.002588185               0.001608882               0.000000000               0.000000000               0.000000000               0.000000000              -0.001383176               0.007825523               0.001450106              -0.001496878               0.003107441               0.001610562               0.000000000               0.000000000               0.000000000               0.000000000              -0.001478509               0.007883794               0.001053958              -0.001539912               0.003141209               0.001601297               0.000000000               0.000000000               0.000000000               0.000000000              -0.001335181               0.007690234               0.000799879              -0.001461968               0.003050709               0.001588740               0.000000000               0.000000000               0.000000000               0.000000000              -0.001124263               0.007425782               0.000627136              -0.001349818               0.002925175               0.001575357               0.000000000               0.000000000               0.000000000               0.000000000              -0.000903490               0.007143745               0.000503872              -0.001231774               0.002791816               0.001560042               0.000000000               0.000000000               0.000000000               0.000000000              -0.000698541               0.006868268               0.000409723              -0.001120484               0.002662894               0.001542411               0.000000000               0.000000000               0.000000000               0.000000000              -0.000519048               0.006613068               0.000330864              -0.001021274               0.002544759               0.001523485               0.000000000               0.000000000               0.000000000               0.000000000              -0.000367026               0.006383900               0.000263670              -0.000935620               0.002439819               0.001504199               0.000000000               0.000000000               0.000000000               0.000000000              -0.000246140               0.006176407               0.000206621              -0.000864351               0.002346899               0.001482548               0.000000000               0.000000000               0.000000000               0.000000000              -0.000157415               0.005990899               0.000156519              -0.000807891               0.002266243               0.001458353               0.000000000               0.000000000               0.000000000               0.000000000              -0.000097383               0.005826879               0.000116392              -0.000764877               0.002197233               0.001432356               0.000000000               0.000000000               0.000000000               0.000000000              -0.000073477               0.005660811               0.000083580              -0.000735153               0.002131969               0.001396816               0.000000000               0.000000000               0.000000000               0.000000000              -0.000082578               0.005487018               0.000051570              -0.000716842               0.002067935               0.001351093               0.000000000               0.000000000               0.000000000               0.000000000              -0.000100919               0.005318565               0.000023688              -0.000702664               0.002007058               0.001304395               0.000000000               0.000000000               0.000000000               0.000000000              -0.000112404               0.005218869               0.000006238              -0.000694508               0.001971108               0.001276600               0.000000000               0.000000000               0.000000000               0.000000000               0.000263943               0.004284843               0.002021398              -0.000436628               0.001573808               0.001137181               0.000000000               0.000000000               0.000000000               0.000000000              -0.000680169               0.005524145               0.001994314              -0.000945581               0.002156556               0.001210975               0.000000000               0.000000000               0.000000000               0.000000000              -0.001539419               0.006891034               0.001780402              -0.001438659               0.002776541               0.001337882               0.000000000               0.000000000               0.000000000               0.000000000              -0.001577322               0.007239017               0.001445769              -0.001496370               0.002911771               0.001415402               0.000000000               0.000000000               0.000000000               0.000000000              -0.001408576               0.007239007               0.001169973              -0.001433089               0.002890674               0.001457586               0.000000000               0.000000000               0.000000000               0.000000000              -0.001184871               0.007107683               0.000958728              -0.001332784               0.002813465               0.001480681               0.000000000               0.000000000               0.000000000               0.000000000              -0.000953523               0.006920338               0.000794066              -0.001222611               0.002714293               0.001491683               0.000000000               0.000000000               0.000000000               0.000000000              -0.000738196               0.006713490               0.000662323              -0.001116007               0.002609810               0.001493803               0.000000000               0.000000000               0.000000000               0.000000000              -0.000548865               0.006508647               0.000550298              -0.001019403               0.002509328               0.001489925               0.000000000               0.000000000               0.000000000               0.000000000              -0.000388387               0.006317168               0.000453446              -0.000935289               0.002417465               0.001482176               0.000000000               0.000000000               0.000000000               0.000000000              -0.000258167               0.006134445               0.000366002              -0.000863616               0.002332666               0.001469050               0.000000000               0.000000000               0.000000000               0.000000000              -0.000162206               0.005964328               0.000284448              -0.000806366               0.002256878               0.001450512               0.000000000               0.000000000               0.000000000               0.000000000              -0.000106959               0.005795646               0.000211751              -0.000764564               0.002186717               0.001422154               0.000000000               0.000000000               0.000000000               0.000000000              -0.000097594               0.005598666               0.000143231              -0.000736429               0.002111680               0.001375251               0.000000000               0.000000000               0.000000000               0.000000000              -0.000128922               0.005392743               0.000081966              -0.000722437               0.002038375               0.001315939               0.000000000               0.000000000               0.000000000               0.000000000              -0.000191630               0.005191333               0.000035649              -0.000720776               0.001970686               0.001249910               0.000000000               0.000000000               0.000000000               0.000000000              -0.000233443               0.005081128               0.000013211              -0.000722680               0.001934586               0.001211906               0.000000000               0.000000000               0.000000000               0.000000000              -0.000673711               0.002835699               0.001372072              -0.000607104               0.001147591               0.000540487               0.000000000               0.000000000               0.000000000               0.000000000              -0.001055985               0.004266369               0.001812511              -0.000929289               0.001731871               0.000802582               0.000000000               0.000000000               0.000000000               0.000000000              -0.001603612               0.005820629               0.002030758              -0.001328931               0.002383167               0.001054236               0.000000000               0.000000000               0.000000000               0.000000000              -0.001587581               0.006437714               0.001812745              -0.001400054               0.002612567               0.001212513               0.000000000               0.000000000               0.000000000               0.000000000              -0.001410927               0.006654101               0.001546860              -0.001360857               0.002671630               0.001310773               0.000000000               0.000000000               0.000000000               0.000000000              -0.001193719               0.006684659               0.001313278              -0.001283224               0.002655939               0.001372714               0.000000000               0.000000000               0.000000000               0.000000000              -0.000971296               0.006624368               0.001115145              -0.001192279               0.002605527               0.001413248               0.000000000               0.000000000               0.000000000               0.000000000              -0.000761706               0.006515088               0.000950030              -0.001100023               0.002538349               0.001438325               0.000000000               0.000000000               0.000000000               0.000000000              -0.000565051               0.006384777               0.000812143              -0.001009989               0.002464900               0.001454911               0.000000000               0.000000000               0.000000000               0.000000000              -0.000389456               0.006247089               0.000690935              -0.000926930               0.002391319               0.001464389               0.000000000               0.000000000               0.000000000               0.000000000              -0.000247968               0.006100257               0.000578003              -0.000855518               0.002318571               0.001463053               0.000000000               0.000000000               0.000000000               0.000000000              -0.000136105               0.005957401               0.000467335              -0.000795713               0.002251018               0.001455306               0.000000000               0.000000000               0.000000000               0.000000000              -0.000066546               0.005804959               0.000360776              -0.000750573               0.002185158               0.001434585               0.000000000               0.000000000               0.000000000               0.000000000              -0.000055182               0.005613991               0.000256603              -0.000722440               0.002112125               0.001389685               0.000000000               0.000000000               0.000000000               0.000000000              -0.000091263               0.005409744               0.000154242              -0.000710440               0.002040043               0.001329603               0.000000000               0.000000000               0.000000000               0.000000000              -0.000174839               0.005202028               0.000066495              -0.000715816               0.001972598               0.001256781               0.000000000               0.000000000               0.000000000               0.000000000              -0.000243728               0.005085196               0.000023324              -0.000727046               0.001937397               0.001210351               0.000000000               0.000000000               0.000000000               0.000000000              -0.001791346               0.001629388               0.000752468              -0.000875427               0.000834932              -0.000040495               0.000000000               0.000000000               0.000000000               0.000000000              -0.001531012               0.003082288               0.001542988              -0.000959414               0.001347223               0.000387809               0.000000000               0.000000000               0.000000000               0.000000000              -0.001627991               0.004627561               0.002111189              -0.001188940               0.001938817               0.000749877               0.000000000               0.000000000               0.000000000               0.000000000              -0.001493583               0.005431704               0.002041845              -0.001239055               0.002223568               0.000984513               0.000000000               0.000000000               0.000000000               0.000000000              -0.001293485               0.005848704               0.001826530              -0.001216143               0.002354929               0.001138786               0.000000000               0.000000000               0.000000000               0.000000000              -0.001086429               0.006054454               0.001597842              -0.001164216               0.002406203               0.001241987               0.000000000               0.000000000               0.000000000               0.000000000              -0.000882579               0.006140797               0.001386962              -0.001098564               0.002413100               0.001314535               0.000000000               0.000000000               0.000000000               0.000000000              -0.000686685               0.006155022               0.001206161              -0.001026882               0.002393947               0.001367065               0.000000000               0.000000000               0.000000000               0.000000000              -0.000498705               0.006120899               0.001055937              -0.000952125               0.002357654               0.001405529               0.000000000               0.000000000               0.000000000               0.000000000              -0.000321689               0.006056327               0.000919451              -0.000877672               0.002311313               0.001433641               0.000000000               0.000000000               0.000000000               0.000000000              -0.000169318               0.005970492               0.000789205              -0.000809804               0.002260079               0.001450275               0.000000000               0.000000000               0.000000000               0.000000000              -0.000044607               0.005871655               0.000662690              -0.000750683               0.002207426               0.001456744               0.000000000               0.000000000               0.000000000               0.000000000               0.000046259               0.005752350               0.000531463              -0.000701695               0.002151329               0.001449634               0.000000000               0.000000000               0.000000000               0.000000000               0.000080232               0.005591467               0.000392843              -0.000668845               0.002086752               0.001417907               0.000000000               0.000000000               0.000000000               0.000000000               0.000057535               0.005402253               0.000251995              -0.000653704               0.002018634               0.001364930               0.000000000               0.000000000               0.000000000               0.000000000              -0.000018646               0.005197849               0.000118510              -0.000656722               0.001951506               0.001294784               0.000000000               0.000000000               0.000000000               0.000000000              -0.000091187               0.005080668               0.000048932              -0.000669277               0.001916632               0.001247354               0.000000000               0.000000000               0.000000000               0.000000000              -0.003005137               0.000724893               0.000236950              -0.001217536               0.000647472              -0.000570064               0.000000000               0.000000000               0.000000000               0.000000000              -0.002072024               0.002031400               0.001215451              -0.001030932               0.001020770              -0.000010163               0.000000000               0.000000000               0.000000000               0.000000000              -0.001634709               0.003407556               0.002005073              -0.001038959               0.001482159               0.000443200               0.000000000               0.000000000               0.000000000               0.000000000              -0.001327358               0.004307797               0.002073843              -0.001036233               0.001781328               0.000745095               0.000000000               0.000000000               0.000000000               0.000000000              -0.001079929               0.004885985               0.001929423              -0.001015720               0.001967218               0.000951498               0.000000000               0.000000000               0.000000000               0.000000000              -0.000872316               0.005255798               0.001732797              -0.000984092               0.002079945               0.001095853               0.000000000               0.000000000               0.000000000               0.000000000              -0.000686718               0.005490050               0.001536192              -0.000943774               0.002144589               0.001200815               0.000000000               0.000000000               0.000000000               0.000000000              -0.000508065               0.005636431               0.001361820              -0.000895077               0.002177150               0.001282074               0.000000000               0.000000000               0.000000000               0.000000000              -0.000338426               0.005717435               0.001212384              -0.000841587               0.002186321               0.001344734               0.000000000               0.000000000               0.000000000               0.000000000              -0.000175119               0.005747088               0.001076208              -0.000784054               0.002177028               0.001392974               0.000000000               0.000000000               0.000000000               0.000000000              -0.000019058               0.005739163               0.000945334              -0.000724541               0.002154549               0.001430008               0.000000000               0.000000000               0.000000000               0.000000000               0.000119981               0.005706500               0.000817125              -0.000668318               0.002124920               0.001456602               0.000000000               0.000000000               0.000000000               0.000000000               0.000231088               0.005638788               0.000679545              -0.000618189               0.002085640               0.001467451               0.000000000               0.000000000               0.000000000               0.000000000               0.000301470               0.005518081               0.000525681              -0.000576707               0.002031578               0.001454870               0.000000000               0.000000000               0.000000000               0.000000000               0.000322097               0.005359710               0.000359838              -0.000549176               0.001969611               0.001420435               0.000000000               0.000000000               0.000000000               0.000000000               0.000283825               0.005181657               0.000183458              -0.000541271               0.001907625               0.001366354               0.000000000               0.000000000               0.000000000               0.000000000               0.000229962               0.005078573               0.000087074              -0.000548585               0.001875702               0.001327118               0.000000000               0.000000000               0.000000000               0.000000000              -0.004192800               0.000113172              -0.000101362              -0.001586445               0.000566535              -0.001019910               0.000000000               0.000000000               0.000000000               0.000000000              -0.002627114               0.001169871               0.000871120              -0.001131400               0.000767085              -0.000364316               0.000000000               0.000000000               0.000000000               0.000000000              -0.001639042               0.002281141               0.001707775              -0.000899782               0.001060299               0.000160517               0.000000000               0.000000000               0.000000000               0.000000000              -0.001130179               0.003192584               0.001867402              -0.000822889               0.001338479               0.000515590               0.000000000               0.000000000               0.000000000               0.000000000              -0.000817412               0.003875976               0.001795184              -0.000791026               0.001555654               0.000764628               0.000000000               0.000000000               0.000000000               0.000000000              -0.000594035               0.004378431               0.001649616              -0.000770066               0.001716151               0.000946084               0.000000000               0.000000000               0.000000000               0.000000000              -0.000412390               0.004746640               0.001490657              -0.000747975               0.001831522               0.001083547               0.000000000               0.000000000               0.000000000               0.000000000              -0.000251041               0.005018267               0.001342328              -0.000721423               0.001913213               0.001191790               0.000000000               0.000000000               0.000000000               0.000000000              -0.000100942               0.005215335               0.001210364              -0.000689769               0.001968350               0.001278581               0.000000000               0.000000000               0.000000000               0.000000000               0.000045695               0.005348208               0.001091566              -0.000651389               0.001999848               0.001348459               0.000000000               0.000000000               0.000000000               0.000000000               0.000195419               0.005431208               0.000976621              -0.000605618               0.002012257               0.001406639               0.000000000               0.000000000               0.000000000               0.000000000               0.000344684               0.005480628               0.000860482              -0.000555821               0.002012131               0.001456310               0.000000000               0.000000000               0.000000000               0.000000000               0.000480099               0.005478069               0.000736234              -0.000504720               0.001994245               0.001489524               0.000000000               0.000000000               0.000000000               0.000000000               0.000594156               0.005407592               0.000593421              -0.000453139               0.001953559               0.001500420               0.000000000               0.000000000               0.000000000               0.000000000               0.000682791               0.005295925               0.000426635              -0.000405943               0.001900605               0.001494662               0.000000000               0.000000000               0.000000000               0.000000000               0.000733510               0.005156852               0.000228767              -0.000369539               0.001842113               0.001472574               0.000000000               0.000000000               0.000000000               0.000000000               0.000749585               0.005078711               0.000120159              -0.000353744               0.001810801               0.001457058               0.000000000               0.000000000               0.000000000               0.000000000              -0.005198800              -0.000250621              -0.000229325              -0.001918221               0.000555863              -0.001362358               0.000000000               0.000000000               0.000000000               0.000000000              -0.003122634               0.000541321               0.000546842              -0.001238651               0.000593320              -0.000645332               0.000000000               0.000000000               0.000000000               0.000000000              -0.001656720               0.001372856               0.001242654              -0.000792876               0.000721905              -0.000070971               0.000000000               0.000000000               0.000000000               0.000000000              -0.000945800               0.002239718               0.001418365              -0.000634639               0.000958111               0.000323472               0.000000000               0.000000000               0.000000000               0.000000000              -0.000555735               0.002975067               0.001398639              -0.000580283               0.001185106               0.000604823               0.000000000               0.000000000               0.000000000               0.000000000              -0.000309565               0.003566958               0.001310286              -0.000561956               0.001376292               0.000814336               0.000000000               0.000000000               0.000000000               0.000000000              -0.000125507               0.004037105               0.001202425              -0.000551702               0.001529589               0.000977886               0.000000000               0.000000000               0.000000000               0.000000000               0.000024944               0.004407650               0.001095060              -0.000541601               0.001649736               0.001108134               0.000000000               0.000000000               0.000000000               0.000000000               0.000161328               0.004702148               0.000997923              -0.000527270               0.001743123               0.001215854               0.000000000               0.000000000               0.000000000               0.000000000               0.000293295               0.004929448               0.000910232              -0.000506194               0.001811864               0.001305670               0.000000000               0.000000000               0.000000000               0.000000000               0.000432821               0.005100366               0.000824716              -0.000475237               0.001858517               0.001383280               0.000000000               0.000000000               0.000000000               0.000000000               0.000587446               0.005228420               0.000736422              -0.000433260               0.001887209               0.001453949               0.000000000               0.000000000               0.000000000               0.000000000               0.000747653               0.005291036               0.000641638              -0.000381009               0.001890664               0.001509655               0.000000000               0.000000000               0.000000000               0.000000000               0.000908356               0.005279392               0.000529683              -0.000319290               0.001866210               0.001546920               0.000000000               0.000000000               0.000000000               0.000000000               0.001079861               0.005220938               0.000392396              -0.000247669               0.001822851               0.001575183               0.000000000               0.000000000               0.000000000               0.000000000               0.001258662               0.005122167               0.000218019              -0.000168272               0.001763463               0.001595191               0.000000000               0.000000000               0.000000000               0.000000000               0.001391320               0.005077045               0.000123853              -0.000112885               0.001729960               0.001617074               0.000000000               0.000000000               0.000000000               0.000000000              -0.005872714              -0.000429042              -0.000169512              -0.002148636               0.000573194              -0.001575442               0.000000000               0.000000000               0.000000000               0.000000000              -0.003467848               0.000166390               0.000258883              -0.001321241               0.000495873              -0.000825367               0.000000000               0.000000000               0.000000000               0.000000000              -0.001677877               0.000786572               0.000652855              -0.000727524               0.000504695              -0.000222829               0.000000000               0.000000000               0.000000000               0.000000000              -0.000816451               0.001594461               0.000767239              -0.000505476               0.000699973               0.000194497               0.000000000               0.000000000               0.000000000               0.000000000              -0.000359224               0.002343719               0.000769342              -0.000427673               0.000923789               0.000496116               0.000000000               0.000000000               0.000000000               0.000000000              -0.000088423               0.002984456               0.000730356              -0.000406215               0.001130214               0.000723998               0.000000000               0.000000000               0.000000000               0.000000000               0.000094599               0.003517170               0.000676805              -0.000404171               0.001307102               0.000902931               0.000000000               0.000000000               0.000000000               0.000000000               0.000239728               0.003954289               0.000620586              -0.000404387               0.001452879               0.001048491               0.000000000               0.000000000               0.000000000               0.000000000               0.000369309               0.004310668               0.000569224              -0.000400342               0.001570322               0.001169980               0.000000000               0.000000000               0.000000000               0.000000000               0.000494467               0.004598414               0.000522568              -0.000389376               0.001662581               0.001273205               0.000000000               0.000000000               0.000000000               0.000000000               0.000628140               0.004830973               0.000477629              -0.000368318               0.001733081               0.001364763               0.000000000               0.000000000               0.000000000               0.000000000               0.000783108               0.005017871               0.000430562              -0.000333568               0.001783796               0.001450229               0.000000000               0.000000000               0.000000000               0.000000000               0.000957830               0.005134165               0.000377957              -0.000282584               0.001805566               0.001522982               0.000000000               0.000000000               0.000000000               0.000000000               0.001154658               0.005168020               0.000316616              -0.000213005               0.001793658               0.001580653               0.000000000               0.000000000               0.000000000               0.000000000               0.001393926               0.005148317               0.000239043              -0.000120817               0.001756361               0.001635544               0.000000000               0.000000000               0.000000000               0.000000000               0.001688367               0.005085477               0.000134653              -0.000002547               0.001695991               0.001693444               0.000000000               0.000000000               0.000000000               0.000000000               0.001931677               0.005071490               0.000079957               0.000090442               0.001660333               0.001750774               0.000000000               0.000000000               0.000000000               0.000000000               0.000000000               0.000000000               0.000000000               0.000000000               0.000000000               0.000000000               0.000000000               0.000000000               0.000000000               0.000000000               0.000000000               0.000000000               0.000000000               0.000000000               0.000000000               0.000000000               0.000000000               0.000000000               0.000000000               0.000000000               0.000000000               0.000000000               0.000000000               0.000000000               0.000000000               0.000000000               0.000000000               0.000000000               0.000000000               0.000000000               0.000000000               0.000000000               0.000000000               0.000000000               0.000000000               0.000000000               0.000000000               0.000000000               0.000000000               0.000000000               0.000000000               0.000000000               0.000000000               0.000000000               0.000000000               0.000000000               0.000000000               0.000000000               0.000000000               0.000000000               0.000000000               0.000000000               0.000000000               0.000000000               0.000000000               0.000000000               0.000000000               0.000000000               0.000000000               0.000000000               0.000000000               0.000000000               0.000000000               0.000000000               0.000000000               0.000000000               0.000000000               0.000000000               0.000000000               0.000000000               0.000000000               0.000000000               0.000000000               0.000000000               0.000000000               0.000000000               0.000000000               0.000000000               0.000000000               0.000000000               0.000000000               0.000000000               0.000000000               0.000000000               0.000000000               0.000000000               0.000000000               0.000000000               0.000000000               0.000000000               0.000000000               0.000000000               0.000000000               0.000000000               0.000000000               0.000000000               0.000000000               0.000000000               0.000000000               0.000000000               0.000000000               0.000000000               0.000000000               0.000000000               0.000000000               0.000000000               0.000000000               0.000000000               0.000000000               0.000000000               0.000000000               0.000000000               0.000000000               0.000000000               0.000000000               0.000000000               0.000000000               0.000000000               0.000000000               0.000000000               0.000000000               0.000000000               0.000000000               0.000000000               0.000000000               0.000000000               0.000000000               0.000000000               0.000000000               0.000000000               0.000000000               0.000000000               0.000000000               0.000000000               0.000000000               0.000000000               0.000000000               0.000000000               0.000000000               0.000000000               0.000000000               0.000000000               0.000000000               0.000000000               0.000000000               0.000000000               0.000000000               0.000000000               0.000000000               0.000000000               0.000000000               0.000000000               0.000000000               0.000000000               0.000000000               0.000000000               0.000000000               0.000000000               0.000000000               0.000000000               0.000000000               0.000000000               0.000000000               0.000000000               0.000000000               0.000000000               0.000000000               0.000000000               0.000000000               0.000000000 </DataArray>
</PointData>
</Piece>
</UnstructuredGrid> </VTKFile>
