<?xml version="1.0"?>
<VTKFile type="UnstructuredGrid" version="0.1">
<UnstructuredGrid>
<Piece NumberOfPoints="      1156" NumberOfCells="      1024">
<Points>
<DataArray type="Float64"                                    Name="coordinates"                                                      NumberOfComponents=" 3" format="ascii">
              0.133000000               0.000000000               0.000000000               0.155937500               0.000000000               0.000000000               0.178875000               0.000000000               0.000000000               0.201812500               0.000000000               0.000000000               0.224750000               0.000000000               0.000000000               0.247687500               0.000000000               0.000000000               0.270625000               0.000000000               0.000000000               0.293562500               0.000000000               0.000000000               0.316500000               0.000000000               0.000000000               0.339437500               0.000000000               0.000000000               0.362375000               0.000000000               0.000000000               0.385312500               0.000000000               0.000000000               0.408250000               0.000000000               0.000000000               0.431187500               0.000000000               0.000000000               0.454125000               0.000000000               0.000000000               0.477062500               0.000000000               0.000000000               0.500000000               0.000000000               0.000000000               0.132359569               0.013036280               0.000000000               0.155337096               0.016127762               0.000000000               0.178314623               0.019219245               0.000000000               0.201292150               0.022310727               0.000000000               0.224269676               0.025402210               0.000000000               0.247247203               0.028493692               0.000000000               0.270224730               0.031585175               0.000000000               0.293202257               0.034676657               0.000000000               0.316179784               0.037768140               0.000000000               0.339157311               0.040859622               0.000000000               0.362134838               0.043951105               0.000000000               0.385112365               0.047042587               0.000000000               0.408089892               0.050134070               0.000000000               0.431067419               0.053225552               0.000000000               0.454044946               0.056317035               0.000000000               0.477022473               0.059408517               0.000000000               0.500000000               0.062500000               0.000000000               0.130444442               0.025947013               0.000000000               0.153541665               0.032137825               0.000000000               0.176638887               0.038328636               0.000000000               0.199736109               0.044519448               0.000000000               0.222833332               0.050710260               0.000000000               0.245930554               0.056901071               0.000000000               0.269027776               0.063091883               0.000000000               0.292124999               0.069282695               0.000000000               0.315222221               0.075473506               0.000000000               0.338319444               0.081664318               0.000000000               0.361416666               0.087855130               0.000000000               0.384513888               0.094045942               0.000000000               0.407611111               0.100236753               0.000000000               0.430708333               0.106427565               0.000000000               0.453805555               0.112618377               0.000000000               0.476902778               0.118809188               0.000000000               0.500000000               0.125000000               0.000000000               0.127273065               0.038607862               0.000000000               0.150568498               0.047913621               0.000000000               0.173863932               0.057219379               0.000000000               0.197159365               0.066525138               0.000000000               0.220454798               0.075830897               0.000000000               0.243750232               0.085136655               0.000000000               0.267045665               0.094442414               0.000000000               0.290341099               0.103748172               0.000000000               0.313636532               0.113053931               0.000000000               0.336931966               0.122359690               0.000000000               0.360227399               0.131665448               0.000000000               0.383522833               0.140971207               0.000000000               0.406818266               0.150276966               0.000000000               0.430113700               0.159582724               0.000000000               0.453409133               0.168888483               0.000000000               0.476704567               0.178194241               0.000000000               0.500000000               0.187500000               0.000000000               0.122875978               0.050896897               0.000000000               0.146446229               0.063340840               0.000000000               0.170016481               0.075784784               0.000000000               0.193586732               0.088228728               0.000000000               0.217156983               0.100672672               0.000000000               0.240727235               0.113116616               0.000000000               0.264297486               0.125560560               0.000000000               0.287867738               0.138004504               0.000000000               0.311437989               0.150448448               0.000000000               0.335008240               0.162892392               0.000000000               0.358578492               0.175336336               0.000000000               0.382148743               0.187780280               0.000000000               0.405718994               0.200224224               0.000000000               0.429289246               0.212668168               0.000000000               0.452859497               0.225112112               0.000000000               0.476429749               0.237556056               0.000000000               0.500000000               0.250000000               0.000000000               0.117295528               0.062695766               0.000000000               0.141214558               0.078308531               0.000000000               0.165133587               0.093921295               0.000000000               0.189052617               0.109534060               0.000000000               0.212971646               0.125146824               0.000000000               0.236890676               0.140759589               0.000000000               0.260809705               0.156372354               0.000000000               0.284728735               0.171985118               0.000000000               0.308647764               0.187597883               0.000000000               0.332566794               0.203210648               0.000000000               0.356485823               0.218823412               0.000000000               0.380404853               0.234436177               0.000000000               0.404323882               0.250048941               0.000000000               0.428242912               0.265661706               0.000000000               0.452161941               0.281274471               0.000000000               0.476080971               0.296887235               0.000000000               0.500000000               0.312500000               0.000000000               0.110585458               0.073890841               0.000000000               0.134923867               0.092710163               0.000000000               0.159262276               0.111529486               0.000000000               0.183600685               0.130348808               0.000000000               0.207939094               0.149168131               0.000000000               0.232277503               0.167987453               0.000000000               0.256615912               0.186806776               0.000000000               0.280954320               0.205626098               0.000000000               0.305292729               0.224445420               0.000000000               0.329631138               0.243264743               0.000000000               0.353969547               0.262084065               0.000000000               0.378307956               0.280903388               0.000000000               0.402646365               0.299722710               0.000000000               0.426984773               0.318542033               0.000000000               0.451323182               0.337361355               0.000000000               0.475661591               0.356180678               0.000000000               0.500000000               0.375000000               0.000000000               0.102810390               0.084374307               0.000000000               0.127634741               0.106444663               0.000000000               0.152459092               0.128515018               0.000000000               0.177283442               0.150585374               0.000000000               0.202107793               0.172655730               0.000000000               0.226932143               0.194726086               0.000000000               0.251756494               0.216796442               0.000000000               0.276580845               0.238866798               0.000000000               0.301405195               0.260937153               0.000000000               0.326229546               0.283007509               0.000000000               0.351053896               0.305077865               0.000000000               0.375878247               0.327148221               0.000000000               0.400702598               0.349218577               0.000000000               0.425526948               0.371288933               0.000000000               0.450351299               0.393359288               0.000000000               0.475175649               0.415429644               0.000000000               0.500000000               0.437500000               0.000000000               0.094045202               0.094045202               0.000000000               0.119417377               0.119417377               0.000000000               0.144789552               0.144789552               0.000000000               0.170161727               0.170161727               0.000000000               0.195533901               0.195533901               0.000000000               0.220906076               0.220906076               0.000000000               0.246278251               0.246278251               0.000000000               0.271650426               0.271650426               0.000000000               0.297022601               0.297022601               0.000000000               0.322394776               0.322394776               0.000000000               0.347766951               0.347766951               0.000000000               0.373139126               0.373139126               0.000000000               0.398511300               0.398511300               0.000000000               0.423883475               0.423883475               0.000000000               0.449255650               0.449255650               0.000000000               0.474627825               0.474627825               0.000000000               0.500000000               0.500000000               0.000000000               0.084374307               0.102810390               0.000000000               0.106444663               0.127634741               0.000000000               0.128515018               0.152459092               0.000000000               0.150585374               0.177283442               0.000000000               0.172655730               0.202107793               0.000000000               0.194726086               0.226932143               0.000000000               0.216796442               0.251756494               0.000000000               0.238866798               0.276580845               0.000000000               0.260937153               0.301405195               0.000000000               0.283007509               0.326229546               0.000000000               0.305077865               0.351053896               0.000000000               0.327148221               0.375878247               0.000000000               0.349218577               0.400702598               0.000000000               0.371288933               0.425526948               0.000000000               0.393359288               0.450351299               0.000000000               0.415429644               0.475175649               0.000000000               0.437500000               0.500000000               0.000000000               0.073890841               0.110585458               0.000000000               0.092710163               0.134923867               0.000000000               0.111529486               0.159262276               0.000000000               0.130348808               0.183600685               0.000000000               0.149168131               0.207939094               0.000000000               0.167987453               0.232277503               0.000000000               0.186806776               0.256615912               0.000000000               0.205626098               0.280954320               0.000000000               0.224445420               0.305292729               0.000000000               0.243264743               0.329631138               0.000000000               0.262084065               0.353969547               0.000000000               0.280903388               0.378307956               0.000000000               0.299722710               0.402646365               0.000000000               0.318542033               0.426984773               0.000000000               0.337361355               0.451323182               0.000000000               0.356180678               0.475661591               0.000000000               0.375000000               0.500000000               0.000000000               0.062695766               0.117295528               0.000000000               0.078308531               0.141214558               0.000000000               0.093921295               0.165133587               0.000000000               0.109534060               0.189052617               0.000000000               0.125146824               0.212971646               0.000000000               0.140759589               0.236890676               0.000000000               0.156372354               0.260809705               0.000000000               0.171985118               0.284728735               0.000000000               0.187597883               0.308647764               0.000000000               0.203210648               0.332566794               0.000000000               0.218823412               0.356485823               0.000000000               0.234436177               0.380404853               0.000000000               0.250048941               0.404323882               0.000000000               0.265661706               0.428242912               0.000000000               0.281274471               0.452161941               0.000000000               0.296887235               0.476080971               0.000000000               0.312500000               0.500000000               0.000000000               0.050896897               0.122875978               0.000000000               0.063340840               0.146446229               0.000000000               0.075784784               0.170016481               0.000000000               0.088228728               0.193586732               0.000000000               0.100672672               0.217156983               0.000000000               0.113116616               0.240727235               0.000000000               0.125560560               0.264297486               0.000000000               0.138004504               0.287867738               0.000000000               0.150448448               0.311437989               0.000000000               0.162892392               0.335008240               0.000000000               0.175336336               0.358578492               0.000000000               0.187780280               0.382148743               0.000000000               0.200224224               0.405718994               0.000000000               0.212668168               0.429289246               0.000000000               0.225112112               0.452859497               0.000000000               0.237556056               0.476429749               0.000000000               0.250000000               0.500000000               0.000000000               0.038607862               0.127273065               0.000000000               0.047913621               0.150568498               0.000000000               0.057219379               0.173863932               0.000000000               0.066525138               0.197159365               0.000000000               0.075830897               0.220454798               0.000000000               0.085136655               0.243750232               0.000000000               0.094442414               0.267045665               0.000000000               0.103748172               0.290341099               0.000000000               0.113053931               0.313636532               0.000000000               0.122359690               0.336931966               0.000000000               0.131665448               0.360227399               0.000000000               0.140971207               0.383522833               0.000000000               0.150276966               0.406818266               0.000000000               0.159582724               0.430113700               0.000000000               0.168888483               0.453409133               0.000000000               0.178194241               0.476704567               0.000000000               0.187500000               0.500000000               0.000000000               0.025947013               0.130444442               0.000000000               0.032137825               0.153541665               0.000000000               0.038328636               0.176638887               0.000000000               0.044519448               0.199736109               0.000000000               0.050710260               0.222833332               0.000000000               0.056901071               0.245930554               0.000000000               0.063091883               0.269027776               0.000000000               0.069282695               0.292124999               0.000000000               0.075473506               0.315222221               0.000000000               0.081664318               0.338319444               0.000000000               0.087855130               0.361416666               0.000000000               0.094045942               0.384513888               0.000000000               0.100236753               0.407611111               0.000000000               0.106427565               0.430708333               0.000000000               0.112618377               0.453805555               0.000000000               0.118809188               0.476902778               0.000000000               0.125000000               0.500000000               0.000000000               0.013036280               0.132359569               0.000000000               0.016127762               0.155337096               0.000000000               0.019219245               0.178314623               0.000000000               0.022310727               0.201292150               0.000000000               0.025402210               0.224269676               0.000000000               0.028493692               0.247247203               0.000000000               0.031585175               0.270224730               0.000000000               0.034676657               0.293202257               0.000000000               0.037768140               0.316179784               0.000000000               0.040859622               0.339157311               0.000000000               0.043951105               0.362134838               0.000000000               0.047042587               0.385112365               0.000000000               0.050134070               0.408089892               0.000000000               0.053225552               0.431067419               0.000000000               0.056317035               0.454044946               0.000000000               0.059408517               0.477022473               0.000000000               0.062500000               0.500000000               0.000000000               0.000000000               0.133000000               0.000000000               0.000000000               0.155937500               0.000000000               0.000000000               0.178875000               0.000000000               0.000000000               0.201812500               0.000000000               0.000000000               0.224750000               0.000000000               0.000000000               0.247687500               0.000000000               0.000000000               0.270625000               0.000000000               0.000000000               0.293562500               0.000000000               0.000000000               0.316500000               0.000000000               0.000000000               0.339437500               0.000000000               0.000000000               0.362375000               0.000000000               0.000000000               0.385312500               0.000000000               0.000000000               0.408250000               0.000000000               0.000000000               0.431187500               0.000000000               0.000000000               0.454125000               0.000000000               0.000000000               0.477062500               0.000000000               0.000000000               0.500000000               0.000000000               0.133000000               0.000000000               0.000000000               0.155937500               0.000000000               0.000000000               0.178875000               0.000000000               0.000000000               0.201812500               0.000000000               0.000000000               0.224750000               0.000000000               0.000000000               0.247687500               0.000000000               0.000000000               0.270625000               0.000000000               0.000000000               0.293562500               0.000000000               0.000000000               0.316500000               0.000000000               0.000000000               0.339437500               0.000000000               0.000000000               0.362375000               0.000000000               0.000000000               0.385312500               0.000000000               0.000000000               0.408250000               0.000000000               0.000000000               0.431187500               0.000000000               0.000000000               0.454125000               0.000000000               0.000000000               0.477062500               0.000000000               0.000000000               0.500000000               0.000000000               0.000000000               0.132359569              -0.013036280               0.000000000               0.155337096              -0.016127762               0.000000000               0.178314623              -0.019219245               0.000000000               0.201292150              -0.022310727               0.000000000               0.224269676              -0.025402210               0.000000000               0.247247203              -0.028493692               0.000000000               0.270224730              -0.031585175               0.000000000               0.293202257              -0.034676657               0.000000000               0.316179784              -0.037768140               0.000000000               0.339157311              -0.040859622               0.000000000               0.362134838              -0.043951105               0.000000000               0.385112365              -0.047042587               0.000000000               0.408089892              -0.050134070               0.000000000               0.431067419              -0.053225552               0.000000000               0.454044946              -0.056317035               0.000000000               0.477022473              -0.059408517               0.000000000               0.500000000              -0.062500000               0.000000000               0.130444442              -0.025947013               0.000000000               0.153541665              -0.032137825               0.000000000               0.176638887              -0.038328636               0.000000000               0.199736109              -0.044519448               0.000000000               0.222833332              -0.050710260               0.000000000               0.245930554              -0.056901071               0.000000000               0.269027776              -0.063091883               0.000000000               0.292124999              -0.069282695               0.000000000               0.315222221              -0.075473506               0.000000000               0.338319444              -0.081664318               0.000000000               0.361416666              -0.087855130               0.000000000               0.384513888              -0.094045942               0.000000000               0.407611111              -0.100236753               0.000000000               0.430708333              -0.106427565               0.000000000               0.453805555              -0.112618377               0.000000000               0.476902778              -0.118809188               0.000000000               0.500000000              -0.125000000               0.000000000               0.127273065              -0.038607862               0.000000000               0.150568498              -0.047913621               0.000000000               0.173863932              -0.057219379               0.000000000               0.197159365              -0.066525138               0.000000000               0.220454798              -0.075830897               0.000000000               0.243750232              -0.085136655               0.000000000               0.267045665              -0.094442414               0.000000000               0.290341099              -0.103748172               0.000000000               0.313636532              -0.113053931               0.000000000               0.336931966              -0.122359690               0.000000000               0.360227399              -0.131665448               0.000000000               0.383522833              -0.140971207               0.000000000               0.406818266              -0.150276966               0.000000000               0.430113700              -0.159582724               0.000000000               0.453409133              -0.168888483               0.000000000               0.476704567              -0.178194241               0.000000000               0.500000000              -0.187500000               0.000000000               0.122875978              -0.050896897               0.000000000               0.146446229              -0.063340840               0.000000000               0.170016481              -0.075784784               0.000000000               0.193586732              -0.088228728               0.000000000               0.217156983              -0.100672672               0.000000000               0.240727235              -0.113116616               0.000000000               0.264297486              -0.125560560               0.000000000               0.287867738              -0.138004504               0.000000000               0.311437989              -0.150448448               0.000000000               0.335008240              -0.162892392               0.000000000               0.358578492              -0.175336336               0.000000000               0.382148743              -0.187780280               0.000000000               0.405718994              -0.200224224               0.000000000               0.429289246              -0.212668168               0.000000000               0.452859497              -0.225112112               0.000000000               0.476429749              -0.237556056               0.000000000               0.500000000              -0.250000000               0.000000000               0.117295528              -0.062695766               0.000000000               0.141214558              -0.078308531               0.000000000               0.165133587              -0.093921295               0.000000000               0.189052617              -0.109534060               0.000000000               0.212971646              -0.125146824               0.000000000               0.236890676              -0.140759589               0.000000000               0.260809705              -0.156372354               0.000000000               0.284728735              -0.171985118               0.000000000               0.308647764              -0.187597883               0.000000000               0.332566794              -0.203210648               0.000000000               0.356485823              -0.218823412               0.000000000               0.380404853              -0.234436177               0.000000000               0.404323882              -0.250048941               0.000000000               0.428242912              -0.265661706               0.000000000               0.452161941              -0.281274471               0.000000000               0.476080971              -0.296887235               0.000000000               0.500000000              -0.312500000               0.000000000               0.110585458              -0.073890841               0.000000000               0.134923867              -0.092710163               0.000000000               0.159262276              -0.111529486               0.000000000               0.183600685              -0.130348808               0.000000000               0.207939094              -0.149168131               0.000000000               0.232277503              -0.167987453               0.000000000               0.256615912              -0.186806776               0.000000000               0.280954320              -0.205626098               0.000000000               0.305292729              -0.224445420               0.000000000               0.329631138              -0.243264743               0.000000000               0.353969547              -0.262084065               0.000000000               0.378307956              -0.280903388               0.000000000               0.402646365              -0.299722710               0.000000000               0.426984773              -0.318542033               0.000000000               0.451323182              -0.337361355               0.000000000               0.475661591              -0.356180678               0.000000000               0.500000000              -0.375000000               0.000000000               0.102810390              -0.084374307               0.000000000               0.127634741              -0.106444663               0.000000000               0.152459092              -0.128515018               0.000000000               0.177283442              -0.150585374               0.000000000               0.202107793              -0.172655730               0.000000000               0.226932143              -0.194726086               0.000000000               0.251756494              -0.216796442               0.000000000               0.276580845              -0.238866798               0.000000000               0.301405195              -0.260937153               0.000000000               0.326229546              -0.283007509               0.000000000               0.351053896              -0.305077865               0.000000000               0.375878247              -0.327148221               0.000000000               0.400702598              -0.349218577               0.000000000               0.425526948              -0.371288933               0.000000000               0.450351299              -0.393359288               0.000000000               0.475175649              -0.415429644               0.000000000               0.500000000              -0.437500000               0.000000000               0.094045202              -0.094045202               0.000000000               0.119417377              -0.119417377               0.000000000               0.144789552              -0.144789552               0.000000000               0.170161727              -0.170161727               0.000000000               0.195533901              -0.195533901               0.000000000               0.220906076              -0.220906076               0.000000000               0.246278251              -0.246278251               0.000000000               0.271650426              -0.271650426               0.000000000               0.297022601              -0.297022601               0.000000000               0.322394776              -0.322394776               0.000000000               0.347766951              -0.347766951               0.000000000               0.373139126              -0.373139126               0.000000000               0.398511300              -0.398511300               0.000000000               0.423883475              -0.423883475               0.000000000               0.449255650              -0.449255650               0.000000000               0.474627825              -0.474627825               0.000000000               0.500000000              -0.500000000               0.000000000               0.084374307              -0.102810390               0.000000000               0.106444663              -0.127634741               0.000000000               0.128515018              -0.152459092               0.000000000               0.150585374              -0.177283442               0.000000000               0.172655730              -0.202107793               0.000000000               0.194726086              -0.226932143               0.000000000               0.216796442              -0.251756494               0.000000000               0.238866798              -0.276580845               0.000000000               0.260937153              -0.301405195               0.000000000               0.283007509              -0.326229546               0.000000000               0.305077865              -0.351053896               0.000000000               0.327148221              -0.375878247               0.000000000               0.349218577              -0.400702598               0.000000000               0.371288933              -0.425526948               0.000000000               0.393359288              -0.450351299               0.000000000               0.415429644              -0.475175649               0.000000000               0.437500000              -0.500000000               0.000000000               0.073890841              -0.110585458               0.000000000               0.092710163              -0.134923867               0.000000000               0.111529486              -0.159262276               0.000000000               0.130348808              -0.183600685               0.000000000               0.149168131              -0.207939094               0.000000000               0.167987453              -0.232277503               0.000000000               0.186806776              -0.256615912               0.000000000               0.205626098              -0.280954320               0.000000000               0.224445420              -0.305292729               0.000000000               0.243264743              -0.329631138               0.000000000               0.262084065              -0.353969547               0.000000000               0.280903388              -0.378307956               0.000000000               0.299722710              -0.402646365               0.000000000               0.318542033              -0.426984773               0.000000000               0.337361355              -0.451323182               0.000000000               0.356180678              -0.475661591               0.000000000               0.375000000              -0.500000000               0.000000000               0.062695766              -0.117295528               0.000000000               0.078308531              -0.141214558               0.000000000               0.093921295              -0.165133587               0.000000000               0.109534060              -0.189052617               0.000000000               0.125146824              -0.212971646               0.000000000               0.140759589              -0.236890676               0.000000000               0.156372354              -0.260809705               0.000000000               0.171985118              -0.284728735               0.000000000               0.187597883              -0.308647764               0.000000000               0.203210648              -0.332566794               0.000000000               0.218823412              -0.356485823               0.000000000               0.234436177              -0.380404853               0.000000000               0.250048941              -0.404323882               0.000000000               0.265661706              -0.428242912               0.000000000               0.281274471              -0.452161941               0.000000000               0.296887235              -0.476080971               0.000000000               0.312500000              -0.500000000               0.000000000               0.050896897              -0.122875978               0.000000000               0.063340840              -0.146446229               0.000000000               0.075784784              -0.170016481               0.000000000               0.088228728              -0.193586732               0.000000000               0.100672672              -0.217156983               0.000000000               0.113116616              -0.240727235               0.000000000               0.125560560              -0.264297486               0.000000000               0.138004504              -0.287867738               0.000000000               0.150448448              -0.311437989               0.000000000               0.162892392              -0.335008240               0.000000000               0.175336336              -0.358578492               0.000000000               0.187780280              -0.382148743               0.000000000               0.200224224              -0.405718994               0.000000000               0.212668168              -0.429289246               0.000000000               0.225112112              -0.452859497               0.000000000               0.237556056              -0.476429749               0.000000000               0.250000000              -0.500000000               0.000000000               0.038607862              -0.127273065               0.000000000               0.047913621              -0.150568498               0.000000000               0.057219379              -0.173863932               0.000000000               0.066525138              -0.197159365               0.000000000               0.075830897              -0.220454798               0.000000000               0.085136655              -0.243750232               0.000000000               0.094442414              -0.267045665               0.000000000               0.103748172              -0.290341099               0.000000000               0.113053931              -0.313636532               0.000000000               0.122359690              -0.336931966               0.000000000               0.131665448              -0.360227399               0.000000000               0.140971207              -0.383522833               0.000000000               0.150276966              -0.406818266               0.000000000               0.159582724              -0.430113700               0.000000000               0.168888483              -0.453409133               0.000000000               0.178194241              -0.476704567               0.000000000               0.187500000              -0.500000000               0.000000000               0.025947013              -0.130444442               0.000000000               0.032137825              -0.153541665               0.000000000               0.038328636              -0.176638887               0.000000000               0.044519448              -0.199736109               0.000000000               0.050710260              -0.222833332               0.000000000               0.056901071              -0.245930554               0.000000000               0.063091883              -0.269027776               0.000000000               0.069282695              -0.292124999               0.000000000               0.075473506              -0.315222221               0.000000000               0.081664318              -0.338319444               0.000000000               0.087855130              -0.361416666               0.000000000               0.094045942              -0.384513888               0.000000000               0.100236753              -0.407611111               0.000000000               0.106427565              -0.430708333               0.000000000               0.112618377              -0.453805555               0.000000000               0.118809188              -0.476902778               0.000000000               0.125000000              -0.500000000               0.000000000               0.013036280              -0.132359569               0.000000000               0.016127762              -0.155337096               0.000000000               0.019219245              -0.178314623               0.000000000               0.022310727              -0.201292150               0.000000000               0.025402210              -0.224269676               0.000000000               0.028493692              -0.247247203               0.000000000               0.031585175              -0.270224730               0.000000000               0.034676657              -0.293202257               0.000000000               0.037768140              -0.316179784               0.000000000               0.040859622              -0.339157311               0.000000000               0.043951105              -0.362134838               0.000000000               0.047042587              -0.385112365               0.000000000               0.050134070              -0.408089892               0.000000000               0.053225552              -0.431067419               0.000000000               0.056317035              -0.454044946               0.000000000               0.059408517              -0.477022473               0.000000000               0.062500000              -0.500000000               0.000000000               0.000000000              -0.133000000               0.000000000               0.000000000              -0.155937500               0.000000000               0.000000000              -0.178875000               0.000000000               0.000000000              -0.201812500               0.000000000               0.000000000              -0.224750000               0.000000000               0.000000000              -0.247687500               0.000000000               0.000000000              -0.270625000               0.000000000               0.000000000              -0.293562500               0.000000000               0.000000000              -0.316500000               0.000000000               0.000000000              -0.339437500               0.000000000               0.000000000              -0.362375000               0.000000000               0.000000000              -0.385312500               0.000000000               0.000000000              -0.408250000               0.000000000               0.000000000              -0.431187500               0.000000000               0.000000000              -0.454125000               0.000000000               0.000000000              -0.477062500               0.000000000               0.000000000              -0.500000000               0.000000000              -0.133000000               0.000000000               0.000000000              -0.155937500               0.000000000               0.000000000              -0.178875000               0.000000000               0.000000000              -0.201812500               0.000000000               0.000000000              -0.224750000               0.000000000               0.000000000              -0.247687500               0.000000000               0.000000000              -0.270625000               0.000000000               0.000000000              -0.293562500               0.000000000               0.000000000              -0.316500000               0.000000000               0.000000000              -0.339437500               0.000000000               0.000000000              -0.362375000               0.000000000               0.000000000              -0.385312500               0.000000000               0.000000000              -0.408250000               0.000000000               0.000000000              -0.431187500               0.000000000               0.000000000              -0.454125000               0.000000000               0.000000000              -0.477062500               0.000000000               0.000000000              -0.500000000               0.000000000               0.000000000              -0.132359569              -0.013036280               0.000000000              -0.155337096              -0.016127762               0.000000000              -0.178314623              -0.019219245               0.000000000              -0.201292150              -0.022310727               0.000000000              -0.224269676              -0.025402210               0.000000000              -0.247247203              -0.028493692               0.000000000              -0.270224730              -0.031585175               0.000000000              -0.293202257              -0.034676657               0.000000000              -0.316179784              -0.037768140               0.000000000              -0.339157311              -0.040859622               0.000000000              -0.362134838              -0.043951105               0.000000000              -0.385112365              -0.047042587               0.000000000              -0.408089892              -0.050134070               0.000000000              -0.431067419              -0.053225552               0.000000000              -0.454044946              -0.056317035               0.000000000              -0.477022473              -0.059408517               0.000000000              -0.500000000              -0.062500000               0.000000000              -0.130444442              -0.025947013               0.000000000              -0.153541665              -0.032137825               0.000000000              -0.176638887              -0.038328636               0.000000000              -0.199736109              -0.044519448               0.000000000              -0.222833332              -0.050710260               0.000000000              -0.245930554              -0.056901071               0.000000000              -0.269027776              -0.063091883               0.000000000              -0.292124999              -0.069282695               0.000000000              -0.315222221              -0.075473506               0.000000000              -0.338319444              -0.081664318               0.000000000              -0.361416666              -0.087855130               0.000000000              -0.384513888              -0.094045942               0.000000000              -0.407611111              -0.100236753               0.000000000              -0.430708333              -0.106427565               0.000000000              -0.453805555              -0.112618377               0.000000000              -0.476902778              -0.118809188               0.000000000              -0.500000000              -0.125000000               0.000000000              -0.127273065              -0.038607862               0.000000000              -0.150568498              -0.047913621               0.000000000              -0.173863932              -0.057219379               0.000000000              -0.197159365              -0.066525138               0.000000000              -0.220454798              -0.075830897               0.000000000              -0.243750232              -0.085136655               0.000000000              -0.267045665              -0.094442414               0.000000000              -0.290341099              -0.103748172               0.000000000              -0.313636532              -0.113053931               0.000000000              -0.336931966              -0.122359690               0.000000000              -0.360227399              -0.131665448               0.000000000              -0.383522833              -0.140971207               0.000000000              -0.406818266              -0.150276966               0.000000000              -0.430113700              -0.159582724               0.000000000              -0.453409133              -0.168888483               0.000000000              -0.476704567              -0.178194241               0.000000000              -0.500000000              -0.187500000               0.000000000              -0.122875978              -0.050896897               0.000000000              -0.146446229              -0.063340840               0.000000000              -0.170016481              -0.075784784               0.000000000              -0.193586732              -0.088228728               0.000000000              -0.217156983              -0.100672672               0.000000000              -0.240727235              -0.113116616               0.000000000              -0.264297486              -0.125560560               0.000000000              -0.287867738              -0.138004504               0.000000000              -0.311437989              -0.150448448               0.000000000              -0.335008240              -0.162892392               0.000000000              -0.358578492              -0.175336336               0.000000000              -0.382148743              -0.187780280               0.000000000              -0.405718994              -0.200224224               0.000000000              -0.429289246              -0.212668168               0.000000000              -0.452859497              -0.225112112               0.000000000              -0.476429749              -0.237556056               0.000000000              -0.500000000              -0.250000000               0.000000000              -0.117295528              -0.062695766               0.000000000              -0.141214558              -0.078308531               0.000000000              -0.165133587              -0.093921295               0.000000000              -0.189052617              -0.109534060               0.000000000              -0.212971646              -0.125146824               0.000000000              -0.236890676              -0.140759589               0.000000000              -0.260809705              -0.156372354               0.000000000              -0.284728735              -0.171985118               0.000000000              -0.308647764              -0.187597883               0.000000000              -0.332566794              -0.203210648               0.000000000              -0.356485823              -0.218823412               0.000000000              -0.380404853              -0.234436177               0.000000000              -0.404323882              -0.250048941               0.000000000              -0.428242912              -0.265661706               0.000000000              -0.452161941              -0.281274471               0.000000000              -0.476080971              -0.296887235               0.000000000              -0.500000000              -0.312500000               0.000000000              -0.110585458              -0.073890841               0.000000000              -0.134923867              -0.092710163               0.000000000              -0.159262276              -0.111529486               0.000000000              -0.183600685              -0.130348808               0.000000000              -0.207939094              -0.149168131               0.000000000              -0.232277503              -0.167987453               0.000000000              -0.256615912              -0.186806776               0.000000000              -0.280954320              -0.205626098               0.000000000              -0.305292729              -0.224445420               0.000000000              -0.329631138              -0.243264743               0.000000000              -0.353969547              -0.262084065               0.000000000              -0.378307956              -0.280903388               0.000000000              -0.402646365              -0.299722710               0.000000000              -0.426984773              -0.318542033               0.000000000              -0.451323182              -0.337361355               0.000000000              -0.475661591              -0.356180678               0.000000000              -0.500000000              -0.375000000               0.000000000              -0.102810390              -0.084374307               0.000000000              -0.127634741              -0.106444663               0.000000000              -0.152459092              -0.128515018               0.000000000              -0.177283442              -0.150585374               0.000000000              -0.202107793              -0.172655730               0.000000000              -0.226932143              -0.194726086               0.000000000              -0.251756494              -0.216796442               0.000000000              -0.276580845              -0.238866798               0.000000000              -0.301405195              -0.260937153               0.000000000              -0.326229546              -0.283007509               0.000000000              -0.351053896              -0.305077865               0.000000000              -0.375878247              -0.327148221               0.000000000              -0.400702598              -0.349218577               0.000000000              -0.425526948              -0.371288933               0.000000000              -0.450351299              -0.393359288               0.000000000              -0.475175649              -0.415429644               0.000000000              -0.500000000              -0.437500000               0.000000000              -0.094045202              -0.094045202               0.000000000              -0.119417377              -0.119417377               0.000000000              -0.144789552              -0.144789552               0.000000000              -0.170161727              -0.170161727               0.000000000              -0.195533901              -0.195533901               0.000000000              -0.220906076              -0.220906076               0.000000000              -0.246278251              -0.246278251               0.000000000              -0.271650426              -0.271650426               0.000000000              -0.297022601              -0.297022601               0.000000000              -0.322394776              -0.322394776               0.000000000              -0.347766951              -0.347766951               0.000000000              -0.373139126              -0.373139126               0.000000000              -0.398511300              -0.398511300               0.000000000              -0.423883475              -0.423883475               0.000000000              -0.449255650              -0.449255650               0.000000000              -0.474627825              -0.474627825               0.000000000              -0.500000000              -0.500000000               0.000000000              -0.084374307              -0.102810390               0.000000000              -0.106444663              -0.127634741               0.000000000              -0.128515018              -0.152459092               0.000000000              -0.150585374              -0.177283442               0.000000000              -0.172655730              -0.202107793               0.000000000              -0.194726086              -0.226932143               0.000000000              -0.216796442              -0.251756494               0.000000000              -0.238866798              -0.276580845               0.000000000              -0.260937153              -0.301405195               0.000000000              -0.283007509              -0.326229546               0.000000000              -0.305077865              -0.351053896               0.000000000              -0.327148221              -0.375878247               0.000000000              -0.349218577              -0.400702598               0.000000000              -0.371288933              -0.425526948               0.000000000              -0.393359288              -0.450351299               0.000000000              -0.415429644              -0.475175649               0.000000000              -0.437500000              -0.500000000               0.000000000              -0.073890841              -0.110585458               0.000000000              -0.092710163              -0.134923867               0.000000000              -0.111529486              -0.159262276               0.000000000              -0.130348808              -0.183600685               0.000000000              -0.149168131              -0.207939094               0.000000000              -0.167987453              -0.232277503               0.000000000              -0.186806776              -0.256615912               0.000000000              -0.205626098              -0.280954320               0.000000000              -0.224445420              -0.305292729               0.000000000              -0.243264743              -0.329631138               0.000000000              -0.262084065              -0.353969547               0.000000000              -0.280903388              -0.378307956               0.000000000              -0.299722710              -0.402646365               0.000000000              -0.318542033              -0.426984773               0.000000000              -0.337361355              -0.451323182               0.000000000              -0.356180678              -0.475661591               0.000000000              -0.375000000              -0.500000000               0.000000000              -0.062695766              -0.117295528               0.000000000              -0.078308531              -0.141214558               0.000000000              -0.093921295              -0.165133587               0.000000000              -0.109534060              -0.189052617               0.000000000              -0.125146824              -0.212971646               0.000000000              -0.140759589              -0.236890676               0.000000000              -0.156372354              -0.260809705               0.000000000              -0.171985118              -0.284728735               0.000000000              -0.187597883              -0.308647764               0.000000000              -0.203210648              -0.332566794               0.000000000              -0.218823412              -0.356485823               0.000000000              -0.234436177              -0.380404853               0.000000000              -0.250048941              -0.404323882               0.000000000              -0.265661706              -0.428242912               0.000000000              -0.281274471              -0.452161941               0.000000000              -0.296887235              -0.476080971               0.000000000              -0.312500000              -0.500000000               0.000000000              -0.050896897              -0.122875978               0.000000000              -0.063340840              -0.146446229               0.000000000              -0.075784784              -0.170016481               0.000000000              -0.088228728              -0.193586732               0.000000000              -0.100672672              -0.217156983               0.000000000              -0.113116616              -0.240727235               0.000000000              -0.125560560              -0.264297486               0.000000000              -0.138004504              -0.287867738               0.000000000              -0.150448448              -0.311437989               0.000000000              -0.162892392              -0.335008240               0.000000000              -0.175336336              -0.358578492               0.000000000              -0.187780280              -0.382148743               0.000000000              -0.200224224              -0.405718994               0.000000000              -0.212668168              -0.429289246               0.000000000              -0.225112112              -0.452859497               0.000000000              -0.237556056              -0.476429749               0.000000000              -0.250000000              -0.500000000               0.000000000              -0.038607862              -0.127273065               0.000000000              -0.047913621              -0.150568498               0.000000000              -0.057219379              -0.173863932               0.000000000              -0.066525138              -0.197159365               0.000000000              -0.075830897              -0.220454798               0.000000000              -0.085136655              -0.243750232               0.000000000              -0.094442414              -0.267045665               0.000000000              -0.103748172              -0.290341099               0.000000000              -0.113053931              -0.313636532               0.000000000              -0.122359690              -0.336931966               0.000000000              -0.131665448              -0.360227399               0.000000000              -0.140971207              -0.383522833               0.000000000              -0.150276966              -0.406818266               0.000000000              -0.159582724              -0.430113700               0.000000000              -0.168888483              -0.453409133               0.000000000              -0.178194241              -0.476704567               0.000000000              -0.187500000              -0.500000000               0.000000000              -0.025947013              -0.130444442               0.000000000              -0.032137825              -0.153541665               0.000000000              -0.038328636              -0.176638887               0.000000000              -0.044519448              -0.199736109               0.000000000              -0.050710260              -0.222833332               0.000000000              -0.056901071              -0.245930554               0.000000000              -0.063091883              -0.269027776               0.000000000              -0.069282695              -0.292124999               0.000000000              -0.075473506              -0.315222221               0.000000000              -0.081664318              -0.338319444               0.000000000              -0.087855130              -0.361416666               0.000000000              -0.094045942              -0.384513888               0.000000000              -0.100236753              -0.407611111               0.000000000              -0.106427565              -0.430708333               0.000000000              -0.112618377              -0.453805555               0.000000000              -0.118809188              -0.476902778               0.000000000              -0.125000000              -0.500000000               0.000000000              -0.013036280              -0.132359569               0.000000000              -0.016127762              -0.155337096               0.000000000              -0.019219245              -0.178314623               0.000000000              -0.022310727              -0.201292150               0.000000000              -0.025402210              -0.224269676               0.000000000              -0.028493692              -0.247247203               0.000000000              -0.031585175              -0.270224730               0.000000000              -0.034676657              -0.293202257               0.000000000              -0.037768140              -0.316179784               0.000000000              -0.040859622              -0.339157311               0.000000000              -0.043951105              -0.362134838               0.000000000              -0.047042587              -0.385112365               0.000000000              -0.050134070              -0.408089892               0.000000000              -0.053225552              -0.431067419               0.000000000              -0.056317035              -0.454044946               0.000000000              -0.059408517              -0.477022473               0.000000000              -0.062500000              -0.500000000               0.000000000               0.000000000              -0.133000000               0.000000000               0.000000000              -0.155937500               0.000000000               0.000000000              -0.178875000               0.000000000               0.000000000              -0.201812500               0.000000000               0.000000000              -0.224750000               0.000000000               0.000000000              -0.247687500               0.000000000               0.000000000              -0.270625000               0.000000000               0.000000000              -0.293562500               0.000000000               0.000000000              -0.316500000               0.000000000               0.000000000              -0.339437500               0.000000000               0.000000000              -0.362375000               0.000000000               0.000000000              -0.385312500               0.000000000               0.000000000              -0.408250000               0.000000000               0.000000000              -0.431187500               0.000000000               0.000000000              -0.454125000               0.000000000               0.000000000              -0.477062500               0.000000000               0.000000000              -0.500000000               0.000000000              -0.133000000               0.000000000               0.000000000              -0.155937500               0.000000000               0.000000000              -0.178875000               0.000000000               0.000000000              -0.201812500               0.000000000               0.000000000              -0.224750000               0.000000000               0.000000000              -0.247687500               0.000000000               0.000000000              -0.270625000               0.000000000               0.000000000              -0.293562500               0.000000000               0.000000000              -0.316500000               0.000000000               0.000000000              -0.339437500               0.000000000               0.000000000              -0.362375000               0.000000000               0.000000000              -0.385312500               0.000000000               0.000000000              -0.408250000               0.000000000               0.000000000              -0.431187500               0.000000000               0.000000000              -0.454125000               0.000000000               0.000000000              -0.477062500               0.000000000               0.000000000              -0.500000000               0.000000000               0.000000000              -0.132359569               0.013036280               0.000000000              -0.155337096               0.016127762               0.000000000              -0.178314623               0.019219245               0.000000000              -0.201292150               0.022310727               0.000000000              -0.224269676               0.025402210               0.000000000              -0.247247203               0.028493692               0.000000000              -0.270224730               0.031585175               0.000000000              -0.293202257               0.034676657               0.000000000              -0.316179784               0.037768140               0.000000000              -0.339157311               0.040859622               0.000000000              -0.362134838               0.043951105               0.000000000              -0.385112365               0.047042587               0.000000000              -0.408089892               0.050134070               0.000000000              -0.431067419               0.053225552               0.000000000              -0.454044946               0.056317035               0.000000000              -0.477022473               0.059408517               0.000000000              -0.500000000               0.062500000               0.000000000              -0.130444442               0.025947013               0.000000000              -0.153541665               0.032137825               0.000000000              -0.176638887               0.038328636               0.000000000              -0.199736109               0.044519448               0.000000000              -0.222833332               0.050710260               0.000000000              -0.245930554               0.056901071               0.000000000              -0.269027776               0.063091883               0.000000000              -0.292124999               0.069282695               0.000000000              -0.315222221               0.075473506               0.000000000              -0.338319444               0.081664318               0.000000000              -0.361416666               0.087855130               0.000000000              -0.384513888               0.094045942               0.000000000              -0.407611111               0.100236753               0.000000000              -0.430708333               0.106427565               0.000000000              -0.453805555               0.112618377               0.000000000              -0.476902778               0.118809188               0.000000000              -0.500000000               0.125000000               0.000000000              -0.127273065               0.038607862               0.000000000              -0.150568498               0.047913621               0.000000000              -0.173863932               0.057219379               0.000000000              -0.197159365               0.066525138               0.000000000              -0.220454798               0.075830897               0.000000000              -0.243750232               0.085136655               0.000000000              -0.267045665               0.094442414               0.000000000              -0.290341099               0.103748172               0.000000000              -0.313636532               0.113053931               0.000000000              -0.336931966               0.122359690               0.000000000              -0.360227399               0.131665448               0.000000000              -0.383522833               0.140971207               0.000000000              -0.406818266               0.150276966               0.000000000              -0.430113700               0.159582724               0.000000000              -0.453409133               0.168888483               0.000000000              -0.476704567               0.178194241               0.000000000              -0.500000000               0.187500000               0.000000000              -0.122875978               0.050896897               0.000000000              -0.146446229               0.063340840               0.000000000              -0.170016481               0.075784784               0.000000000              -0.193586732               0.088228728               0.000000000              -0.217156983               0.100672672               0.000000000              -0.240727235               0.113116616               0.000000000              -0.264297486               0.125560560               0.000000000              -0.287867738               0.138004504               0.000000000              -0.311437989               0.150448448               0.000000000              -0.335008240               0.162892392               0.000000000              -0.358578492               0.175336336               0.000000000              -0.382148743               0.187780280               0.000000000              -0.405718994               0.200224224               0.000000000              -0.429289246               0.212668168               0.000000000              -0.452859497               0.225112112               0.000000000              -0.476429749               0.237556056               0.000000000              -0.500000000               0.250000000               0.000000000              -0.117295528               0.062695766               0.000000000              -0.141214558               0.078308531               0.000000000              -0.165133587               0.093921295               0.000000000              -0.189052617               0.109534060               0.000000000              -0.212971646               0.125146824               0.000000000              -0.236890676               0.140759589               0.000000000              -0.260809705               0.156372354               0.000000000              -0.284728735               0.171985118               0.000000000              -0.308647764               0.187597883               0.000000000              -0.332566794               0.203210648               0.000000000              -0.356485823               0.218823412               0.000000000              -0.380404853               0.234436177               0.000000000              -0.404323882               0.250048941               0.000000000              -0.428242912               0.265661706               0.000000000              -0.452161941               0.281274471               0.000000000              -0.476080971               0.296887235               0.000000000              -0.500000000               0.312500000               0.000000000              -0.110585458               0.073890841               0.000000000              -0.134923867               0.092710163               0.000000000              -0.159262276               0.111529486               0.000000000              -0.183600685               0.130348808               0.000000000              -0.207939094               0.149168131               0.000000000              -0.232277503               0.167987453               0.000000000              -0.256615912               0.186806776               0.000000000              -0.280954320               0.205626098               0.000000000              -0.305292729               0.224445420               0.000000000              -0.329631138               0.243264743               0.000000000              -0.353969547               0.262084065               0.000000000              -0.378307956               0.280903388               0.000000000              -0.402646365               0.299722710               0.000000000              -0.426984773               0.318542033               0.000000000              -0.451323182               0.337361355               0.000000000              -0.475661591               0.356180678               0.000000000              -0.500000000               0.375000000               0.000000000              -0.102810390               0.084374307               0.000000000              -0.127634741               0.106444663               0.000000000              -0.152459092               0.128515018               0.000000000              -0.177283442               0.150585374               0.000000000              -0.202107793               0.172655730               0.000000000              -0.226932143               0.194726086               0.000000000              -0.251756494               0.216796442               0.000000000              -0.276580845               0.238866798               0.000000000              -0.301405195               0.260937153               0.000000000              -0.326229546               0.283007509               0.000000000              -0.351053896               0.305077865               0.000000000              -0.375878247               0.327148221               0.000000000              -0.400702598               0.349218577               0.000000000              -0.425526948               0.371288933               0.000000000              -0.450351299               0.393359288               0.000000000              -0.475175649               0.415429644               0.000000000              -0.500000000               0.437500000               0.000000000              -0.094045202               0.094045202               0.000000000              -0.119417377               0.119417377               0.000000000              -0.144789552               0.144789552               0.000000000              -0.170161727               0.170161727               0.000000000              -0.195533901               0.195533901               0.000000000              -0.220906076               0.220906076               0.000000000              -0.246278251               0.246278251               0.000000000              -0.271650426               0.271650426               0.000000000              -0.297022601               0.297022601               0.000000000              -0.322394776               0.322394776               0.000000000              -0.347766951               0.347766951               0.000000000              -0.373139126               0.373139126               0.000000000              -0.398511300               0.398511300               0.000000000              -0.423883475               0.423883475               0.000000000              -0.449255650               0.449255650               0.000000000              -0.474627825               0.474627825               0.000000000              -0.500000000               0.500000000               0.000000000              -0.084374307               0.102810390               0.000000000              -0.106444663               0.127634741               0.000000000              -0.128515018               0.152459092               0.000000000              -0.150585374               0.177283442               0.000000000              -0.172655730               0.202107793               0.000000000              -0.194726086               0.226932143               0.000000000              -0.216796442               0.251756494               0.000000000              -0.238866798               0.276580845               0.000000000              -0.260937153               0.301405195               0.000000000              -0.283007509               0.326229546               0.000000000              -0.305077865               0.351053896               0.000000000              -0.327148221               0.375878247               0.000000000              -0.349218577               0.400702598               0.000000000              -0.371288933               0.425526948               0.000000000              -0.393359288               0.450351299               0.000000000              -0.415429644               0.475175649               0.000000000              -0.437500000               0.500000000               0.000000000              -0.073890841               0.110585458               0.000000000              -0.092710163               0.134923867               0.000000000              -0.111529486               0.159262276               0.000000000              -0.130348808               0.183600685               0.000000000              -0.149168131               0.207939094               0.000000000              -0.167987453               0.232277503               0.000000000              -0.186806776               0.256615912               0.000000000              -0.205626098               0.280954320               0.000000000              -0.224445420               0.305292729               0.000000000              -0.243264743               0.329631138               0.000000000              -0.262084065               0.353969547               0.000000000              -0.280903388               0.378307956               0.000000000              -0.299722710               0.402646365               0.000000000              -0.318542033               0.426984773               0.000000000              -0.337361355               0.451323182               0.000000000              -0.356180678               0.475661591               0.000000000              -0.375000000               0.500000000               0.000000000              -0.062695766               0.117295528               0.000000000              -0.078308531               0.141214558               0.000000000              -0.093921295               0.165133587               0.000000000              -0.109534060               0.189052617               0.000000000              -0.125146824               0.212971646               0.000000000              -0.140759589               0.236890676               0.000000000              -0.156372354               0.260809705               0.000000000              -0.171985118               0.284728735               0.000000000              -0.187597883               0.308647764               0.000000000              -0.203210648               0.332566794               0.000000000              -0.218823412               0.356485823               0.000000000              -0.234436177               0.380404853               0.000000000              -0.250048941               0.404323882               0.000000000              -0.265661706               0.428242912               0.000000000              -0.281274471               0.452161941               0.000000000              -0.296887235               0.476080971               0.000000000              -0.312500000               0.500000000               0.000000000              -0.050896897               0.122875978               0.000000000              -0.063340840               0.146446229               0.000000000              -0.075784784               0.170016481               0.000000000              -0.088228728               0.193586732               0.000000000              -0.100672672               0.217156983               0.000000000              -0.113116616               0.240727235               0.000000000              -0.125560560               0.264297486               0.000000000              -0.138004504               0.287867738               0.000000000              -0.150448448               0.311437989               0.000000000              -0.162892392               0.335008240               0.000000000              -0.175336336               0.358578492               0.000000000              -0.187780280               0.382148743               0.000000000              -0.200224224               0.405718994               0.000000000              -0.212668168               0.429289246               0.000000000              -0.225112112               0.452859497               0.000000000              -0.237556056               0.476429749               0.000000000              -0.250000000               0.500000000               0.000000000              -0.038607862               0.127273065               0.000000000              -0.047913621               0.150568498               0.000000000              -0.057219379               0.173863932               0.000000000              -0.066525138               0.197159365               0.000000000              -0.075830897               0.220454798               0.000000000              -0.085136655               0.243750232               0.000000000              -0.094442414               0.267045665               0.000000000              -0.103748172               0.290341099               0.000000000              -0.113053931               0.313636532               0.000000000              -0.122359690               0.336931966               0.000000000              -0.131665448               0.360227399               0.000000000              -0.140971207               0.383522833               0.000000000              -0.150276966               0.406818266               0.000000000              -0.159582724               0.430113700               0.000000000              -0.168888483               0.453409133               0.000000000              -0.178194241               0.476704567               0.000000000              -0.187500000               0.500000000               0.000000000              -0.025947013               0.130444442               0.000000000              -0.032137825               0.153541665               0.000000000              -0.038328636               0.176638887               0.000000000              -0.044519448               0.199736109               0.000000000              -0.050710260               0.222833332               0.000000000              -0.056901071               0.245930554               0.000000000              -0.063091883               0.269027776               0.000000000              -0.069282695               0.292124999               0.000000000              -0.075473506               0.315222221               0.000000000              -0.081664318               0.338319444               0.000000000              -0.087855130               0.361416666               0.000000000              -0.094045942               0.384513888               0.000000000              -0.100236753               0.407611111               0.000000000              -0.106427565               0.430708333               0.000000000              -0.112618377               0.453805555               0.000000000              -0.118809188               0.476902778               0.000000000              -0.125000000               0.500000000               0.000000000              -0.013036280               0.132359569               0.000000000              -0.016127762               0.155337096               0.000000000              -0.019219245               0.178314623               0.000000000              -0.022310727               0.201292150               0.000000000              -0.025402210               0.224269676               0.000000000              -0.028493692               0.247247203               0.000000000              -0.031585175               0.270224730               0.000000000              -0.034676657               0.293202257               0.000000000              -0.037768140               0.316179784               0.000000000              -0.040859622               0.339157311               0.000000000              -0.043951105               0.362134838               0.000000000              -0.047042587               0.385112365               0.000000000              -0.050134070               0.408089892               0.000000000              -0.053225552               0.431067419               0.000000000              -0.056317035               0.454044946               0.000000000              -0.059408517               0.477022473               0.000000000              -0.062500000               0.500000000               0.000000000               0.000000000               0.133000000               0.000000000               0.000000000               0.155937500               0.000000000               0.000000000               0.178875000               0.000000000               0.000000000               0.201812500               0.000000000               0.000000000               0.224750000               0.000000000               0.000000000               0.247687500               0.000000000               0.000000000               0.270625000               0.000000000               0.000000000               0.293562500               0.000000000               0.000000000               0.316500000               0.000000000               0.000000000               0.339437500               0.000000000               0.000000000               0.362375000               0.000000000               0.000000000               0.385312500               0.000000000               0.000000000               0.408250000               0.000000000               0.000000000               0.431187500               0.000000000               0.000000000               0.454125000               0.000000000               0.000000000               0.477062500               0.000000000               0.000000000               0.500000000               0.000000000 </DataArray>
</Points>
<Cells>
<DataArray type="Int32"                                    Name="connectivity"                                                      NumberOfComponents=" 1" format="ascii">
         0          1         18         17          1          2         19         18          2          3         20         19          3          4         21         20          4          5         22         21          5          6         23         22          6          7         24         23          7          8         25         24          8          9         26         25          9         10         27         26         10         11         28         27         11         12         29         28         12         13         30         29         13         14         31         30         14         15         32         31         15         16         33         32         17         18         35         34         18         19         36         35         19         20         37         36         20         21         38         37         21         22         39         38         22         23         40         39         23         24         41         40         24         25         42         41         25         26         43         42         26         27         44         43         27         28         45         44         28         29         46         45         29         30         47         46         30         31         48         47         31         32         49         48         32         33         50         49         34         35         52         51         35         36         53         52         36         37         54         53         37         38         55         54         38         39         56         55         39         40         57         56         40         41         58         57         41         42         59         58         42         43         60         59         43         44         61         60         44         45         62         61         45         46         63         62         46         47         64         63         47         48         65         64         48         49         66         65         49         50         67         66         51         52         69         68         52         53         70         69         53         54         71         70         54         55         72         71         55         56         73         72         56         57         74         73         57         58         75         74         58         59         76         75         59         60         77         76         60         61         78         77         61         62         79         78         62         63         80         79         63         64         81         80         64         65         82         81         65         66         83         82         66         67         84         83         68         69         86         85         69         70         87         86         70         71         88         87         71         72         89         88         72         73         90         89         73         74         91         90         74         75         92         91         75         76         93         92         76         77         94         93         77         78         95         94         78         79         96         95         79         80         97         96         80         81         98         97         81         82         99         98         82         83        100         99         83         84        101        100         85         86        103        102         86         87        104        103         87         88        105        104         88         89        106        105         89         90        107        106         90         91        108        107         91         92        109        108         92         93        110        109         93         94        111        110         94         95        112        111         95         96        113        112         96         97        114        113         97         98        115        114         98         99        116        115         99        100        117        116        100        101        118        117        102        103        120        119        103        104        121        120        104        105        122        121        105        106        123        122        106        107        124        123        107        108        125        124        108        109        126        125        109        110        127        126        110        111        128        127        111        112        129        128        112        113        130        129        113        114        131        130        114        115        132        131        115        116        133        132        116        117        134        133        117        118        135        134        119        120        137        136        120        121        138        137        121        122        139        138        122        123        140        139        123        124        141        140        124        125        142        141        125        126        143        142        126        127        144        143        127        128        145        144        128        129        146        145        129        130        147        146        130        131        148        147        131        132        149        148        132        133        150        149        133        134        151        150        134        135        152        151        136        137        154        153        137        138        155        154        138        139        156        155        139        140        157        156        140        141        158        157        141        142        159        158        142        143        160        159        143        144        161        160        144        145        162        161        145        146        163        162        146        147        164        163        147        148        165        164        148        149        166        165        149        150        167        166        150        151        168        167        151        152        169        168        153        154        171        170        154        155        172        171        155        156        173        172        156        157        174        173        157        158        175        174        158        159        176        175        159        160        177        176        160        161        178        177        161        162        179        178        162        163        180        179        163        164        181        180        164        165        182        181        165        166        183        182        166        167        184        183        167        168        185        184        168        169        186        185        170        171        188        187        171        172        189        188        172        173        190        189        173        174        191        190        174        175        192        191        175        176        193        192        176        177        194        193        177        178        195        194        178        179        196        195        179        180        197        196        180        181        198        197        181        182        199        198        182        183        200        199        183        184        201        200        184        185        202        201        185        186        203        202        187        188        205        204        188        189        206        205        189        190        207        206        190        191        208        207        191        192        209        208        192        193        210        209        193        194        211        210        194        195        212        211        195        196        213        212        196        197        214        213        197        198        215        214        198        199        216        215        199        200        217        216        200        201        218        217        201        202        219        218        202        203        220        219        204        205        222        221        205        206        223        222        206        207        224        223        207        208        225        224        208        209        226        225        209        210        227        226        210        211        228        227        211        212        229        228        212        213        230        229        213        214        231        230        214        215        232        231        215        216        233        232        216        217        234        233        217        218        235        234        218        219        236        235        219        220        237        236        221        222        239        238        222        223        240        239        223        224        241        240        224        225        242        241        225        226        243        242        226        227        244        243        227        228        245        244        228        229        246        245        229        230        247        246        230        231        248        247        231        232        249        248        232        233        250        249        233        234        251        250        234        235        252        251        235        236        253        252        236        237        254        253        238        239        256        255        239        240        257        256        240        241        258        257        241        242        259        258        242        243        260        259        243        244        261        260        244        245        262        261        245        246        263        262        246        247        264        263        247        248        265        264        248        249        266        265        249        250        267        266        250        251        268        267        251        252        269        268        252        253        270        269        253        254        271        270        255        256        273        272        256        257        274        273        257        258        275        274        258        259        276        275        259        260        277        276        260        261        278        277        261        262        279        278        262        263        280        279        263        264        281        280        264        265        282        281        265        266        283        282        266        267        284        283        267        268        285        284        268        269        286        285        269        270        287        286        270        271        288        287        306        307          1          0        307        308          2          1        308        309          3          2        309        310          4          3        310        311          5          4        311        312          6          5        312        313          7          6        313        314          8          7        314        315          9          8        315        316         10          9        316        317         11         10        317        318         12         11        318        319         13         12        319        320         14         13        320        321         15         14        321        322         16         15        323        324        307        306        324        325        308        307        325        326        309        308        326        327        310        309        327        328        311        310        328        329        312        311        329        330        313        312        330        331        314        313        331        332        315        314        332        333        316        315        333        334        317        316        334        335        318        317        335        336        319        318        336        337        320        319        337        338        321        320        338        339        322        321        340        341        324        323        341        342        325        324        342        343        326        325        343        344        327        326        344        345        328        327        345        346        329        328        346        347        330        329        347        348        331        330        348        349        332        331        349        350        333        332        350        351        334        333        351        352        335        334        352        353        336        335        353        354        337        336        354        355        338        337        355        356        339        338        357        358        341        340        358        359        342        341        359        360        343        342        360        361        344        343        361        362        345        344        362        363        346        345        363        364        347        346        364        365        348        347        365        366        349        348        366        367        350        349        367        368        351        350        368        369        352        351        369        370        353        352        370        371        354        353        371        372        355        354        372        373        356        355        374        375        358        357        375        376        359        358        376        377        360        359        377        378        361        360        378        379        362        361        379        380        363        362        380        381        364        363        381        382        365        364        382        383        366        365        383        384        367        366        384        385        368        367        385        386        369        368        386        387        370        369        387        388        371        370        388        389        372        371        389        390        373        372        391        392        375        374        392        393        376        375        393        394        377        376        394        395        378        377        395        396        379        378        396        397        380        379        397        398        381        380        398        399        382        381        399        400        383        382        400        401        384        383        401        402        385        384        402        403        386        385        403        404        387        386        404        405        388        387        405        406        389        388        406        407        390        389        408        409        392        391        409        410        393        392        410        411        394        393        411        412        395        394        412        413        396        395        413        414        397        396        414        415        398        397        415        416        399        398        416        417        400        399        417        418        401        400        418        419        402        401        419        420        403        402        420        421        404        403        421        422        405        404        422        423        406        405        423        424        407        406        425        426        409        408        426        427        410        409        427        428        411        410        428        429        412        411        429        430        413        412        430        431        414        413        431        432        415        414        432        433        416        415        433        434        417        416        434        435        418        417        435        436        419        418        436        437        420        419        437        438        421        420        438        439        422        421        439        440        423        422        440        441        424        423        442        443        426        425        443        444        427        426        444        445        428        427        445        446        429        428        446        447        430        429        447        448        431        430        448        449        432        431        449        450        433        432        450        451        434        433        451        452        435        434        452        453        436        435        453        454        437        436        454        455        438        437        455        456        439        438        456        457        440        439        457        458        441        440        459        460        443        442        460        461        444        443        461        462        445        444        462        463        446        445        463        464        447        446        464        465        448        447        465        466        449        448        466        467        450        449        467        468        451        450        468        469        452        451        469        470        453        452        470        471        454        453        471        472        455        454        472        473        456        455        473        474        457        456        474        475        458        457        476        477        460        459        477        478        461        460        478        479        462        461        479        480        463        462        480        481        464        463        481        482        465        464        482        483        466        465        483        484        467        466        484        485        468        467        485        486        469        468        486        487        470        469        487        488        471        470        488        489        472        471        489        490        473        472        490        491        474        473        491        492        475        474        493        494        477        476        494        495        478        477        495        496        479        478        496        497        480        479        497        498        481        480        498        499        482        481        499        500        483        482        500        501        484        483        501        502        485        484        502        503        486        485        503        504        487        486        504        505        488        487        505        506        489        488        506        507        490        489        507        508        491        490        508        509        492        491        510        511        494        493        511        512        495        494        512        513        496        495        513        514        497        496        514        515        498        497        515        516        499        498        516        517        500        499        517        518        501        500        518        519        502        501        519        520        503        502        520        521        504        503        521        522        505        504        522        523        506        505        523        524        507        506        524        525        508        507        525        526        509        508        527        528        511        510        528        529        512        511        529        530        513        512        530        531        514        513        531        532        515        514        532        533        516        515        533        534        517        516        534        535        518        517        535        536        519        518        536        537        520        519        537        538        521        520        538        539        522        521        539        540        523        522        540        541        524        523        541        542        525        524        542        543        526        525        544        545        528        527        545        546        529        528        546        547        530        529        547        548        531        530        548        549        532        531        549        550        533        532        550        551        534        533        551        552        535        534        552        553        536        535        553        554        537        536        554        555        538        537        555        556        539        538        556        557        540        539        557        558        541        540        558        559        542        541        559        560        543        542        561        562        545        544        562        563        546        545        563        564        547        546        564        565        548        547        565        566        549        548        566        567        550        549        567        568        551        550        568        569        552        551        569        570        553        552        570        571        554        553        571        572        555        554        572        573        556        555        573        574        557        556        574        575        558        557        575        576        559        558        576        577        560        559        578        579        596        595        579        580        597        596        580        581        598        597        581        582        599        598        582        583        600        599        583        584        601        600        584        585        602        601        585        586        603        602        586        587        604        603        587        588        605        604        588        589        606        605        589        590        607        606        590        591        608        607        591        592        609        608        592        593        610        609        593        594        611        610        595        596        613        612        596        597        614        613        597        598        615        614        598        599        616        615        599        600        617        616        600        601        618        617        601        602        619        618        602        603        620        619        603        604        621        620        604        605        622        621        605        606        623        622        606        607        624        623        607        608        625        624        608        609        626        625        609        610        627        626        610        611        628        627        612        613        630        629        613        614        631        630        614        615        632        631        615        616        633        632        616        617        634        633        617        618        635        634        618        619        636        635        619        620        637        636        620        621        638        637        621        622        639        638        622        623        640        639        623        624        641        640        624        625        642        641        625        626        643        642        626        627        644        643        627        628        645        644        629        630        647        646        630        631        648        647        631        632        649        648        632        633        650        649        633        634        651        650        634        635        652        651        635        636        653        652        636        637        654        653        637        638        655        654        638        639        656        655        639        640        657        656        640        641        658        657        641        642        659        658        642        643        660        659        643        644        661        660        644        645        662        661        646        647        664        663        647        648        665        664        648        649        666        665        649        650        667        666        650        651        668        667        651        652        669        668        652        653        670        669        653        654        671        670        654        655        672        671        655        656        673        672        656        657        674        673        657        658        675        674        658        659        676        675        659        660        677        676        660        661        678        677        661        662        679        678        663        664        681        680        664        665        682        681        665        666        683        682        666        667        684        683        667        668        685        684        668        669        686        685        669        670        687        686        670        671        688        687        671        672        689        688        672        673        690        689        673        674        691        690        674        675        692        691        675        676        693        692        676        677        694        693        677        678        695        694        678        679        696        695        680        681        698        697        681        682        699        698        682        683        700        699        683        684        701        700        684        685        702        701        685        686        703        702        686        687        704        703        687        688        705        704        688        689        706        705        689        690        707        706        690        691        708        707        691        692        709        708        692        693        710        709        693        694        711        710        694        695        712        711        695        696        713        712        697        698        715        714        698        699        716        715        699        700        717        716        700        701        718        717        701        702        719        718        702        703        720        719        703        704        721        720        704        705        722        721        705        706        723        722        706        707        724        723        707        708        725        724        708        709        726        725        709        710        727        726        710        711        728        727        711        712        729        728        712        713        730        729        714        715        732        731        715        716        733        732        716        717        734        733        717        718        735        734        718        719        736        735        719        720        737        736        720        721        738        737        721        722        739        738        722        723        740        739        723        724        741        740        724        725        742        741        725        726        743        742        726        727        744        743        727        728        745        744        728        729        746        745        729        730        747        746        731        732        749        748        732        733        750        749        733        734        751        750        734        735        752        751        735        736        753        752        736        737        754        753        737        738        755        754        738        739        756        755        739        740        757        756        740        741        758        757        741        742        759        758        742        743        760        759        743        744        761        760        744        745        762        761        745        746        763        762        746        747        764        763        748        749        766        765        749        750        767        766        750        751        768        767        751        752        769        768        752        753        770        769        753        754        771        770        754        755        772        771        755        756        773        772        756        757        774        773        757        758        775        774        758        759        776        775        759        760        777        776        760        761        778        777        761        762        779        778        762        763        780        779        763        764        781        780        765        766        783        782        766        767        784        783        767        768        785        784        768        769        786        785        769        770        787        786        770        771        788        787        771        772        789        788        772        773        790        789        773        774        791        790        774        775        792        791        775        776        793        792        776        777        794        793        777        778        795        794        778        779        796        795        779        780        797        796        780        781        798        797        782        783        800        799        783        784        801        800        784        785        802        801        785        786        803        802        786        787        804        803        787        788        805        804        788        789        806        805        789        790        807        806        790        791        808        807        791        792        809        808        792        793        810        809        793        794        811        810        794        795        812        811        795        796        813        812        796        797        814        813        797        798        815        814        799        800        817        816        800        801        818        817        801        802        819        818        802        803        820        819        803        804        821        820        804        805        822        821        805        806        823        822        806        807        824        823        807        808        825        824        808        809        826        825        809        810        827        826        810        811        828        827        811        812        829        828        812        813        830        829        813        814        831        830        814        815        832        831        816        817        834        833        817        818        835        834        818        819        836        835        819        820        837        836        820        821        838        837        821        822        839        838        822        823        840        839        823        824        841        840        824        825        842        841        825        826        843        842        826        827        844        843        827        828        845        844        828        829        846        845        829        830        847        846        830        831        848        847        831        832        849        848        833        834        562        561        834        835        563        562        835        836        564        563        836        837        565        564        837        838        566        565        838        839        567        566        839        840        568        567        840        841        569        568        841        842        570        569        842        843        571        570        843        844        572        571        844        845        573        572        845        846        574        573        846        847        575        574        847        848        576        575        848        849        577        576        884        885        579        578        885        886        580        579        886        887        581        580        887        888        582        581        888        889        583        582        889        890        584        583        890        891        585        584        891        892        586        585        892        893        587        586        893        894        588        587        894        895        589        588        895        896        590        589        896        897        591        590        897        898        592        591        898        899        593        592        899        900        594        593        901        902        885        884        902        903        886        885        903        904        887        886        904        905        888        887        905        906        889        888        906        907        890        889        907        908        891        890        908        909        892        891        909        910        893        892        910        911        894        893        911        912        895        894        912        913        896        895        913        914        897        896        914        915        898        897        915        916        899        898        916        917        900        899        918        919        902        901        919        920        903        902        920        921        904        903        921        922        905        904        922        923        906        905        923        924        907        906        924        925        908        907        925        926        909        908        926        927        910        909        927        928        911        910        928        929        912        911        929        930        913        912        930        931        914        913        931        932        915        914        932        933        916        915        933        934        917        916        935        936        919        918        936        937        920        919        937        938        921        920        938        939        922        921        939        940        923        922        940        941        924        923        941        942        925        924        942        943        926        925        943        944        927        926        944        945        928        927        945        946        929        928        946        947        930        929        947        948        931        930        948        949        932        931        949        950        933        932        950        951        934        933        952        953        936        935        953        954        937        936        954        955        938        937        955        956        939        938        956        957        940        939        957        958        941        940        958        959        942        941        959        960        943        942        960        961        944        943        961        962        945        944        962        963        946        945        963        964        947        946        964        965        948        947        965        966        949        948        966        967        950        949        967        968        951        950        969        970        953        952        970        971        954        953        971        972        955        954        972        973        956        955        973        974        957        956        974        975        958        957        975        976        959        958        976        977        960        959        977        978        961        960        978        979        962        961        979        980        963        962        980        981        964        963        981        982        965        964        982        983        966        965        983        984        967        966        984        985        968        967        986        987        970        969        987        988        971        970        988        989        972        971        989        990        973        972        990        991        974        973        991        992        975        974        992        993        976        975        993        994        977        976        994        995        978        977        995        996        979        978        996        997        980        979        997        998        981        980        998        999        982        981        999       1000        983        982       1000       1001        984        983       1001       1002        985        984       1003       1004        987        986       1004       1005        988        987       1005       1006        989        988       1006       1007        990        989       1007       1008        991        990       1008       1009        992        991       1009       1010        993        992       1010       1011        994        993       1011       1012        995        994       1012       1013        996        995       1013       1014        997        996       1014       1015        998        997       1015       1016        999        998       1016       1017       1000        999       1017       1018       1001       1000       1018       1019       1002       1001       1020       1021       1004       1003       1021       1022       1005       1004       1022       1023       1006       1005       1023       1024       1007       1006       1024       1025       1008       1007       1025       1026       1009       1008       1026       1027       1010       1009       1027       1028       1011       1010       1028       1029       1012       1011       1029       1030       1013       1012       1030       1031       1014       1013       1031       1032       1015       1014       1032       1033       1016       1015       1033       1034       1017       1016       1034       1035       1018       1017       1035       1036       1019       1018       1037       1038       1021       1020       1038       1039       1022       1021       1039       1040       1023       1022       1040       1041       1024       1023       1041       1042       1025       1024       1042       1043       1026       1025       1043       1044       1027       1026       1044       1045       1028       1027       1045       1046       1029       1028       1046       1047       1030       1029       1047       1048       1031       1030       1048       1049       1032       1031       1049       1050       1033       1032       1050       1051       1034       1033       1051       1052       1035       1034       1052       1053       1036       1035       1054       1055       1038       1037       1055       1056       1039       1038       1056       1057       1040       1039       1057       1058       1041       1040       1058       1059       1042       1041       1059       1060       1043       1042       1060       1061       1044       1043       1061       1062       1045       1044       1062       1063       1046       1045       1063       1064       1047       1046       1064       1065       1048       1047       1065       1066       1049       1048       1066       1067       1050       1049       1067       1068       1051       1050       1068       1069       1052       1051       1069       1070       1053       1052       1071       1072       1055       1054       1072       1073       1056       1055       1073       1074       1057       1056       1074       1075       1058       1057       1075       1076       1059       1058       1076       1077       1060       1059       1077       1078       1061       1060       1078       1079       1062       1061       1079       1080       1063       1062       1080       1081       1064       1063       1081       1082       1065       1064       1082       1083       1066       1065       1083       1084       1067       1066       1084       1085       1068       1067       1085       1086       1069       1068       1086       1087       1070       1069       1088       1089       1072       1071       1089       1090       1073       1072       1090       1091       1074       1073       1091       1092       1075       1074       1092       1093       1076       1075       1093       1094       1077       1076       1094       1095       1078       1077       1095       1096       1079       1078       1096       1097       1080       1079       1097       1098       1081       1080       1098       1099       1082       1081       1099       1100       1083       1082       1100       1101       1084       1083       1101       1102       1085       1084       1102       1103       1086       1085       1103       1104       1087       1086       1105       1106       1089       1088       1106       1107       1090       1089       1107       1108       1091       1090       1108       1109       1092       1091       1109       1110       1093       1092       1110       1111       1094       1093       1111       1112       1095       1094       1112       1113       1096       1095       1113       1114       1097       1096       1114       1115       1098       1097       1115       1116       1099       1098       1116       1117       1100       1099       1117       1118       1101       1100       1118       1119       1102       1101       1119       1120       1103       1102       1120       1121       1104       1103       1122       1123       1106       1105       1123       1124       1107       1106       1124       1125       1108       1107       1125       1126       1109       1108       1126       1127       1110       1109       1127       1128       1111       1110       1128       1129       1112       1111       1129       1130       1113       1112       1130       1131       1114       1113       1131       1132       1115       1114       1132       1133       1116       1115       1133       1134       1117       1116       1134       1135       1118       1117       1135       1136       1119       1118       1136       1137       1120       1119       1137       1138       1121       1120        272        273       1123       1122        273        274       1124       1123        274        275       1125       1124        275        276       1126       1125        276        277       1127       1126        277        278       1128       1127        278        279       1129       1128        279        280       1130       1129        280        281       1131       1130        281        282       1132       1131        282        283       1133       1132        283        284       1134       1133        284        285       1135       1134        285        286       1136       1135        286        287       1137       1136        287        288       1138       1137 </DataArray>
<DataArray type="Int32"                                    Name="offsets"                                                      NumberOfComponents=" 1" format="ascii">
         4          8         12         16         20         24         28         32         36         40         44         48         52         56         60         64         68         72         76         80         84         88         92         96        100        104        108        112        116        120        124        128        132        136        140        144        148        152        156        160        164        168        172        176        180        184        188        192        196        200        204        208        212        216        220        224        228        232        236        240        244        248        252        256        260        264        268        272        276        280        284        288        292        296        300        304        308        312        316        320        324        328        332        336        340        344        348        352        356        360        364        368        372        376        380        384        388        392        396        400        404        408        412        416        420        424        428        432        436        440        444        448        452        456        460        464        468        472        476        480        484        488        492        496        500        504        508        512        516        520        524        528        532        536        540        544        548        552        556        560        564        568        572        576        580        584        588        592        596        600        604        608        612        616        620        624        628        632        636        640        644        648        652        656        660        664        668        672        676        680        684        688        692        696        700        704        708        712        716        720        724        728        732        736        740        744        748        752        756        760        764        768        772        776        780        784        788        792        796        800        804        808        812        816        820        824        828        832        836        840        844        848        852        856        860        864        868        872        876        880        884        888        892        896        900        904        908        912        916        920        924        928        932        936        940        944        948        952        956        960        964        968        972        976        980        984        988        992        996       1000       1004       1008       1012       1016       1020       1024       1028       1032       1036       1040       1044       1048       1052       1056       1060       1064       1068       1072       1076       1080       1084       1088       1092       1096       1100       1104       1108       1112       1116       1120       1124       1128       1132       1136       1140       1144       1148       1152       1156       1160       1164       1168       1172       1176       1180       1184       1188       1192       1196       1200       1204       1208       1212       1216       1220       1224       1228       1232       1236       1240       1244       1248       1252       1256       1260       1264       1268       1272       1276       1280       1284       1288       1292       1296       1300       1304       1308       1312       1316       1320       1324       1328       1332       1336       1340       1344       1348       1352       1356       1360       1364       1368       1372       1376       1380       1384       1388       1392       1396       1400       1404       1408       1412       1416       1420       1424       1428       1432       1436       1440       1444       1448       1452       1456       1460       1464       1468       1472       1476       1480       1484       1488       1492       1496       1500       1504       1508       1512       1516       1520       1524       1528       1532       1536       1540       1544       1548       1552       1556       1560       1564       1568       1572       1576       1580       1584       1588       1592       1596       1600       1604       1608       1612       1616       1620       1624       1628       1632       1636       1640       1644       1648       1652       1656       1660       1664       1668       1672       1676       1680       1684       1688       1692       1696       1700       1704       1708       1712       1716       1720       1724       1728       1732       1736       1740       1744       1748       1752       1756       1760       1764       1768       1772       1776       1780       1784       1788       1792       1796       1800       1804       1808       1812       1816       1820       1824       1828       1832       1836       1840       1844       1848       1852       1856       1860       1864       1868       1872       1876       1880       1884       1888       1892       1896       1900       1904       1908       1912       1916       1920       1924       1928       1932       1936       1940       1944       1948       1952       1956       1960       1964       1968       1972       1976       1980       1984       1988       1992       1996       2000       2004       2008       2012       2016       2020       2024       2028       2032       2036       2040       2044       2048       2052       2056       2060       2064       2068       2072       2076       2080       2084       2088       2092       2096       2100       2104       2108       2112       2116       2120       2124       2128       2132       2136       2140       2144       2148       2152       2156       2160       2164       2168       2172       2176       2180       2184       2188       2192       2196       2200       2204       2208       2212       2216       2220       2224       2228       2232       2236       2240       2244       2248       2252       2256       2260       2264       2268       2272       2276       2280       2284       2288       2292       2296       2300       2304       2308       2312       2316       2320       2324       2328       2332       2336       2340       2344       2348       2352       2356       2360       2364       2368       2372       2376       2380       2384       2388       2392       2396       2400       2404       2408       2412       2416       2420       2424       2428       2432       2436       2440       2444       2448       2452       2456       2460       2464       2468       2472       2476       2480       2484       2488       2492       2496       2500       2504       2508       2512       2516       2520       2524       2528       2532       2536       2540       2544       2548       2552       2556       2560       2564       2568       2572       2576       2580       2584       2588       2592       2596       2600       2604       2608       2612       2616       2620       2624       2628       2632       2636       2640       2644       2648       2652       2656       2660       2664       2668       2672       2676       2680       2684       2688       2692       2696       2700       2704       2708       2712       2716       2720       2724       2728       2732       2736       2740       2744       2748       2752       2756       2760       2764       2768       2772       2776       2780       2784       2788       2792       2796       2800       2804       2808       2812       2816       2820       2824       2828       2832       2836       2840       2844       2848       2852       2856       2860       2864       2868       2872       2876       2880       2884       2888       2892       2896       2900       2904       2908       2912       2916       2920       2924       2928       2932       2936       2940       2944       2948       2952       2956       2960       2964       2968       2972       2976       2980       2984       2988       2992       2996       3000       3004       3008       3012       3016       3020       3024       3028       3032       3036       3040       3044       3048       3052       3056       3060       3064       3068       3072       3076       3080       3084       3088       3092       3096       3100       3104       3108       3112       3116       3120       3124       3128       3132       3136       3140       3144       3148       3152       3156       3160       3164       3168       3172       3176       3180       3184       3188       3192       3196       3200       3204       3208       3212       3216       3220       3224       3228       3232       3236       3240       3244       3248       3252       3256       3260       3264       3268       3272       3276       3280       3284       3288       3292       3296       3300       3304       3308       3312       3316       3320       3324       3328       3332       3336       3340       3344       3348       3352       3356       3360       3364       3368       3372       3376       3380       3384       3388       3392       3396       3400       3404       3408       3412       3416       3420       3424       3428       3432       3436       3440       3444       3448       3452       3456       3460       3464       3468       3472       3476       3480       3484       3488       3492       3496       3500       3504       3508       3512       3516       3520       3524       3528       3532       3536       3540       3544       3548       3552       3556       3560       3564       3568       3572       3576       3580       3584       3588       3592       3596       3600       3604       3608       3612       3616       3620       3624       3628       3632       3636       3640       3644       3648       3652       3656       3660       3664       3668       3672       3676       3680       3684       3688       3692       3696       3700       3704       3708       3712       3716       3720       3724       3728       3732       3736       3740       3744       3748       3752       3756       3760       3764       3768       3772       3776       3780       3784       3788       3792       3796       3800       3804       3808       3812       3816       3820       3824       3828       3832       3836       3840       3844       3848       3852       3856       3860       3864       3868       3872       3876       3880       3884       3888       3892       3896       3900       3904       3908       3912       3916       3920       3924       3928       3932       3936       3940       3944       3948       3952       3956       3960       3964       3968       3972       3976       3980       3984       3988       3992       3996       4000       4004       4008       4012       4016       4020       4024       4028       4032       4036       4040       4044       4048       4052       4056       4060       4064       4068       4072       4076       4080       4084       4088       4092       4096 </DataArray>
<DataArray type="UInt8"                                    Name="types"                                                      NumberOfComponents=" 1" format="ascii">
         9          9          9          9          9          9          9          9          9          9          9          9          9          9          9          9          9          9          9          9          9          9          9          9          9          9          9          9          9          9          9          9          9          9          9          9          9          9          9          9          9          9          9          9          9          9          9          9          9          9          9          9          9          9          9          9          9          9          9          9          9          9          9          9          9          9          9          9          9          9          9          9          9          9          9          9          9          9          9          9          9          9          9          9          9          9          9          9          9          9          9          9          9          9          9          9          9          9          9          9          9          9          9          9          9          9          9          9          9          9          9          9          9          9          9          9          9          9          9          9          9          9          9          9          9          9          9          9          9          9          9          9          9          9          9          9          9          9          9          9          9          9          9          9          9          9          9          9          9          9          9          9          9          9          9          9          9          9          9          9          9          9          9          9          9          9          9          9          9          9          9          9          9          9          9          9          9          9          9          9          9          9          9          9          9          9          9          9          9          9          9          9          9          9          9          9          9          9          9          9          9          9          9          9          9          9          9          9          9          9          9          9          9          9          9          9          9          9          9          9          9          9          9          9          9          9          9          9          9          9          9          9          9          9          9          9          9          9          9          9          9          9          9          9          9          9          9          9          9          9          9          9          9          9          9          9          9          9          9          9          9          9          9          9          9          9          9          9          9          9          9          9          9          9          9          9          9          9          9          9          9          9          9          9          9          9          9          9          9          9          9          9          9          9          9          9          9          9          9          9          9          9          9          9          9          9          9          9          9          9          9          9          9          9          9          9          9          9          9          9          9          9          9          9          9          9          9          9          9          9          9          9          9          9          9          9          9          9          9          9          9          9          9          9          9          9          9          9          9          9          9          9          9          9          9          9          9          9          9          9          9          9          9          9          9          9          9          9          9          9          9          9          9          9          9          9          9          9          9          9          9          9          9          9          9          9          9          9          9          9          9          9          9          9          9          9          9          9          9          9          9          9          9          9          9          9          9          9          9          9          9          9          9          9          9          9          9          9          9          9          9          9          9          9          9          9          9          9          9          9          9          9          9          9          9          9          9          9          9          9          9          9          9          9          9          9          9          9          9          9          9          9          9          9          9          9          9          9          9          9          9          9          9          9          9          9          9          9          9          9          9          9          9          9          9          9          9          9          9          9          9          9          9          9          9          9          9          9          9          9          9          9          9          9          9          9          9          9          9          9          9          9          9          9          9          9          9          9          9          9          9          9          9          9          9          9          9          9          9          9          9          9          9          9          9          9          9          9          9          9          9          9          9          9          9          9          9          9          9          9          9          9          9          9          9          9          9          9          9          9          9          9          9          9          9          9          9          9          9          9          9          9          9          9          9          9          9          9          9          9          9          9          9          9          9          9          9          9          9          9          9          9          9          9          9          9          9          9          9          9          9          9          9          9          9          9          9          9          9          9          9          9          9          9          9          9          9          9          9          9          9          9          9          9          9          9          9          9          9          9          9          9          9          9          9          9          9          9          9          9          9          9          9          9          9          9          9          9          9          9          9          9          9          9          9          9          9          9          9          9          9          9          9          9          9          9          9          9          9          9          9          9          9          9          9          9          9          9          9          9          9          9          9          9          9          9          9          9          9          9          9          9          9          9          9          9          9          9          9          9          9          9          9          9          9          9          9          9          9          9          9          9          9          9          9          9          9          9          9          9          9          9          9          9          9          9          9          9          9          9          9          9          9          9          9          9          9          9          9          9          9          9          9          9          9          9          9          9          9          9          9          9          9          9          9          9          9          9          9          9          9          9          9          9          9          9          9          9          9          9          9          9          9          9          9          9          9          9          9          9          9          9          9          9          9          9          9          9          9          9          9          9          9          9          9          9          9          9          9          9          9          9          9          9          9          9          9          9          9          9          9          9          9          9          9          9          9          9          9          9          9          9          9          9          9          9          9          9          9          9          9          9          9          9          9          9          9          9          9          9          9          9          9          9          9          9          9          9          9          9          9          9          9          9          9          9          9          9          9          9          9          9          9          9          9          9          9          9          9          9          9          9          9          9          9          9          9          9          9          9          9          9          9          9          9          9          9          9          9          9          9          9          9          9          9          9          9          9          9          9          9          9          9          9          9          9          9          9          9          9          9          9          9          9          9          9          9          9          9          9          9          9          9          9          9          9          9          9          9          9          9          9          9          9          9          9          9          9          9          9          9          9          9          9          9          9          9          9          9          9          9          9          9          9          9          9          9          9          9          9          9          9          9          9          9          9          9          9          9          9          9          9          9          9          9          9          9          9          9          9          9          9          9          9          9          9          9          9          9          9          9          9          9          9          9          9          9          9          9          9          9          9          9          9          9          9          9          9          9          9          9          9          9          9          9          9          9          9          9          9          9          9          9          9          9          9          9          9          9          9          9          9          9          9 </DataArray>
</Cells>
<CellData>
<DataArray type="Int32"                                    Name="material"                                                      NumberOfComponents=" 1" format="ascii">
         1          1          1          1          1          1          1          1          1          1          1          1          1          1          1          1          1          1          1          1          1          1          1          1          1          1          1          1          1          1          1          1          1          1          1          1          1          1          1          1          1          1          1          1          1          1          1          1          1          1          1          1          1          1          1          1          1          1          1          1          1          1          1          1          1          1          1          1          1          1          1          1          1          1          1          1          1          1          1          1          1          1          1          1          1          1          1          1          1          1          1          1          1          1          1          1          1          1          1          1          1          1          1          1          1          1          1          1          1          1          1          1          1          1          1          1          1          1          1          1          1          1          1          1          1          1          1          1          1          1          1          1          1          1          1          1          1          1          1          1          1          1          1          1          1          1          1          1          1          1          1          1          1          1          1          1          1          1          1          1          1          1          1          1          1          1          1          1          1          1          1          1          1          1          1          1          1          1          1          1          1          1          1          1          1          1          1          1          1          1          1          1          1          1          1          1          1          1          1          1          1          1          1          1          1          1          1          1          1          1          1          1          1          1          1          1          1          1          1          1          1          1          1          1          1          1          1          1          1          1          1          1          1          1          1          1          1          1          1          1          1          1          1          1          1          1          1          1          1          1          1          1          1          1          1          1          1          1          1          1          1          1          1          1          1          1          1          1          1          1          1          1          1          1          1          1          1          1          1          1          1          1          1          1          1          1          1          1          1          1          1          1          1          1          1          1          1          1          1          1          1          1          1          1          1          1          1          1          1          1          1          1          1          1          1          1          1          1          1          1          1          1          1          1          1          1          1          1          1          1          1          1          1          1          1          1          1          1          1          1          1          1          1          1          1          1          1          1          1          1          1          1          1          1          1          1          1          1          1          1          1          1          1          1          1          1          1          1          1          1          1          1          1          1          1          1          1          1          1          1          1          1          1          1          1          1          1          1          1          1          1          1          1          1          1          1          1          1          1          1          1          1          1          1          1          1          1          1          1          1          1          1          1          1          1          1          1          1          1          1          1          1          1          1          1          1          1          1          1          1          1          1          1          1          1          1          1          1          1          1          1          1          1          1          1          1          1          1          1          1          1          1          1          1          1          1          1          1          1          1          1          1          1          1          1          1          1          1          1          1          1          1          1          1          1          1          1          1          1          1          1          1          1          1          1          1          1          1          1          1          1          1          1          1          1          1          1          1          1          1          1          1          1          1          1          1          1          1          1          1          1          1          1          1          1          1          1          1          1          1          1          1          1          1          1          1          1          1          1          1          1          1          1          1          1          1          1          1          1          1          1          1          1          1          1          1          1          1          1          1          1          1          1          1          1          1          1          1          1          1          1          1          1          1          1          1          1          1          1          1          1          1          1          1          1          1          1          1          1          1          1          1          1          1          1          1          1          1          1          1          1          1          1          1          1          1          1          1          1          1          1          1          1          1          1          1          1          1          1          1          1          1          1          1          1          1          1          1          1          1          1          1          1          1          1          1          1          1          1          1          1          1          1          1          1          1          1          1          1          1          1          1          1          1          1          1          1          1          1          1          1          1          1          1          1          1          1          1          1          1          1          1          1          1          1          1          1          1          1          1          1          1          1          1          1          1          1          1          1          1          1          1          1          1          1          1          1          1          1          1          1          1          1          1          1          1          1          1          1          1          1          1          1          1          1          1          1          1          1          1          1          1          1          1          1          1          1          1          1          1          1          1          1          1          1          1          1          1          1          1          1          1          1          1          1          1          1          1          1          1          1          1          1          1          1          1          1          1          1          1          1          1          1          1          1          1          1          1          1          1          1          1          1          1          1          1          1          1          1          1          1          1          1          1          1          1          1          1          1          1          1          1          1          1          1          1          1          1          1          1          1          1          1          1          1          1          1          1          1          1          1          1          1          1          1          1          1          1          1          1          1          1          1          1          1          1          1          1          1          1          1          1          1          1          1          1          1          1          1          1          1          1          1          1          1          1          1          1          1          1          1          1          1          1          1          1          1          1          1          1          1          1          1          1          1          1          1          1          1          1          1          1          1          1          1          1          1          1          1          1          1          1          1          1          1          1          1          1          1          1          1          1          1          1          1          1          1          1          1          1          1          1          1          1          1          1          1          1          1          1          1          1          1          1          1          1          1          1          1          1          1          1          1          1          1          1          1          1          1          1          1          1          1          1          1          1          1          1          1          1          1          1          1          1          1          1          1          1          1          1          1          1          1          1          1          1          1          1          1          1          1          1          1          1          1          1          1          1          1          1          1          1          1          1          1          1          1          1          1          1          1          1          1          1          1          1          1          1          1          1          1          1          1          1          1          1          1          1          1          1          1          1          1          1          1          1          1          1          1          1          1          1          1          1          1          1          1          1          1          1          1          1          1          1          1          1          1          1          1          1          1          1          1          1 </DataArray>
</CellData>
<PointData>
<DataArray type="Float64"                                    Name="u"                                                      NumberOfComponents=" 3" format="ascii">
             -0.000827488               0.000000000               0.999999984              -0.000878821              -0.000000000               0.999999984              -0.000900856              -0.000000000               0.999999984              -0.000913094              -0.000000000               0.999999984              -0.000922823               0.000000000               0.999999984              -0.000932664               0.000000000               0.999999984              -0.000943653               0.000000000               0.999999984              -0.000955867               0.000000000               0.999999984              -0.000969279               0.000000000               0.999999984              -0.000983739               0.000000000               0.999999984              -0.000998885              -0.000000000               0.999999984              -0.001014192               0.000000000               0.999999984              -0.001029191               0.000000000               0.999999984              -0.001043388               0.000000000               0.999999984              -0.001056096               0.000000000               0.999999984              -0.001066569               0.000000000               0.999999984              -0.001074010               0.000000000               0.999999984              -0.000823020               0.000133299               0.999999984              -0.000870231               0.000107248               0.999999984              -0.000889674               0.000095426               0.999999984              -0.000900275               0.000090708               0.999999984              -0.000908825               0.000089595               0.999999984              -0.000917776               0.000090329               0.999999984              -0.000927969               0.000091743               0.999999984              -0.000939562               0.000093374               0.999999984              -0.000952212               0.000094759               0.999999984              -0.000965637               0.000095593               0.999999984              -0.000979537               0.000095338               0.999999984              -0.000993349               0.000093663               0.999999984              -0.001006587               0.000090197               0.999999984              -0.001018727               0.000084360               0.999999984              -0.001029128               0.000075694               0.999999984              -0.001037228               0.000063081               0.999999984              -0.001042402               0.000045494               0.999999984              -0.000809516               0.000265491               0.999999984              -0.000844804               0.000213925               0.999999984              -0.000856886               0.000191605               0.999999984              -0.000862908               0.000183204               0.999999984              -0.000868458               0.000181845               0.999999984              -0.000875273               0.000183830               0.999999984              -0.000883588               0.000187137               0.999999984              -0.000893170               0.000190500               0.999999984              -0.000903574               0.000193343               0.999999984              -0.000914248               0.000194933               0.999999984              -0.000924535               0.000194369               0.999999984              -0.000934004               0.000191062               0.999999984              -0.000942190               0.000184317               0.999999984              -0.000948558               0.000173418               0.999999984              -0.000952720               0.000157383               0.999999984              -0.000954346               0.000134926               0.999999984              -0.000953333               0.000104676               0.999999984              -0.000787214               0.000395365               0.999999984              -0.000803757               0.000319767               0.999999984              -0.000805115               0.000289125               0.999999984              -0.000804887               0.000278974               0.999999984              -0.000806681               0.000278659               0.999999984              -0.000810767               0.000282769               0.999999984              -0.000816586               0.000288339               0.999999984              -0.000823326               0.000293669               0.999999984              -0.000830221               0.000297994               0.999999984              -0.000836508               0.000300206               0.999999984              -0.000841621               0.000299119               0.999999984              -0.000845019               0.000294127               0.999999984              -0.000846147               0.000284469               0.999999984              -0.000844691               0.000269325               0.999999984              -0.000840506               0.000248145               0.999999984              -0.000833674               0.000219884               0.999999984              -0.000824612               0.000183923               0.999999984              -0.000756569               0.000521660               0.999999984              -0.000748956               0.000424749               0.999999984              -0.000738311               0.000388594               0.999999984              -0.000732080               0.000378656               0.999999984              -0.000730451               0.000380689               0.999999984              -0.000731989               0.000387548               0.999999984              -0.000735193               0.000395686               0.999999984              -0.000738687               0.000403133               0.999999984              -0.000741474               0.000408554               0.999999984              -0.000742630               0.000410922               0.999999984              -0.000741405               0.000409039               0.999999984              -0.000737362               0.000402335               0.999999984              -0.000730241               0.000390140               0.999999984              -0.000720009               0.000371929               0.999999984              -0.000706789               0.000347546               0.999999984              -0.000691019               0.000316960               0.999999984              -0.000673331               0.000280443               0.999999984              -0.000717967               0.000643268               0.999999984              -0.000683265               0.000528897               0.999999984              -0.000661646               0.000490093               0.999999984              -0.000650971               0.000482013               0.999999984              -0.000647291               0.000487074               0.999999984              -0.000647032               0.000496856               0.999999984              -0.000647725               0.000507516               0.999999984              -0.000647720               0.000516542               0.999999984              -0.000645747               0.000522842               0.999999984              -0.000640847               0.000524857               0.999999984              -0.000632552               0.000521695               0.999999984              -0.000620519               0.000513082               0.999999984              -0.000604684               0.000498702               0.999999984              -0.000585269               0.000478329               0.999999984              -0.000562659               0.000452468               0.999999984              -0.000537574               0.000421739               0.999999985              -0.000510791               0.000387139               0.999999985              -0.000672301               0.000758993               0.999999984              -0.000610155               0.000632210               0.999999984              -0.000580296               0.000593155               0.999999984              -0.000567733               0.000587791               0.999999984              -0.000563449               0.000595893               0.999999984              -0.000561983               0.000608359               0.999999984              -0.000560239               0.000620920               0.999999984              -0.000556200               0.000631108               0.999999984              -0.000548877               0.000637523               0.999999984              -0.000537413               0.000638739               0.999999984              -0.000521347               0.000634042               0.999999984              -0.000500484               0.000623670               0.999999984              -0.000475043               0.000607515               0.999999984              -0.000445643               0.000586053               0.999999985              -0.000413124               0.000560093               0.999999985              -0.000378403               0.000530607               0.999999985              -0.000342440               0.000499164               0.999999985              -0.000620570               0.000867585               0.999999984              -0.000533080               0.000734528               0.999999984              -0.000498801               0.000696901               0.999999984              -0.000487031               0.000694177               0.999999984              -0.000483290               0.000704785               0.999999984              -0.000480898               0.000719386               0.999999984              -0.000476474               0.000733224               0.999999984              -0.000468246               0.000743672               0.999999984              -0.000455042               0.000749554               0.999999984              -0.000436053               0.000749565               0.999999984              -0.000410945               0.000743315               0.999999984              -0.000379971               0.000731494               0.999999984              -0.000343864               0.000714529               0.999999985              -0.000303805               0.000693060               0.999999985              -0.000260977               0.000668320               0.999999985              -0.000216617               0.000641616               0.999999985              -0.000171515               0.000614307               0.999999985              -0.000564421               0.000967097               0.999999984              -0.000454799               0.000835653               0.999999984              -0.000421264               0.000799801               0.999999984              -0.000412039               0.000799027               0.999999984              -0.000409493               0.000811568               0.999999984              -0.000406270               0.000827477               0.999999984              -0.000398983               0.000841824               0.999999984              -0.000385839               0.000852001               0.999999984              -0.000365639               0.000856944               0.999999984              -0.000337723               0.000855533               0.999999984              -0.000302148               0.000847991               0.999999984              -0.000259842               0.000835321               0.999999985              -0.000212270               0.000818325               0.999999985              -0.000161083               0.000798161               0.999999985              -0.000107777               0.000776219               0.999999985              -0.000053506               0.000753659               0.999999985               0.000000864               0.000731104               0.999999985              -0.000506346               0.001061271               0.999999984              -0.000389391               0.000948715               0.999999984              -0.000352950               0.000908757               0.999999984              -0.000342894               0.000902406               0.999999984              -0.000340534               0.000910989               0.999999984              -0.000338589               0.000925201               0.999999984              -0.000333431               0.000940127               0.999999984              -0.000323098               0.000952979               0.999999984              -0.000306970               0.000962315               0.999999984              -0.000283899               0.000967359               0.999999984              -0.000253263               0.000967683               0.999999984              -0.000215425               0.000963565               0.999999985              -0.000171461               0.000955795               0.999999985              -0.000122680               0.000944927               0.999999985              -0.000070461               0.000932005               0.999999985              -0.000016123               0.000917867               0.999999985               0.000039013               0.000903442               0.999999985              -0.000442986               0.001146978               0.999999984              -0.000326868               0.001058076               0.999999984              -0.000287801               0.001020467               0.999999984              -0.000275938               0.001011140               0.999999984              -0.000272903               0.001016869               0.999999984              -0.000271470               0.001029854               0.999999984              -0.000267850               0.001045265               0.999999984              -0.000260139               0.001060337               0.999999984              -0.000247250               0.001073674               0.999999984              -0.000228462               0.001084256               0.999999984              -0.000202890               0.001091407               0.999999984              -0.000170061               0.001094873               0.999999984              -0.000130435               0.001095125               0.999999985              -0.000084879               0.001092654               0.999999985              -0.000034469               0.001088004               0.999999985               0.000019436               0.001081970               0.999999985               0.000075337               0.001075363               0.999999985              -0.000375609               0.001222092               0.999999984              -0.000267224               0.001160422               0.999999984              -0.000227356               0.001129949               0.999999984              -0.000213526               0.001121070               0.999999984              -0.000209233               0.001125673               0.999999984              -0.000207619               0.001138124               0.999999984              -0.000205061               0.001154353               0.999999984              -0.000199271               0.001171786               0.999999984              -0.000189251               0.001188839               0.999999984              -0.000174240               0.001204557               0.999999984              -0.000153355               0.001218054               0.999999984              -0.000125768               0.001228814               0.999999984              -0.000091055               0.001236674               0.999999985              -0.000049647               0.001241842               0.999999985              -0.000002099               0.001244856               0.999999985               0.000050835               0.001246324               0.999999985               0.000107770               0.001247120               0.999999985              -0.000304762               0.001285314               0.999999984              -0.000210390               0.001251486               0.999999984              -0.000172486               0.001231613               0.999999984              -0.000157568               0.001226250               0.999999984              -0.000152068               0.001231872               0.999999984              -0.000149942               0.001244888               0.999999984              -0.000147792               0.001262429               0.999999984              -0.000143390               0.001282443               0.999999984              -0.000135790               0.001303385               0.999999984              -0.000124208               0.001324037               0.999999984              -0.000107682               0.001343614               0.999999984              -0.000085371               0.001361336               0.999999984              -0.000056394               0.001376804               0.999999984              -0.000020372               0.001389783               0.999999985               0.000022836               0.001400544               0.999999985               0.000073399               0.001409563               0.999999985               0.000130825               0.001417634               0.999999985              -0.000231089               0.001335599               0.999999984              -0.000155906               0.001327087               0.999999984              -0.000123278               0.001319241               0.999999984              -0.000109049               0.001319619               0.999999984              -0.000103110               0.001328086               0.999999984              -0.000100505               0.001343006               0.999999984              -0.000098428               0.001362673               0.999999984              -0.000095132               0.001385410               0.999999984              -0.000089525               0.001409966               0.999999984              -0.000080958               0.001435316               0.999999984              -0.000068643               0.001460596               0.999999984              -0.000051704               0.001485021               0.999999984              -0.000029057               0.001508104               0.999999984               0.000000046               0.001529338               0.999999985               0.000036598               0.001548509               0.999999985               0.000081723               0.001565648               0.999999985               0.000136094               0.001581249               0.999999985              -0.000155281               0.001372137               0.999999984              -0.000103083               0.001383774               0.999999984              -0.000079045               0.001386892               0.999999984              -0.000067869               0.001393366               0.999999984              -0.000062649               0.001405614               0.999999984              -0.000060076               0.001423315               0.999999984              -0.000058400               0.001445440               0.999999984              -0.000056125               0.001470922               0.999999984              -0.000052268               0.001498760               0.999999984              -0.000046420               0.001528214               0.999999984              -0.000038179               0.001558499               0.999999984              -0.000026653               0.001588955               0.999999984              -0.000011013               0.001619024               0.999999985               0.000009684               0.001648057               0.999999985               0.000036635               0.001675474               0.999999985               0.000071335               0.001700807               0.999999985               0.000115687               0.001723981               0.999999985              -0.000078012               0.001394285               0.999999984              -0.000051302               0.001418844               0.999999984              -0.000038551               0.001429630               0.999999984              -0.000032385               0.001440805               0.999999984              -0.000029232               0.001456080               0.999999984              -0.000027727               0.001476021               0.999999984              -0.000026810               0.001500228               0.999999984              -0.000025586               0.001527997               0.999999984              -0.000023544               0.001558482               0.999999984              -0.000020565               0.001591026               0.999999984              -0.000016337               0.001624974               0.999999984              -0.000010440               0.001659745               0.999999984              -0.000002344               0.001694819               0.999999985               0.000008505               0.001729448               0.999999985               0.000022859               0.001762934               0.999999985               0.000041902               0.001794695               0.999999985               0.000067290               0.001823956               0.999999985              -0.000000000               0.001401677               0.999999984              -0.000000000               0.001430676               0.999999984              -0.000000000               0.001444254               0.999999984               0.000000000               0.001457241               0.999999984              -0.000000000               0.001473649               0.999999984              -0.000000000               0.001494475               0.999999984               0.000000000               0.001519556               0.999999984               0.000000000               0.001548243               0.999999984              -0.000000000               0.001579796               0.999999984              -0.000000000               0.001613582               0.999999984              -0.000000000               0.001648864               0.999999984              -0.000000000               0.001685136               0.999999984               0.000000000               0.001721944               0.999999985               0.000000000               0.001758601               0.999999985              -0.000000000               0.001794448               0.999999985               0.000000000               0.001828681               0.999999985               0.000000000               0.001860300               0.999999985              -0.000827488               0.000000000               0.999999984              -0.000878821              -0.000000000               0.999999984              -0.000900856              -0.000000000               0.999999984              -0.000913094              -0.000000000               0.999999984              -0.000922823               0.000000000               0.999999984              -0.000932664               0.000000000               0.999999984              -0.000943653               0.000000000               0.999999984              -0.000955867               0.000000000               0.999999984              -0.000969279               0.000000000               0.999999984              -0.000983739               0.000000000               0.999999984              -0.000998885              -0.000000000               0.999999984              -0.001014192               0.000000000               0.999999984              -0.001029191               0.000000000               0.999999984              -0.001043388               0.000000000               0.999999984              -0.001056096               0.000000000               0.999999984              -0.001066569               0.000000000               0.999999984              -0.001074010               0.000000000               0.999999984              -0.000823020              -0.000133299               0.999999984              -0.000870231              -0.000107248               0.999999984              -0.000889674              -0.000095426               0.999999984              -0.000900275              -0.000090708               0.999999984              -0.000908825              -0.000089595               0.999999984              -0.000917776              -0.000090329               0.999999984              -0.000927969              -0.000091743               0.999999984              -0.000939562              -0.000093374               0.999999984              -0.000952212              -0.000094759               0.999999984              -0.000965637              -0.000095593               0.999999984              -0.000979537              -0.000095338               0.999999984              -0.000993349              -0.000093663               0.999999984              -0.001006587              -0.000090197               0.999999984              -0.001018727              -0.000084360               0.999999984              -0.001029128              -0.000075694               0.999999984              -0.001037228              -0.000063081               0.999999984              -0.001042402              -0.000045494               0.999999984              -0.000809516              -0.000265491               0.999999984              -0.000844804              -0.000213925               0.999999984              -0.000856886              -0.000191605               0.999999984              -0.000862908              -0.000183204               0.999999984              -0.000868458              -0.000181845               0.999999984              -0.000875273              -0.000183830               0.999999984              -0.000883588              -0.000187137               0.999999984              -0.000893170              -0.000190500               0.999999984              -0.000903574              -0.000193343               0.999999984              -0.000914248              -0.000194933               0.999999984              -0.000924535              -0.000194369               0.999999984              -0.000934004              -0.000191062               0.999999984              -0.000942190              -0.000184317               0.999999984              -0.000948558              -0.000173418               0.999999984              -0.000952720              -0.000157383               0.999999984              -0.000954346              -0.000134926               0.999999984              -0.000953333              -0.000104676               0.999999984              -0.000787214              -0.000395365               0.999999984              -0.000803757              -0.000319767               0.999999984              -0.000805115              -0.000289125               0.999999984              -0.000804887              -0.000278974               0.999999984              -0.000806681              -0.000278659               0.999999984              -0.000810767              -0.000282769               0.999999984              -0.000816586              -0.000288339               0.999999984              -0.000823326              -0.000293669               0.999999984              -0.000830221              -0.000297994               0.999999984              -0.000836508              -0.000300206               0.999999984              -0.000841621              -0.000299119               0.999999984              -0.000845019              -0.000294127               0.999999984              -0.000846147              -0.000284469               0.999999984              -0.000844691              -0.000269325               0.999999984              -0.000840506              -0.000248145               0.999999984              -0.000833674              -0.000219884               0.999999984              -0.000824612              -0.000183923               0.999999984              -0.000756569              -0.000521660               0.999999984              -0.000748956              -0.000424749               0.999999984              -0.000738311              -0.000388594               0.999999984              -0.000732080              -0.000378656               0.999999984              -0.000730451              -0.000380689               0.999999984              -0.000731989              -0.000387548               0.999999984              -0.000735193              -0.000395686               0.999999984              -0.000738687              -0.000403133               0.999999984              -0.000741474              -0.000408554               0.999999984              -0.000742630              -0.000410922               0.999999984              -0.000741405              -0.000409039               0.999999984              -0.000737362              -0.000402335               0.999999984              -0.000730241              -0.000390140               0.999999984              -0.000720009              -0.000371929               0.999999984              -0.000706789              -0.000347546               0.999999984              -0.000691019              -0.000316960               0.999999984              -0.000673331              -0.000280443               0.999999984              -0.000717967              -0.000643268               0.999999984              -0.000683265              -0.000528897               0.999999984              -0.000661646              -0.000490093               0.999999984              -0.000650971              -0.000482013               0.999999984              -0.000647291              -0.000487074               0.999999984              -0.000647032              -0.000496856               0.999999984              -0.000647725              -0.000507516               0.999999984              -0.000647720              -0.000516542               0.999999984              -0.000645747              -0.000522842               0.999999984              -0.000640847              -0.000524857               0.999999984              -0.000632552              -0.000521695               0.999999984              -0.000620519              -0.000513082               0.999999984              -0.000604684              -0.000498702               0.999999984              -0.000585269              -0.000478329               0.999999984              -0.000562659              -0.000452468               0.999999984              -0.000537574              -0.000421739               0.999999985              -0.000510791              -0.000387139               0.999999985              -0.000672301              -0.000758993               0.999999984              -0.000610155              -0.000632210               0.999999984              -0.000580296              -0.000593155               0.999999984              -0.000567733              -0.000587791               0.999999984              -0.000563449              -0.000595893               0.999999984              -0.000561983              -0.000608359               0.999999984              -0.000560239              -0.000620920               0.999999984              -0.000556200              -0.000631108               0.999999984              -0.000548877              -0.000637523               0.999999984              -0.000537413              -0.000638739               0.999999984              -0.000521347              -0.000634042               0.999999984              -0.000500484              -0.000623670               0.999999984              -0.000475043              -0.000607515               0.999999984              -0.000445643              -0.000586053               0.999999985              -0.000413124              -0.000560093               0.999999985              -0.000378403              -0.000530607               0.999999985              -0.000342440              -0.000499164               0.999999985              -0.000620570              -0.000867585               0.999999984              -0.000533080              -0.000734528               0.999999984              -0.000498801              -0.000696901               0.999999984              -0.000487031              -0.000694177               0.999999984              -0.000483290              -0.000704785               0.999999984              -0.000480898              -0.000719386               0.999999984              -0.000476474              -0.000733224               0.999999984              -0.000468246              -0.000743672               0.999999984              -0.000455042              -0.000749554               0.999999984              -0.000436053              -0.000749565               0.999999984              -0.000410945              -0.000743315               0.999999984              -0.000379971              -0.000731494               0.999999984              -0.000343864              -0.000714529               0.999999985              -0.000303805              -0.000693060               0.999999985              -0.000260977              -0.000668320               0.999999985              -0.000216617              -0.000641616               0.999999985              -0.000171515              -0.000614307               0.999999985              -0.000564421              -0.000967097               0.999999984              -0.000454799              -0.000835653               0.999999984              -0.000421264              -0.000799801               0.999999984              -0.000412039              -0.000799027               0.999999984              -0.000409493              -0.000811568               0.999999984              -0.000406270              -0.000827477               0.999999984              -0.000398983              -0.000841824               0.999999984              -0.000385839              -0.000852001               0.999999984              -0.000365639              -0.000856944               0.999999984              -0.000337723              -0.000855533               0.999999984              -0.000302148              -0.000847991               0.999999984              -0.000259842              -0.000835321               0.999999985              -0.000212270              -0.000818325               0.999999985              -0.000161083              -0.000798161               0.999999985              -0.000107777              -0.000776219               0.999999985              -0.000053506              -0.000753659               0.999999985               0.000000864              -0.000731104               0.999999985              -0.000506346              -0.001061271               0.999999984              -0.000389391              -0.000948715               0.999999984              -0.000352950              -0.000908757               0.999999984              -0.000342894              -0.000902406               0.999999984              -0.000340534              -0.000910989               0.999999984              -0.000338589              -0.000925201               0.999999984              -0.000333431              -0.000940127               0.999999984              -0.000323098              -0.000952979               0.999999984              -0.000306970              -0.000962315               0.999999984              -0.000283899              -0.000967359               0.999999984              -0.000253263              -0.000967683               0.999999984              -0.000215425              -0.000963565               0.999999985              -0.000171461              -0.000955795               0.999999985              -0.000122680              -0.000944927               0.999999985              -0.000070461              -0.000932005               0.999999985              -0.000016123              -0.000917867               0.999999985               0.000039013              -0.000903442               0.999999985              -0.000442986              -0.001146978               0.999999984              -0.000326868              -0.001058076               0.999999984              -0.000287801              -0.001020467               0.999999984              -0.000275938              -0.001011140               0.999999984              -0.000272903              -0.001016869               0.999999984              -0.000271470              -0.001029854               0.999999984              -0.000267850              -0.001045265               0.999999984              -0.000260139              -0.001060337               0.999999984              -0.000247250              -0.001073674               0.999999984              -0.000228462              -0.001084256               0.999999984              -0.000202890              -0.001091407               0.999999984              -0.000170061              -0.001094873               0.999999984              -0.000130435              -0.001095125               0.999999985              -0.000084879              -0.001092654               0.999999985              -0.000034469              -0.001088004               0.999999985               0.000019436              -0.001081970               0.999999985               0.000075337              -0.001075363               0.999999985              -0.000375609              -0.001222092               0.999999984              -0.000267224              -0.001160422               0.999999984              -0.000227356              -0.001129949               0.999999984              -0.000213526              -0.001121070               0.999999984              -0.000209233              -0.001125673               0.999999984              -0.000207619              -0.001138124               0.999999984              -0.000205061              -0.001154353               0.999999984              -0.000199271              -0.001171786               0.999999984              -0.000189251              -0.001188839               0.999999984              -0.000174240              -0.001204557               0.999999984              -0.000153355              -0.001218054               0.999999984              -0.000125768              -0.001228814               0.999999984              -0.000091055              -0.001236674               0.999999985              -0.000049647              -0.001241842               0.999999985              -0.000002099              -0.001244856               0.999999985               0.000050835              -0.001246324               0.999999985               0.000107770              -0.001247120               0.999999985              -0.000304762              -0.001285314               0.999999984              -0.000210390              -0.001251486               0.999999984              -0.000172486              -0.001231613               0.999999984              -0.000157568              -0.001226250               0.999999984              -0.000152068              -0.001231872               0.999999984              -0.000149942              -0.001244888               0.999999984              -0.000147792              -0.001262429               0.999999984              -0.000143390              -0.001282443               0.999999984              -0.000135790              -0.001303385               0.999999984              -0.000124208              -0.001324037               0.999999984              -0.000107682              -0.001343614               0.999999984              -0.000085371              -0.001361336               0.999999984              -0.000056394              -0.001376804               0.999999984              -0.000020372              -0.001389783               0.999999985               0.000022836              -0.001400544               0.999999985               0.000073399              -0.001409563               0.999999985               0.000130825              -0.001417634               0.999999985              -0.000231089              -0.001335599               0.999999984              -0.000155906              -0.001327087               0.999999984              -0.000123278              -0.001319241               0.999999984              -0.000109049              -0.001319619               0.999999984              -0.000103110              -0.001328086               0.999999984              -0.000100505              -0.001343006               0.999999984              -0.000098428              -0.001362673               0.999999984              -0.000095132              -0.001385410               0.999999984              -0.000089525              -0.001409966               0.999999984              -0.000080958              -0.001435316               0.999999984              -0.000068643              -0.001460596               0.999999984              -0.000051704              -0.001485021               0.999999984              -0.000029057              -0.001508104               0.999999984               0.000000046              -0.001529338               0.999999985               0.000036598              -0.001548509               0.999999985               0.000081723              -0.001565648               0.999999985               0.000136094              -0.001581249               0.999999985              -0.000155281              -0.001372137               0.999999984              -0.000103083              -0.001383774               0.999999984              -0.000079045              -0.001386892               0.999999984              -0.000067869              -0.001393366               0.999999984              -0.000062649              -0.001405614               0.999999984              -0.000060076              -0.001423315               0.999999984              -0.000058400              -0.001445440               0.999999984              -0.000056125              -0.001470922               0.999999984              -0.000052268              -0.001498760               0.999999984              -0.000046420              -0.001528214               0.999999984              -0.000038179              -0.001558499               0.999999984              -0.000026653              -0.001588955               0.999999984              -0.000011013              -0.001619024               0.999999985               0.000009684              -0.001648057               0.999999985               0.000036635              -0.001675474               0.999999985               0.000071335              -0.001700807               0.999999985               0.000115687              -0.001723981               0.999999985              -0.000078012              -0.001394285               0.999999984              -0.000051302              -0.001418844               0.999999984              -0.000038551              -0.001429630               0.999999984              -0.000032385              -0.001440805               0.999999984              -0.000029232              -0.001456080               0.999999984              -0.000027727              -0.001476021               0.999999984              -0.000026810              -0.001500228               0.999999984              -0.000025586              -0.001527997               0.999999984              -0.000023544              -0.001558482               0.999999984              -0.000020565              -0.001591026               0.999999984              -0.000016337              -0.001624974               0.999999984              -0.000010440              -0.001659745               0.999999984              -0.000002344              -0.001694819               0.999999985               0.000008505              -0.001729448               0.999999985               0.000022859              -0.001762934               0.999999985               0.000041902              -0.001794695               0.999999985               0.000067290              -0.001823956               0.999999985              -0.000000000              -0.001401677               0.999999984              -0.000000000              -0.001430676               0.999999984               0.000000000              -0.001444254               0.999999984              -0.000000000              -0.001457241               0.999999984               0.000000000              -0.001473649               0.999999984               0.000000000              -0.001494475               0.999999984              -0.000000000              -0.001519556               0.999999984              -0.000000000              -0.001548243               0.999999984              -0.000000000              -0.001579796               0.999999984              -0.000000000              -0.001613582               0.999999984              -0.000000000              -0.001648864               0.999999984              -0.000000000              -0.001685136               0.999999984              -0.000000000              -0.001721944               0.999999985               0.000000000              -0.001758601               0.999999985               0.000000000              -0.001794448               0.999999985              -0.000000000              -0.001828681               0.999999985              -0.000000000              -0.001860300               0.999999985               0.000827488               0.000000000               0.999999984               0.000878821               0.000000000               0.999999984               0.000900856               0.000000000               0.999999984               0.000913094              -0.000000000               0.999999984               0.000922823               0.000000000               0.999999984               0.000932664               0.000000000               0.999999984               0.000943653               0.000000000               0.999999984               0.000955867               0.000000000               0.999999984               0.000969279               0.000000000               0.999999984               0.000983739               0.000000000               0.999999984               0.000998885              -0.000000000               0.999999984               0.001014192               0.000000000               0.999999984               0.001029191               0.000000000               0.999999984               0.001043388               0.000000000               0.999999984               0.001056096               0.000000000               0.999999984               0.001066569               0.000000000               0.999999984               0.001074010               0.000000000               0.999999984               0.000823020              -0.000133299               0.999999984               0.000870231              -0.000107248               0.999999984               0.000889674              -0.000095426               0.999999984               0.000900275              -0.000090708               0.999999984               0.000908825              -0.000089595               0.999999984               0.000917776              -0.000090329               0.999999984               0.000927969              -0.000091743               0.999999984               0.000939562              -0.000093374               0.999999984               0.000952212              -0.000094759               0.999999984               0.000965637              -0.000095593               0.999999984               0.000979537              -0.000095338               0.999999984               0.000993349              -0.000093663               0.999999984               0.001006587              -0.000090197               0.999999984               0.001018727              -0.000084360               0.999999984               0.001029128              -0.000075694               0.999999984               0.001037228              -0.000063081               0.999999984               0.001042402              -0.000045494               0.999999984               0.000809516              -0.000265491               0.999999984               0.000844804              -0.000213925               0.999999984               0.000856886              -0.000191605               0.999999984               0.000862908              -0.000183204               0.999999984               0.000868458              -0.000181845               0.999999984               0.000875273              -0.000183830               0.999999984               0.000883588              -0.000187137               0.999999984               0.000893170              -0.000190500               0.999999984               0.000903574              -0.000193343               0.999999984               0.000914248              -0.000194933               0.999999984               0.000924535              -0.000194369               0.999999984               0.000934004              -0.000191062               0.999999984               0.000942190              -0.000184317               0.999999984               0.000948558              -0.000173418               0.999999984               0.000952720              -0.000157383               0.999999984               0.000954346              -0.000134926               0.999999984               0.000953333              -0.000104676               0.999999984               0.000787214              -0.000395365               0.999999984               0.000803757              -0.000319767               0.999999984               0.000805115              -0.000289125               0.999999984               0.000804887              -0.000278974               0.999999984               0.000806681              -0.000278659               0.999999984               0.000810767              -0.000282769               0.999999984               0.000816586              -0.000288339               0.999999984               0.000823326              -0.000293669               0.999999984               0.000830221              -0.000297994               0.999999984               0.000836508              -0.000300206               0.999999984               0.000841621              -0.000299119               0.999999984               0.000845019              -0.000294127               0.999999984               0.000846147              -0.000284469               0.999999984               0.000844691              -0.000269325               0.999999984               0.000840506              -0.000248145               0.999999984               0.000833674              -0.000219884               0.999999984               0.000824612              -0.000183923               0.999999984               0.000756569              -0.000521660               0.999999984               0.000748956              -0.000424749               0.999999984               0.000738311              -0.000388594               0.999999984               0.000732080              -0.000378656               0.999999984               0.000730451              -0.000380689               0.999999984               0.000731989              -0.000387548               0.999999984               0.000735193              -0.000395686               0.999999984               0.000738687              -0.000403133               0.999999984               0.000741474              -0.000408554               0.999999984               0.000742630              -0.000410922               0.999999984               0.000741405              -0.000409039               0.999999984               0.000737362              -0.000402335               0.999999984               0.000730241              -0.000390140               0.999999984               0.000720009              -0.000371929               0.999999984               0.000706789              -0.000347546               0.999999984               0.000691019              -0.000316960               0.999999984               0.000673331              -0.000280443               0.999999984               0.000717967              -0.000643268               0.999999984               0.000683265              -0.000528897               0.999999984               0.000661646              -0.000490093               0.999999984               0.000650971              -0.000482013               0.999999984               0.000647291              -0.000487074               0.999999984               0.000647032              -0.000496856               0.999999984               0.000647725              -0.000507516               0.999999984               0.000647720              -0.000516542               0.999999984               0.000645747              -0.000522842               0.999999984               0.000640847              -0.000524857               0.999999984               0.000632552              -0.000521695               0.999999984               0.000620519              -0.000513082               0.999999984               0.000604684              -0.000498702               0.999999984               0.000585269              -0.000478329               0.999999984               0.000562659              -0.000452468               0.999999984               0.000537574              -0.000421739               0.999999985               0.000510791              -0.000387139               0.999999985               0.000672301              -0.000758993               0.999999984               0.000610155              -0.000632210               0.999999984               0.000580296              -0.000593155               0.999999984               0.000567733              -0.000587791               0.999999984               0.000563449              -0.000595893               0.999999984               0.000561983              -0.000608359               0.999999984               0.000560239              -0.000620920               0.999999984               0.000556200              -0.000631108               0.999999984               0.000548877              -0.000637523               0.999999984               0.000537413              -0.000638739               0.999999984               0.000521347              -0.000634042               0.999999984               0.000500484              -0.000623670               0.999999984               0.000475043              -0.000607515               0.999999984               0.000445643              -0.000586053               0.999999985               0.000413124              -0.000560093               0.999999985               0.000378403              -0.000530607               0.999999985               0.000342440              -0.000499164               0.999999985               0.000620570              -0.000867585               0.999999984               0.000533080              -0.000734528               0.999999984               0.000498801              -0.000696901               0.999999984               0.000487031              -0.000694177               0.999999984               0.000483290              -0.000704785               0.999999984               0.000480898              -0.000719386               0.999999984               0.000476474              -0.000733224               0.999999984               0.000468246              -0.000743672               0.999999984               0.000455042              -0.000749554               0.999999984               0.000436053              -0.000749565               0.999999984               0.000410945              -0.000743315               0.999999984               0.000379971              -0.000731494               0.999999984               0.000343864              -0.000714529               0.999999985               0.000303805              -0.000693060               0.999999985               0.000260977              -0.000668320               0.999999985               0.000216617              -0.000641616               0.999999985               0.000171515              -0.000614307               0.999999985               0.000564421              -0.000967097               0.999999984               0.000454799              -0.000835653               0.999999984               0.000421264              -0.000799801               0.999999984               0.000412039              -0.000799027               0.999999984               0.000409493              -0.000811568               0.999999984               0.000406270              -0.000827477               0.999999984               0.000398983              -0.000841824               0.999999984               0.000385839              -0.000852001               0.999999984               0.000365639              -0.000856944               0.999999984               0.000337723              -0.000855533               0.999999984               0.000302148              -0.000847991               0.999999984               0.000259842              -0.000835321               0.999999985               0.000212270              -0.000818325               0.999999985               0.000161083              -0.000798161               0.999999985               0.000107777              -0.000776219               0.999999985               0.000053506              -0.000753659               0.999999985              -0.000000864              -0.000731104               0.999999985               0.000506346              -0.001061271               0.999999984               0.000389391              -0.000948715               0.999999984               0.000352950              -0.000908757               0.999999984               0.000342894              -0.000902406               0.999999984               0.000340534              -0.000910989               0.999999984               0.000338589              -0.000925201               0.999999984               0.000333431              -0.000940127               0.999999984               0.000323098              -0.000952979               0.999999984               0.000306970              -0.000962315               0.999999984               0.000283899              -0.000967359               0.999999984               0.000253263              -0.000967683               0.999999984               0.000215425              -0.000963565               0.999999985               0.000171461              -0.000955795               0.999999985               0.000122680              -0.000944927               0.999999985               0.000070461              -0.000932005               0.999999985               0.000016123              -0.000917867               0.999999985              -0.000039013              -0.000903442               0.999999985               0.000442986              -0.001146978               0.999999984               0.000326868              -0.001058076               0.999999984               0.000287801              -0.001020467               0.999999984               0.000275938              -0.001011140               0.999999984               0.000272903              -0.001016869               0.999999984               0.000271470              -0.001029854               0.999999984               0.000267850              -0.001045265               0.999999984               0.000260139              -0.001060337               0.999999984               0.000247250              -0.001073674               0.999999984               0.000228462              -0.001084256               0.999999984               0.000202890              -0.001091407               0.999999984               0.000170061              -0.001094873               0.999999984               0.000130435              -0.001095125               0.999999985               0.000084879              -0.001092654               0.999999985               0.000034469              -0.001088004               0.999999985              -0.000019436              -0.001081970               0.999999985              -0.000075337              -0.001075363               0.999999985               0.000375609              -0.001222092               0.999999984               0.000267224              -0.001160422               0.999999984               0.000227356              -0.001129949               0.999999984               0.000213526              -0.001121070               0.999999984               0.000209233              -0.001125673               0.999999984               0.000207619              -0.001138124               0.999999984               0.000205061              -0.001154353               0.999999984               0.000199271              -0.001171786               0.999999984               0.000189251              -0.001188839               0.999999984               0.000174240              -0.001204557               0.999999984               0.000153355              -0.001218054               0.999999984               0.000125768              -0.001228814               0.999999984               0.000091055              -0.001236674               0.999999985               0.000049647              -0.001241842               0.999999985               0.000002099              -0.001244856               0.999999985              -0.000050835              -0.001246324               0.999999985              -0.000107770              -0.001247120               0.999999985               0.000304762              -0.001285314               0.999999984               0.000210390              -0.001251486               0.999999984               0.000172486              -0.001231613               0.999999984               0.000157568              -0.001226250               0.999999984               0.000152068              -0.001231872               0.999999984               0.000149942              -0.001244888               0.999999984               0.000147792              -0.001262429               0.999999984               0.000143390              -0.001282443               0.999999984               0.000135790              -0.001303385               0.999999984               0.000124208              -0.001324037               0.999999984               0.000107682              -0.001343614               0.999999984               0.000085371              -0.001361336               0.999999984               0.000056394              -0.001376804               0.999999984               0.000020372              -0.001389783               0.999999985              -0.000022836              -0.001400544               0.999999985              -0.000073399              -0.001409563               0.999999985              -0.000130825              -0.001417634               0.999999985               0.000231089              -0.001335599               0.999999984               0.000155906              -0.001327087               0.999999984               0.000123278              -0.001319241               0.999999984               0.000109049              -0.001319619               0.999999984               0.000103110              -0.001328086               0.999999984               0.000100505              -0.001343006               0.999999984               0.000098428              -0.001362673               0.999999984               0.000095132              -0.001385410               0.999999984               0.000089525              -0.001409966               0.999999984               0.000080958              -0.001435316               0.999999984               0.000068643              -0.001460596               0.999999984               0.000051704              -0.001485021               0.999999984               0.000029057              -0.001508104               0.999999984              -0.000000046              -0.001529338               0.999999985              -0.000036598              -0.001548509               0.999999985              -0.000081723              -0.001565648               0.999999985              -0.000136094              -0.001581249               0.999999985               0.000155281              -0.001372137               0.999999984               0.000103083              -0.001383774               0.999999984               0.000079045              -0.001386892               0.999999984               0.000067869              -0.001393366               0.999999984               0.000062649              -0.001405614               0.999999984               0.000060076              -0.001423315               0.999999984               0.000058400              -0.001445440               0.999999984               0.000056125              -0.001470922               0.999999984               0.000052268              -0.001498760               0.999999984               0.000046420              -0.001528214               0.999999984               0.000038179              -0.001558499               0.999999984               0.000026653              -0.001588955               0.999999984               0.000011013              -0.001619024               0.999999985              -0.000009684              -0.001648057               0.999999985              -0.000036635              -0.001675474               0.999999985              -0.000071335              -0.001700807               0.999999985              -0.000115687              -0.001723981               0.999999985               0.000078012              -0.001394285               0.999999984               0.000051302              -0.001418844               0.999999984               0.000038551              -0.001429630               0.999999984               0.000032385              -0.001440805               0.999999984               0.000029232              -0.001456080               0.999999984               0.000027727              -0.001476021               0.999999984               0.000026810              -0.001500228               0.999999984               0.000025586              -0.001527997               0.999999984               0.000023544              -0.001558482               0.999999984               0.000020565              -0.001591026               0.999999984               0.000016337              -0.001624974               0.999999984               0.000010440              -0.001659745               0.999999984               0.000002344              -0.001694819               0.999999985              -0.000008505              -0.001729448               0.999999985              -0.000022859              -0.001762934               0.999999985              -0.000041902              -0.001794695               0.999999985              -0.000067290              -0.001823956               0.999999985              -0.000000000              -0.001401677               0.999999984              -0.000000000              -0.001430676               0.999999984               0.000000000              -0.001444254               0.999999984              -0.000000000              -0.001457241               0.999999984               0.000000000              -0.001473649               0.999999984               0.000000000              -0.001494475               0.999999984              -0.000000000              -0.001519556               0.999999984              -0.000000000              -0.001548243               0.999999984              -0.000000000              -0.001579796               0.999999984              -0.000000000              -0.001613582               0.999999984              -0.000000000              -0.001648864               0.999999984              -0.000000000              -0.001685136               0.999999984              -0.000000000              -0.001721944               0.999999985               0.000000000              -0.001758601               0.999999985               0.000000000              -0.001794448               0.999999985              -0.000000000              -0.001828681               0.999999985              -0.000000000              -0.001860300               0.999999985               0.000827488               0.000000000               0.999999984               0.000878821               0.000000000               0.999999984               0.000900856               0.000000000               0.999999984               0.000913094              -0.000000000               0.999999984               0.000922823               0.000000000               0.999999984               0.000932664               0.000000000               0.999999984               0.000943653               0.000000000               0.999999984               0.000955867               0.000000000               0.999999984               0.000969279               0.000000000               0.999999984               0.000983739               0.000000000               0.999999984               0.000998885              -0.000000000               0.999999984               0.001014192               0.000000000               0.999999984               0.001029191               0.000000000               0.999999984               0.001043388               0.000000000               0.999999984               0.001056096               0.000000000               0.999999984               0.001066569               0.000000000               0.999999984               0.001074010               0.000000000               0.999999984               0.000823020               0.000133299               0.999999984               0.000870231               0.000107248               0.999999984               0.000889674               0.000095426               0.999999984               0.000900275               0.000090708               0.999999984               0.000908825               0.000089595               0.999999984               0.000917776               0.000090329               0.999999984               0.000927969               0.000091743               0.999999984               0.000939562               0.000093374               0.999999984               0.000952212               0.000094759               0.999999984               0.000965637               0.000095593               0.999999984               0.000979537               0.000095338               0.999999984               0.000993349               0.000093663               0.999999984               0.001006587               0.000090197               0.999999984               0.001018727               0.000084360               0.999999984               0.001029128               0.000075694               0.999999984               0.001037228               0.000063081               0.999999984               0.001042402               0.000045494               0.999999984               0.000809516               0.000265491               0.999999984               0.000844804               0.000213925               0.999999984               0.000856886               0.000191605               0.999999984               0.000862908               0.000183204               0.999999984               0.000868458               0.000181845               0.999999984               0.000875273               0.000183830               0.999999984               0.000883588               0.000187137               0.999999984               0.000893170               0.000190500               0.999999984               0.000903574               0.000193343               0.999999984               0.000914248               0.000194933               0.999999984               0.000924535               0.000194369               0.999999984               0.000934004               0.000191062               0.999999984               0.000942190               0.000184317               0.999999984               0.000948558               0.000173418               0.999999984               0.000952720               0.000157383               0.999999984               0.000954346               0.000134926               0.999999984               0.000953333               0.000104676               0.999999984               0.000787214               0.000395365               0.999999984               0.000803757               0.000319767               0.999999984               0.000805115               0.000289125               0.999999984               0.000804887               0.000278974               0.999999984               0.000806681               0.000278659               0.999999984               0.000810767               0.000282769               0.999999984               0.000816586               0.000288339               0.999999984               0.000823326               0.000293669               0.999999984               0.000830221               0.000297994               0.999999984               0.000836508               0.000300206               0.999999984               0.000841621               0.000299119               0.999999984               0.000845019               0.000294127               0.999999984               0.000846147               0.000284469               0.999999984               0.000844691               0.000269325               0.999999984               0.000840506               0.000248145               0.999999984               0.000833674               0.000219884               0.999999984               0.000824612               0.000183923               0.999999984               0.000756569               0.000521660               0.999999984               0.000748956               0.000424749               0.999999984               0.000738311               0.000388594               0.999999984               0.000732080               0.000378656               0.999999984               0.000730451               0.000380689               0.999999984               0.000731989               0.000387548               0.999999984               0.000735193               0.000395686               0.999999984               0.000738687               0.000403133               0.999999984               0.000741474               0.000408554               0.999999984               0.000742630               0.000410922               0.999999984               0.000741405               0.000409039               0.999999984               0.000737362               0.000402335               0.999999984               0.000730241               0.000390140               0.999999984               0.000720009               0.000371929               0.999999984               0.000706789               0.000347546               0.999999984               0.000691019               0.000316960               0.999999984               0.000673331               0.000280443               0.999999984               0.000717967               0.000643268               0.999999984               0.000683265               0.000528897               0.999999984               0.000661646               0.000490093               0.999999984               0.000650971               0.000482013               0.999999984               0.000647291               0.000487074               0.999999984               0.000647032               0.000496856               0.999999984               0.000647725               0.000507516               0.999999984               0.000647720               0.000516542               0.999999984               0.000645747               0.000522842               0.999999984               0.000640847               0.000524857               0.999999984               0.000632552               0.000521695               0.999999984               0.000620519               0.000513082               0.999999984               0.000604684               0.000498702               0.999999984               0.000585269               0.000478329               0.999999984               0.000562659               0.000452468               0.999999984               0.000537574               0.000421739               0.999999985               0.000510791               0.000387139               0.999999985               0.000672301               0.000758993               0.999999984               0.000610155               0.000632210               0.999999984               0.000580296               0.000593155               0.999999984               0.000567733               0.000587791               0.999999984               0.000563449               0.000595893               0.999999984               0.000561983               0.000608359               0.999999984               0.000560239               0.000620920               0.999999984               0.000556200               0.000631108               0.999999984               0.000548877               0.000637523               0.999999984               0.000537413               0.000638739               0.999999984               0.000521347               0.000634042               0.999999984               0.000500484               0.000623670               0.999999984               0.000475043               0.000607515               0.999999984               0.000445643               0.000586053               0.999999985               0.000413124               0.000560093               0.999999985               0.000378403               0.000530607               0.999999985               0.000342440               0.000499164               0.999999985               0.000620570               0.000867585               0.999999984               0.000533080               0.000734528               0.999999984               0.000498801               0.000696901               0.999999984               0.000487031               0.000694177               0.999999984               0.000483290               0.000704785               0.999999984               0.000480898               0.000719386               0.999999984               0.000476474               0.000733224               0.999999984               0.000468246               0.000743672               0.999999984               0.000455042               0.000749554               0.999999984               0.000436053               0.000749565               0.999999984               0.000410945               0.000743315               0.999999984               0.000379971               0.000731494               0.999999984               0.000343864               0.000714529               0.999999985               0.000303805               0.000693060               0.999999985               0.000260977               0.000668320               0.999999985               0.000216617               0.000641616               0.999999985               0.000171515               0.000614307               0.999999985               0.000564421               0.000967097               0.999999984               0.000454799               0.000835653               0.999999984               0.000421264               0.000799801               0.999999984               0.000412039               0.000799027               0.999999984               0.000409493               0.000811568               0.999999984               0.000406270               0.000827477               0.999999984               0.000398983               0.000841824               0.999999984               0.000385839               0.000852001               0.999999984               0.000365639               0.000856944               0.999999984               0.000337723               0.000855533               0.999999984               0.000302148               0.000847991               0.999999984               0.000259842               0.000835321               0.999999985               0.000212270               0.000818325               0.999999985               0.000161083               0.000798161               0.999999985               0.000107777               0.000776219               0.999999985               0.000053506               0.000753659               0.999999985              -0.000000864               0.000731104               0.999999985               0.000506346               0.001061271               0.999999984               0.000389391               0.000948715               0.999999984               0.000352950               0.000908757               0.999999984               0.000342894               0.000902406               0.999999984               0.000340534               0.000910989               0.999999984               0.000338589               0.000925201               0.999999984               0.000333431               0.000940127               0.999999984               0.000323098               0.000952979               0.999999984               0.000306970               0.000962315               0.999999984               0.000283899               0.000967359               0.999999984               0.000253263               0.000967683               0.999999984               0.000215425               0.000963565               0.999999985               0.000171461               0.000955795               0.999999985               0.000122680               0.000944927               0.999999985               0.000070461               0.000932005               0.999999985               0.000016123               0.000917867               0.999999985              -0.000039013               0.000903442               0.999999985               0.000442986               0.001146978               0.999999984               0.000326868               0.001058076               0.999999984               0.000287801               0.001020467               0.999999984               0.000275938               0.001011140               0.999999984               0.000272903               0.001016869               0.999999984               0.000271470               0.001029854               0.999999984               0.000267850               0.001045265               0.999999984               0.000260139               0.001060337               0.999999984               0.000247250               0.001073674               0.999999984               0.000228462               0.001084256               0.999999984               0.000202890               0.001091407               0.999999984               0.000170061               0.001094873               0.999999984               0.000130435               0.001095125               0.999999985               0.000084879               0.001092654               0.999999985               0.000034469               0.001088004               0.999999985              -0.000019436               0.001081970               0.999999985              -0.000075337               0.001075363               0.999999985               0.000375609               0.001222092               0.999999984               0.000267224               0.001160422               0.999999984               0.000227356               0.001129949               0.999999984               0.000213526               0.001121070               0.999999984               0.000209233               0.001125673               0.999999984               0.000207619               0.001138124               0.999999984               0.000205061               0.001154353               0.999999984               0.000199271               0.001171786               0.999999984               0.000189251               0.001188839               0.999999984               0.000174240               0.001204557               0.999999984               0.000153355               0.001218054               0.999999984               0.000125768               0.001228814               0.999999984               0.000091055               0.001236674               0.999999985               0.000049647               0.001241842               0.999999985               0.000002099               0.001244856               0.999999985              -0.000050835               0.001246324               0.999999985              -0.000107770               0.001247120               0.999999985               0.000304762               0.001285314               0.999999984               0.000210390               0.001251486               0.999999984               0.000172486               0.001231613               0.999999984               0.000157568               0.001226250               0.999999984               0.000152068               0.001231872               0.999999984               0.000149942               0.001244888               0.999999984               0.000147792               0.001262429               0.999999984               0.000143390               0.001282443               0.999999984               0.000135790               0.001303385               0.999999984               0.000124208               0.001324037               0.999999984               0.000107682               0.001343614               0.999999984               0.000085371               0.001361336               0.999999984               0.000056394               0.001376804               0.999999984               0.000020372               0.001389783               0.999999985              -0.000022836               0.001400544               0.999999985              -0.000073399               0.001409563               0.999999985              -0.000130825               0.001417634               0.999999985               0.000231089               0.001335599               0.999999984               0.000155906               0.001327087               0.999999984               0.000123278               0.001319241               0.999999984               0.000109049               0.001319619               0.999999984               0.000103110               0.001328086               0.999999984               0.000100505               0.001343006               0.999999984               0.000098428               0.001362673               0.999999984               0.000095132               0.001385410               0.999999984               0.000089525               0.001409966               0.999999984               0.000080958               0.001435316               0.999999984               0.000068643               0.001460596               0.999999984               0.000051704               0.001485021               0.999999984               0.000029057               0.001508104               0.999999984              -0.000000046               0.001529338               0.999999985              -0.000036598               0.001548509               0.999999985              -0.000081723               0.001565648               0.999999985              -0.000136094               0.001581249               0.999999985               0.000155281               0.001372137               0.999999984               0.000103083               0.001383774               0.999999984               0.000079045               0.001386892               0.999999984               0.000067869               0.001393366               0.999999984               0.000062649               0.001405614               0.999999984               0.000060076               0.001423315               0.999999984               0.000058400               0.001445440               0.999999984               0.000056125               0.001470922               0.999999984               0.000052268               0.001498760               0.999999984               0.000046420               0.001528214               0.999999984               0.000038179               0.001558499               0.999999984               0.000026653               0.001588955               0.999999984               0.000011013               0.001619024               0.999999985              -0.000009684               0.001648057               0.999999985              -0.000036635               0.001675474               0.999999985              -0.000071335               0.001700807               0.999999985              -0.000115687               0.001723981               0.999999985               0.000078012               0.001394285               0.999999984               0.000051302               0.001418844               0.999999984               0.000038551               0.001429630               0.999999984               0.000032385               0.001440805               0.999999984               0.000029232               0.001456080               0.999999984               0.000027727               0.001476021               0.999999984               0.000026810               0.001500228               0.999999984               0.000025586               0.001527997               0.999999984               0.000023544               0.001558482               0.999999984               0.000020565               0.001591026               0.999999984               0.000016337               0.001624974               0.999999984               0.000010440               0.001659745               0.999999984               0.000002344               0.001694819               0.999999985              -0.000008505               0.001729448               0.999999985              -0.000022859               0.001762934               0.999999985              -0.000041902               0.001794695               0.999999985              -0.000067290               0.001823956               0.999999985              -0.000000000               0.001401677               0.999999984              -0.000000000               0.001430676               0.999999984              -0.000000000               0.001444254               0.999999984               0.000000000               0.001457241               0.999999984              -0.000000000               0.001473649               0.999999984              -0.000000000               0.001494475               0.999999984               0.000000000               0.001519556               0.999999984               0.000000000               0.001548243               0.999999984              -0.000000000               0.001579796               0.999999984              -0.000000000               0.001613582               0.999999984              -0.000000000               0.001648864               0.999999984              -0.000000000               0.001685136               0.999999984               0.000000000               0.001721944               0.999999985               0.000000000               0.001758601               0.999999985              -0.000000000               0.001794448               0.999999985               0.000000000               0.001828681               0.999999985               0.000000000               0.001860300               0.999999985 </DataArray>
<DataArray type="Float64"                                    Name="defo"                                                      NumberOfComponents=" 3" format="ascii">
             -0.000827488               0.000000000               0.999999984              -0.000878821              -0.000000000               0.999999984              -0.000900856              -0.000000000               0.999999984              -0.000913094              -0.000000000               0.999999984              -0.000922823               0.000000000               0.999999984              -0.000932664               0.000000000               0.999999984              -0.000943653               0.000000000               0.999999984              -0.000955867               0.000000000               0.999999984              -0.000969279               0.000000000               0.999999984              -0.000983739               0.000000000               0.999999984              -0.000998885              -0.000000000               0.999999984              -0.001014192               0.000000000               0.999999984              -0.001029191               0.000000000               0.999999984              -0.001043388               0.000000000               0.999999984              -0.001056096               0.000000000               0.999999984              -0.001066569               0.000000000               0.999999984              -0.001074010               0.000000000               0.999999984              -0.000823020               0.000133299               0.999999984              -0.000870231               0.000107248               0.999999984              -0.000889674               0.000095426               0.999999984              -0.000900275               0.000090708               0.999999984              -0.000908825               0.000089595               0.999999984              -0.000917776               0.000090329               0.999999984              -0.000927969               0.000091743               0.999999984              -0.000939562               0.000093374               0.999999984              -0.000952212               0.000094759               0.999999984              -0.000965637               0.000095593               0.999999984              -0.000979537               0.000095338               0.999999984              -0.000993349               0.000093663               0.999999984              -0.001006587               0.000090197               0.999999984              -0.001018727               0.000084360               0.999999984              -0.001029128               0.000075694               0.999999984              -0.001037228               0.000063081               0.999999984              -0.001042402               0.000045494               0.999999984              -0.000809516               0.000265491               0.999999984              -0.000844804               0.000213925               0.999999984              -0.000856886               0.000191605               0.999999984              -0.000862908               0.000183204               0.999999984              -0.000868458               0.000181845               0.999999984              -0.000875273               0.000183830               0.999999984              -0.000883588               0.000187137               0.999999984              -0.000893170               0.000190500               0.999999984              -0.000903574               0.000193343               0.999999984              -0.000914248               0.000194933               0.999999984              -0.000924535               0.000194369               0.999999984              -0.000934004               0.000191062               0.999999984              -0.000942190               0.000184317               0.999999984              -0.000948558               0.000173418               0.999999984              -0.000952720               0.000157383               0.999999984              -0.000954346               0.000134926               0.999999984              -0.000953333               0.000104676               0.999999984              -0.000787214               0.000395365               0.999999984              -0.000803757               0.000319767               0.999999984              -0.000805115               0.000289125               0.999999984              -0.000804887               0.000278974               0.999999984              -0.000806681               0.000278659               0.999999984              -0.000810767               0.000282769               0.999999984              -0.000816586               0.000288339               0.999999984              -0.000823326               0.000293669               0.999999984              -0.000830221               0.000297994               0.999999984              -0.000836508               0.000300206               0.999999984              -0.000841621               0.000299119               0.999999984              -0.000845019               0.000294127               0.999999984              -0.000846147               0.000284469               0.999999984              -0.000844691               0.000269325               0.999999984              -0.000840506               0.000248145               0.999999984              -0.000833674               0.000219884               0.999999984              -0.000824612               0.000183923               0.999999984              -0.000756569               0.000521660               0.999999984              -0.000748956               0.000424749               0.999999984              -0.000738311               0.000388594               0.999999984              -0.000732080               0.000378656               0.999999984              -0.000730451               0.000380689               0.999999984              -0.000731989               0.000387548               0.999999984              -0.000735193               0.000395686               0.999999984              -0.000738687               0.000403133               0.999999984              -0.000741474               0.000408554               0.999999984              -0.000742630               0.000410922               0.999999984              -0.000741405               0.000409039               0.999999984              -0.000737362               0.000402335               0.999999984              -0.000730241               0.000390140               0.999999984              -0.000720009               0.000371929               0.999999984              -0.000706789               0.000347546               0.999999984              -0.000691019               0.000316960               0.999999984              -0.000673331               0.000280443               0.999999984              -0.000717967               0.000643268               0.999999984              -0.000683265               0.000528897               0.999999984              -0.000661646               0.000490093               0.999999984              -0.000650971               0.000482013               0.999999984              -0.000647291               0.000487074               0.999999984              -0.000647032               0.000496856               0.999999984              -0.000647725               0.000507516               0.999999984              -0.000647720               0.000516542               0.999999984              -0.000645747               0.000522842               0.999999984              -0.000640847               0.000524857               0.999999984              -0.000632552               0.000521695               0.999999984              -0.000620519               0.000513082               0.999999984              -0.000604684               0.000498702               0.999999984              -0.000585269               0.000478329               0.999999984              -0.000562659               0.000452468               0.999999984              -0.000537574               0.000421739               0.999999985              -0.000510791               0.000387139               0.999999985              -0.000672301               0.000758993               0.999999984              -0.000610155               0.000632210               0.999999984              -0.000580296               0.000593155               0.999999984              -0.000567733               0.000587791               0.999999984              -0.000563449               0.000595893               0.999999984              -0.000561983               0.000608359               0.999999984              -0.000560239               0.000620920               0.999999984              -0.000556200               0.000631108               0.999999984              -0.000548877               0.000637523               0.999999984              -0.000537413               0.000638739               0.999999984              -0.000521347               0.000634042               0.999999984              -0.000500484               0.000623670               0.999999984              -0.000475043               0.000607515               0.999999984              -0.000445643               0.000586053               0.999999985              -0.000413124               0.000560093               0.999999985              -0.000378403               0.000530607               0.999999985              -0.000342440               0.000499164               0.999999985              -0.000620570               0.000867585               0.999999984              -0.000533080               0.000734528               0.999999984              -0.000498801               0.000696901               0.999999984              -0.000487031               0.000694177               0.999999984              -0.000483290               0.000704785               0.999999984              -0.000480898               0.000719386               0.999999984              -0.000476474               0.000733224               0.999999984              -0.000468246               0.000743672               0.999999984              -0.000455042               0.000749554               0.999999984              -0.000436053               0.000749565               0.999999984              -0.000410945               0.000743315               0.999999984              -0.000379971               0.000731494               0.999999984              -0.000343864               0.000714529               0.999999985              -0.000303805               0.000693060               0.999999985              -0.000260977               0.000668320               0.999999985              -0.000216617               0.000641616               0.999999985              -0.000171515               0.000614307               0.999999985              -0.000564421               0.000967097               0.999999984              -0.000454799               0.000835653               0.999999984              -0.000421264               0.000799801               0.999999984              -0.000412039               0.000799027               0.999999984              -0.000409493               0.000811568               0.999999984              -0.000406270               0.000827477               0.999999984              -0.000398983               0.000841824               0.999999984              -0.000385839               0.000852001               0.999999984              -0.000365639               0.000856944               0.999999984              -0.000337723               0.000855533               0.999999984              -0.000302148               0.000847991               0.999999984              -0.000259842               0.000835321               0.999999985              -0.000212270               0.000818325               0.999999985              -0.000161083               0.000798161               0.999999985              -0.000107777               0.000776219               0.999999985              -0.000053506               0.000753659               0.999999985               0.000000864               0.000731104               0.999999985              -0.000506346               0.001061271               0.999999984              -0.000389391               0.000948715               0.999999984              -0.000352950               0.000908757               0.999999984              -0.000342894               0.000902406               0.999999984              -0.000340534               0.000910989               0.999999984              -0.000338589               0.000925201               0.999999984              -0.000333431               0.000940127               0.999999984              -0.000323098               0.000952979               0.999999984              -0.000306970               0.000962315               0.999999984              -0.000283899               0.000967359               0.999999984              -0.000253263               0.000967683               0.999999984              -0.000215425               0.000963565               0.999999985              -0.000171461               0.000955795               0.999999985              -0.000122680               0.000944927               0.999999985              -0.000070461               0.000932005               0.999999985              -0.000016123               0.000917867               0.999999985               0.000039013               0.000903442               0.999999985              -0.000442986               0.001146978               0.999999984              -0.000326868               0.001058076               0.999999984              -0.000287801               0.001020467               0.999999984              -0.000275938               0.001011140               0.999999984              -0.000272903               0.001016869               0.999999984              -0.000271470               0.001029854               0.999999984              -0.000267850               0.001045265               0.999999984              -0.000260139               0.001060337               0.999999984              -0.000247250               0.001073674               0.999999984              -0.000228462               0.001084256               0.999999984              -0.000202890               0.001091407               0.999999984              -0.000170061               0.001094873               0.999999984              -0.000130435               0.001095125               0.999999985              -0.000084879               0.001092654               0.999999985              -0.000034469               0.001088004               0.999999985               0.000019436               0.001081970               0.999999985               0.000075337               0.001075363               0.999999985              -0.000375609               0.001222092               0.999999984              -0.000267224               0.001160422               0.999999984              -0.000227356               0.001129949               0.999999984              -0.000213526               0.001121070               0.999999984              -0.000209233               0.001125673               0.999999984              -0.000207619               0.001138124               0.999999984              -0.000205061               0.001154353               0.999999984              -0.000199271               0.001171786               0.999999984              -0.000189251               0.001188839               0.999999984              -0.000174240               0.001204557               0.999999984              -0.000153355               0.001218054               0.999999984              -0.000125768               0.001228814               0.999999984              -0.000091055               0.001236674               0.999999985              -0.000049647               0.001241842               0.999999985              -0.000002099               0.001244856               0.999999985               0.000050835               0.001246324               0.999999985               0.000107770               0.001247120               0.999999985              -0.000304762               0.001285314               0.999999984              -0.000210390               0.001251486               0.999999984              -0.000172486               0.001231613               0.999999984              -0.000157568               0.001226250               0.999999984              -0.000152068               0.001231872               0.999999984              -0.000149942               0.001244888               0.999999984              -0.000147792               0.001262429               0.999999984              -0.000143390               0.001282443               0.999999984              -0.000135790               0.001303385               0.999999984              -0.000124208               0.001324037               0.999999984              -0.000107682               0.001343614               0.999999984              -0.000085371               0.001361336               0.999999984              -0.000056394               0.001376804               0.999999984              -0.000020372               0.001389783               0.999999985               0.000022836               0.001400544               0.999999985               0.000073399               0.001409563               0.999999985               0.000130825               0.001417634               0.999999985              -0.000231089               0.001335599               0.999999984              -0.000155906               0.001327087               0.999999984              -0.000123278               0.001319241               0.999999984              -0.000109049               0.001319619               0.999999984              -0.000103110               0.001328086               0.999999984              -0.000100505               0.001343006               0.999999984              -0.000098428               0.001362673               0.999999984              -0.000095132               0.001385410               0.999999984              -0.000089525               0.001409966               0.999999984              -0.000080958               0.001435316               0.999999984              -0.000068643               0.001460596               0.999999984              -0.000051704               0.001485021               0.999999984              -0.000029057               0.001508104               0.999999984               0.000000046               0.001529338               0.999999985               0.000036598               0.001548509               0.999999985               0.000081723               0.001565648               0.999999985               0.000136094               0.001581249               0.999999985              -0.000155281               0.001372137               0.999999984              -0.000103083               0.001383774               0.999999984              -0.000079045               0.001386892               0.999999984              -0.000067869               0.001393366               0.999999984              -0.000062649               0.001405614               0.999999984              -0.000060076               0.001423315               0.999999984              -0.000058400               0.001445440               0.999999984              -0.000056125               0.001470922               0.999999984              -0.000052268               0.001498760               0.999999984              -0.000046420               0.001528214               0.999999984              -0.000038179               0.001558499               0.999999984              -0.000026653               0.001588955               0.999999984              -0.000011013               0.001619024               0.999999985               0.000009684               0.001648057               0.999999985               0.000036635               0.001675474               0.999999985               0.000071335               0.001700807               0.999999985               0.000115687               0.001723981               0.999999985              -0.000078012               0.001394285               0.999999984              -0.000051302               0.001418844               0.999999984              -0.000038551               0.001429630               0.999999984              -0.000032385               0.001440805               0.999999984              -0.000029232               0.001456080               0.999999984              -0.000027727               0.001476021               0.999999984              -0.000026810               0.001500228               0.999999984              -0.000025586               0.001527997               0.999999984              -0.000023544               0.001558482               0.999999984              -0.000020565               0.001591026               0.999999984              -0.000016337               0.001624974               0.999999984              -0.000010440               0.001659745               0.999999984              -0.000002344               0.001694819               0.999999985               0.000008505               0.001729448               0.999999985               0.000022859               0.001762934               0.999999985               0.000041902               0.001794695               0.999999985               0.000067290               0.001823956               0.999999985              -0.000000000               0.001401677               0.999999984              -0.000000000               0.001430676               0.999999984              -0.000000000               0.001444254               0.999999984               0.000000000               0.001457241               0.999999984              -0.000000000               0.001473649               0.999999984              -0.000000000               0.001494475               0.999999984               0.000000000               0.001519556               0.999999984               0.000000000               0.001548243               0.999999984              -0.000000000               0.001579796               0.999999984              -0.000000000               0.001613582               0.999999984              -0.000000000               0.001648864               0.999999984              -0.000000000               0.001685136               0.999999984               0.000000000               0.001721944               0.999999985               0.000000000               0.001758601               0.999999985              -0.000000000               0.001794448               0.999999985               0.000000000               0.001828681               0.999999985               0.000000000               0.001860300               0.999999985              -0.000827488               0.000000000               0.999999984              -0.000878821              -0.000000000               0.999999984              -0.000900856              -0.000000000               0.999999984              -0.000913094              -0.000000000               0.999999984              -0.000922823               0.000000000               0.999999984              -0.000932664               0.000000000               0.999999984              -0.000943653               0.000000000               0.999999984              -0.000955867               0.000000000               0.999999984              -0.000969279               0.000000000               0.999999984              -0.000983739               0.000000000               0.999999984              -0.000998885              -0.000000000               0.999999984              -0.001014192               0.000000000               0.999999984              -0.001029191               0.000000000               0.999999984              -0.001043388               0.000000000               0.999999984              -0.001056096               0.000000000               0.999999984              -0.001066569               0.000000000               0.999999984              -0.001074010               0.000000000               0.999999984              -0.000823020              -0.000133299               0.999999984              -0.000870231              -0.000107248               0.999999984              -0.000889674              -0.000095426               0.999999984              -0.000900275              -0.000090708               0.999999984              -0.000908825              -0.000089595               0.999999984              -0.000917776              -0.000090329               0.999999984              -0.000927969              -0.000091743               0.999999984              -0.000939562              -0.000093374               0.999999984              -0.000952212              -0.000094759               0.999999984              -0.000965637              -0.000095593               0.999999984              -0.000979537              -0.000095338               0.999999984              -0.000993349              -0.000093663               0.999999984              -0.001006587              -0.000090197               0.999999984              -0.001018727              -0.000084360               0.999999984              -0.001029128              -0.000075694               0.999999984              -0.001037228              -0.000063081               0.999999984              -0.001042402              -0.000045494               0.999999984              -0.000809516              -0.000265491               0.999999984              -0.000844804              -0.000213925               0.999999984              -0.000856886              -0.000191605               0.999999984              -0.000862908              -0.000183204               0.999999984              -0.000868458              -0.000181845               0.999999984              -0.000875273              -0.000183830               0.999999984              -0.000883588              -0.000187137               0.999999984              -0.000893170              -0.000190500               0.999999984              -0.000903574              -0.000193343               0.999999984              -0.000914248              -0.000194933               0.999999984              -0.000924535              -0.000194369               0.999999984              -0.000934004              -0.000191062               0.999999984              -0.000942190              -0.000184317               0.999999984              -0.000948558              -0.000173418               0.999999984              -0.000952720              -0.000157383               0.999999984              -0.000954346              -0.000134926               0.999999984              -0.000953333              -0.000104676               0.999999984              -0.000787214              -0.000395365               0.999999984              -0.000803757              -0.000319767               0.999999984              -0.000805115              -0.000289125               0.999999984              -0.000804887              -0.000278974               0.999999984              -0.000806681              -0.000278659               0.999999984              -0.000810767              -0.000282769               0.999999984              -0.000816586              -0.000288339               0.999999984              -0.000823326              -0.000293669               0.999999984              -0.000830221              -0.000297994               0.999999984              -0.000836508              -0.000300206               0.999999984              -0.000841621              -0.000299119               0.999999984              -0.000845019              -0.000294127               0.999999984              -0.000846147              -0.000284469               0.999999984              -0.000844691              -0.000269325               0.999999984              -0.000840506              -0.000248145               0.999999984              -0.000833674              -0.000219884               0.999999984              -0.000824612              -0.000183923               0.999999984              -0.000756569              -0.000521660               0.999999984              -0.000748956              -0.000424749               0.999999984              -0.000738311              -0.000388594               0.999999984              -0.000732080              -0.000378656               0.999999984              -0.000730451              -0.000380689               0.999999984              -0.000731989              -0.000387548               0.999999984              -0.000735193              -0.000395686               0.999999984              -0.000738687              -0.000403133               0.999999984              -0.000741474              -0.000408554               0.999999984              -0.000742630              -0.000410922               0.999999984              -0.000741405              -0.000409039               0.999999984              -0.000737362              -0.000402335               0.999999984              -0.000730241              -0.000390140               0.999999984              -0.000720009              -0.000371929               0.999999984              -0.000706789              -0.000347546               0.999999984              -0.000691019              -0.000316960               0.999999984              -0.000673331              -0.000280443               0.999999984              -0.000717967              -0.000643268               0.999999984              -0.000683265              -0.000528897               0.999999984              -0.000661646              -0.000490093               0.999999984              -0.000650971              -0.000482013               0.999999984              -0.000647291              -0.000487074               0.999999984              -0.000647032              -0.000496856               0.999999984              -0.000647725              -0.000507516               0.999999984              -0.000647720              -0.000516542               0.999999984              -0.000645747              -0.000522842               0.999999984              -0.000640847              -0.000524857               0.999999984              -0.000632552              -0.000521695               0.999999984              -0.000620519              -0.000513082               0.999999984              -0.000604684              -0.000498702               0.999999984              -0.000585269              -0.000478329               0.999999984              -0.000562659              -0.000452468               0.999999984              -0.000537574              -0.000421739               0.999999985              -0.000510791              -0.000387139               0.999999985              -0.000672301              -0.000758993               0.999999984              -0.000610155              -0.000632210               0.999999984              -0.000580296              -0.000593155               0.999999984              -0.000567733              -0.000587791               0.999999984              -0.000563449              -0.000595893               0.999999984              -0.000561983              -0.000608359               0.999999984              -0.000560239              -0.000620920               0.999999984              -0.000556200              -0.000631108               0.999999984              -0.000548877              -0.000637523               0.999999984              -0.000537413              -0.000638739               0.999999984              -0.000521347              -0.000634042               0.999999984              -0.000500484              -0.000623670               0.999999984              -0.000475043              -0.000607515               0.999999984              -0.000445643              -0.000586053               0.999999985              -0.000413124              -0.000560093               0.999999985              -0.000378403              -0.000530607               0.999999985              -0.000342440              -0.000499164               0.999999985              -0.000620570              -0.000867585               0.999999984              -0.000533080              -0.000734528               0.999999984              -0.000498801              -0.000696901               0.999999984              -0.000487031              -0.000694177               0.999999984              -0.000483290              -0.000704785               0.999999984              -0.000480898              -0.000719386               0.999999984              -0.000476474              -0.000733224               0.999999984              -0.000468246              -0.000743672               0.999999984              -0.000455042              -0.000749554               0.999999984              -0.000436053              -0.000749565               0.999999984              -0.000410945              -0.000743315               0.999999984              -0.000379971              -0.000731494               0.999999984              -0.000343864              -0.000714529               0.999999985              -0.000303805              -0.000693060               0.999999985              -0.000260977              -0.000668320               0.999999985              -0.000216617              -0.000641616               0.999999985              -0.000171515              -0.000614307               0.999999985              -0.000564421              -0.000967097               0.999999984              -0.000454799              -0.000835653               0.999999984              -0.000421264              -0.000799801               0.999999984              -0.000412039              -0.000799027               0.999999984              -0.000409493              -0.000811568               0.999999984              -0.000406270              -0.000827477               0.999999984              -0.000398983              -0.000841824               0.999999984              -0.000385839              -0.000852001               0.999999984              -0.000365639              -0.000856944               0.999999984              -0.000337723              -0.000855533               0.999999984              -0.000302148              -0.000847991               0.999999984              -0.000259842              -0.000835321               0.999999985              -0.000212270              -0.000818325               0.999999985              -0.000161083              -0.000798161               0.999999985              -0.000107777              -0.000776219               0.999999985              -0.000053506              -0.000753659               0.999999985               0.000000864              -0.000731104               0.999999985              -0.000506346              -0.001061271               0.999999984              -0.000389391              -0.000948715               0.999999984              -0.000352950              -0.000908757               0.999999984              -0.000342894              -0.000902406               0.999999984              -0.000340534              -0.000910989               0.999999984              -0.000338589              -0.000925201               0.999999984              -0.000333431              -0.000940127               0.999999984              -0.000323098              -0.000952979               0.999999984              -0.000306970              -0.000962315               0.999999984              -0.000283899              -0.000967359               0.999999984              -0.000253263              -0.000967683               0.999999984              -0.000215425              -0.000963565               0.999999985              -0.000171461              -0.000955795               0.999999985              -0.000122680              -0.000944927               0.999999985              -0.000070461              -0.000932005               0.999999985              -0.000016123              -0.000917867               0.999999985               0.000039013              -0.000903442               0.999999985              -0.000442986              -0.001146978               0.999999984              -0.000326868              -0.001058076               0.999999984              -0.000287801              -0.001020467               0.999999984              -0.000275938              -0.001011140               0.999999984              -0.000272903              -0.001016869               0.999999984              -0.000271470              -0.001029854               0.999999984              -0.000267850              -0.001045265               0.999999984              -0.000260139              -0.001060337               0.999999984              -0.000247250              -0.001073674               0.999999984              -0.000228462              -0.001084256               0.999999984              -0.000202890              -0.001091407               0.999999984              -0.000170061              -0.001094873               0.999999984              -0.000130435              -0.001095125               0.999999985              -0.000084879              -0.001092654               0.999999985              -0.000034469              -0.001088004               0.999999985               0.000019436              -0.001081970               0.999999985               0.000075337              -0.001075363               0.999999985              -0.000375609              -0.001222092               0.999999984              -0.000267224              -0.001160422               0.999999984              -0.000227356              -0.001129949               0.999999984              -0.000213526              -0.001121070               0.999999984              -0.000209233              -0.001125673               0.999999984              -0.000207619              -0.001138124               0.999999984              -0.000205061              -0.001154353               0.999999984              -0.000199271              -0.001171786               0.999999984              -0.000189251              -0.001188839               0.999999984              -0.000174240              -0.001204557               0.999999984              -0.000153355              -0.001218054               0.999999984              -0.000125768              -0.001228814               0.999999984              -0.000091055              -0.001236674               0.999999985              -0.000049647              -0.001241842               0.999999985              -0.000002099              -0.001244856               0.999999985               0.000050835              -0.001246324               0.999999985               0.000107770              -0.001247120               0.999999985              -0.000304762              -0.001285314               0.999999984              -0.000210390              -0.001251486               0.999999984              -0.000172486              -0.001231613               0.999999984              -0.000157568              -0.001226250               0.999999984              -0.000152068              -0.001231872               0.999999984              -0.000149942              -0.001244888               0.999999984              -0.000147792              -0.001262429               0.999999984              -0.000143390              -0.001282443               0.999999984              -0.000135790              -0.001303385               0.999999984              -0.000124208              -0.001324037               0.999999984              -0.000107682              -0.001343614               0.999999984              -0.000085371              -0.001361336               0.999999984              -0.000056394              -0.001376804               0.999999984              -0.000020372              -0.001389783               0.999999985               0.000022836              -0.001400544               0.999999985               0.000073399              -0.001409563               0.999999985               0.000130825              -0.001417634               0.999999985              -0.000231089              -0.001335599               0.999999984              -0.000155906              -0.001327087               0.999999984              -0.000123278              -0.001319241               0.999999984              -0.000109049              -0.001319619               0.999999984              -0.000103110              -0.001328086               0.999999984              -0.000100505              -0.001343006               0.999999984              -0.000098428              -0.001362673               0.999999984              -0.000095132              -0.001385410               0.999999984              -0.000089525              -0.001409966               0.999999984              -0.000080958              -0.001435316               0.999999984              -0.000068643              -0.001460596               0.999999984              -0.000051704              -0.001485021               0.999999984              -0.000029057              -0.001508104               0.999999984               0.000000046              -0.001529338               0.999999985               0.000036598              -0.001548509               0.999999985               0.000081723              -0.001565648               0.999999985               0.000136094              -0.001581249               0.999999985              -0.000155281              -0.001372137               0.999999984              -0.000103083              -0.001383774               0.999999984              -0.000079045              -0.001386892               0.999999984              -0.000067869              -0.001393366               0.999999984              -0.000062649              -0.001405614               0.999999984              -0.000060076              -0.001423315               0.999999984              -0.000058400              -0.001445440               0.999999984              -0.000056125              -0.001470922               0.999999984              -0.000052268              -0.001498760               0.999999984              -0.000046420              -0.001528214               0.999999984              -0.000038179              -0.001558499               0.999999984              -0.000026653              -0.001588955               0.999999984              -0.000011013              -0.001619024               0.999999985               0.000009684              -0.001648057               0.999999985               0.000036635              -0.001675474               0.999999985               0.000071335              -0.001700807               0.999999985               0.000115687              -0.001723981               0.999999985              -0.000078012              -0.001394285               0.999999984              -0.000051302              -0.001418844               0.999999984              -0.000038551              -0.001429630               0.999999984              -0.000032385              -0.001440805               0.999999984              -0.000029232              -0.001456080               0.999999984              -0.000027727              -0.001476021               0.999999984              -0.000026810              -0.001500228               0.999999984              -0.000025586              -0.001527997               0.999999984              -0.000023544              -0.001558482               0.999999984              -0.000020565              -0.001591026               0.999999984              -0.000016337              -0.001624974               0.999999984              -0.000010440              -0.001659745               0.999999984              -0.000002344              -0.001694819               0.999999985               0.000008505              -0.001729448               0.999999985               0.000022859              -0.001762934               0.999999985               0.000041902              -0.001794695               0.999999985               0.000067290              -0.001823956               0.999999985              -0.000000000              -0.001401677               0.999999984              -0.000000000              -0.001430676               0.999999984               0.000000000              -0.001444254               0.999999984              -0.000000000              -0.001457241               0.999999984               0.000000000              -0.001473649               0.999999984               0.000000000              -0.001494475               0.999999984              -0.000000000              -0.001519556               0.999999984              -0.000000000              -0.001548243               0.999999984              -0.000000000              -0.001579796               0.999999984              -0.000000000              -0.001613582               0.999999984              -0.000000000              -0.001648864               0.999999984              -0.000000000              -0.001685136               0.999999984              -0.000000000              -0.001721944               0.999999985               0.000000000              -0.001758601               0.999999985               0.000000000              -0.001794448               0.999999985              -0.000000000              -0.001828681               0.999999985              -0.000000000              -0.001860300               0.999999985               0.000827488               0.000000000               0.999999984               0.000878821               0.000000000               0.999999984               0.000900856               0.000000000               0.999999984               0.000913094              -0.000000000               0.999999984               0.000922823               0.000000000               0.999999984               0.000932664               0.000000000               0.999999984               0.000943653               0.000000000               0.999999984               0.000955867               0.000000000               0.999999984               0.000969279               0.000000000               0.999999984               0.000983739               0.000000000               0.999999984               0.000998885              -0.000000000               0.999999984               0.001014192               0.000000000               0.999999984               0.001029191               0.000000000               0.999999984               0.001043388               0.000000000               0.999999984               0.001056096               0.000000000               0.999999984               0.001066569               0.000000000               0.999999984               0.001074010               0.000000000               0.999999984               0.000823020              -0.000133299               0.999999984               0.000870231              -0.000107248               0.999999984               0.000889674              -0.000095426               0.999999984               0.000900275              -0.000090708               0.999999984               0.000908825              -0.000089595               0.999999984               0.000917776              -0.000090329               0.999999984               0.000927969              -0.000091743               0.999999984               0.000939562              -0.000093374               0.999999984               0.000952212              -0.000094759               0.999999984               0.000965637              -0.000095593               0.999999984               0.000979537              -0.000095338               0.999999984               0.000993349              -0.000093663               0.999999984               0.001006587              -0.000090197               0.999999984               0.001018727              -0.000084360               0.999999984               0.001029128              -0.000075694               0.999999984               0.001037228              -0.000063081               0.999999984               0.001042402              -0.000045494               0.999999984               0.000809516              -0.000265491               0.999999984               0.000844804              -0.000213925               0.999999984               0.000856886              -0.000191605               0.999999984               0.000862908              -0.000183204               0.999999984               0.000868458              -0.000181845               0.999999984               0.000875273              -0.000183830               0.999999984               0.000883588              -0.000187137               0.999999984               0.000893170              -0.000190500               0.999999984               0.000903574              -0.000193343               0.999999984               0.000914248              -0.000194933               0.999999984               0.000924535              -0.000194369               0.999999984               0.000934004              -0.000191062               0.999999984               0.000942190              -0.000184317               0.999999984               0.000948558              -0.000173418               0.999999984               0.000952720              -0.000157383               0.999999984               0.000954346              -0.000134926               0.999999984               0.000953333              -0.000104676               0.999999984               0.000787214              -0.000395365               0.999999984               0.000803757              -0.000319767               0.999999984               0.000805115              -0.000289125               0.999999984               0.000804887              -0.000278974               0.999999984               0.000806681              -0.000278659               0.999999984               0.000810767              -0.000282769               0.999999984               0.000816586              -0.000288339               0.999999984               0.000823326              -0.000293669               0.999999984               0.000830221              -0.000297994               0.999999984               0.000836508              -0.000300206               0.999999984               0.000841621              -0.000299119               0.999999984               0.000845019              -0.000294127               0.999999984               0.000846147              -0.000284469               0.999999984               0.000844691              -0.000269325               0.999999984               0.000840506              -0.000248145               0.999999984               0.000833674              -0.000219884               0.999999984               0.000824612              -0.000183923               0.999999984               0.000756569              -0.000521660               0.999999984               0.000748956              -0.000424749               0.999999984               0.000738311              -0.000388594               0.999999984               0.000732080              -0.000378656               0.999999984               0.000730451              -0.000380689               0.999999984               0.000731989              -0.000387548               0.999999984               0.000735193              -0.000395686               0.999999984               0.000738687              -0.000403133               0.999999984               0.000741474              -0.000408554               0.999999984               0.000742630              -0.000410922               0.999999984               0.000741405              -0.000409039               0.999999984               0.000737362              -0.000402335               0.999999984               0.000730241              -0.000390140               0.999999984               0.000720009              -0.000371929               0.999999984               0.000706789              -0.000347546               0.999999984               0.000691019              -0.000316960               0.999999984               0.000673331              -0.000280443               0.999999984               0.000717967              -0.000643268               0.999999984               0.000683265              -0.000528897               0.999999984               0.000661646              -0.000490093               0.999999984               0.000650971              -0.000482013               0.999999984               0.000647291              -0.000487074               0.999999984               0.000647032              -0.000496856               0.999999984               0.000647725              -0.000507516               0.999999984               0.000647720              -0.000516542               0.999999984               0.000645747              -0.000522842               0.999999984               0.000640847              -0.000524857               0.999999984               0.000632552              -0.000521695               0.999999984               0.000620519              -0.000513082               0.999999984               0.000604684              -0.000498702               0.999999984               0.000585269              -0.000478329               0.999999984               0.000562659              -0.000452468               0.999999984               0.000537574              -0.000421739               0.999999985               0.000510791              -0.000387139               0.999999985               0.000672301              -0.000758993               0.999999984               0.000610155              -0.000632210               0.999999984               0.000580296              -0.000593155               0.999999984               0.000567733              -0.000587791               0.999999984               0.000563449              -0.000595893               0.999999984               0.000561983              -0.000608359               0.999999984               0.000560239              -0.000620920               0.999999984               0.000556200              -0.000631108               0.999999984               0.000548877              -0.000637523               0.999999984               0.000537413              -0.000638739               0.999999984               0.000521347              -0.000634042               0.999999984               0.000500484              -0.000623670               0.999999984               0.000475043              -0.000607515               0.999999984               0.000445643              -0.000586053               0.999999985               0.000413124              -0.000560093               0.999999985               0.000378403              -0.000530607               0.999999985               0.000342440              -0.000499164               0.999999985               0.000620570              -0.000867585               0.999999984               0.000533080              -0.000734528               0.999999984               0.000498801              -0.000696901               0.999999984               0.000487031              -0.000694177               0.999999984               0.000483290              -0.000704785               0.999999984               0.000480898              -0.000719386               0.999999984               0.000476474              -0.000733224               0.999999984               0.000468246              -0.000743672               0.999999984               0.000455042              -0.000749554               0.999999984               0.000436053              -0.000749565               0.999999984               0.000410945              -0.000743315               0.999999984               0.000379971              -0.000731494               0.999999984               0.000343864              -0.000714529               0.999999985               0.000303805              -0.000693060               0.999999985               0.000260977              -0.000668320               0.999999985               0.000216617              -0.000641616               0.999999985               0.000171515              -0.000614307               0.999999985               0.000564421              -0.000967097               0.999999984               0.000454799              -0.000835653               0.999999984               0.000421264              -0.000799801               0.999999984               0.000412039              -0.000799027               0.999999984               0.000409493              -0.000811568               0.999999984               0.000406270              -0.000827477               0.999999984               0.000398983              -0.000841824               0.999999984               0.000385839              -0.000852001               0.999999984               0.000365639              -0.000856944               0.999999984               0.000337723              -0.000855533               0.999999984               0.000302148              -0.000847991               0.999999984               0.000259842              -0.000835321               0.999999985               0.000212270              -0.000818325               0.999999985               0.000161083              -0.000798161               0.999999985               0.000107777              -0.000776219               0.999999985               0.000053506              -0.000753659               0.999999985              -0.000000864              -0.000731104               0.999999985               0.000506346              -0.001061271               0.999999984               0.000389391              -0.000948715               0.999999984               0.000352950              -0.000908757               0.999999984               0.000342894              -0.000902406               0.999999984               0.000340534              -0.000910989               0.999999984               0.000338589              -0.000925201               0.999999984               0.000333431              -0.000940127               0.999999984               0.000323098              -0.000952979               0.999999984               0.000306970              -0.000962315               0.999999984               0.000283899              -0.000967359               0.999999984               0.000253263              -0.000967683               0.999999984               0.000215425              -0.000963565               0.999999985               0.000171461              -0.000955795               0.999999985               0.000122680              -0.000944927               0.999999985               0.000070461              -0.000932005               0.999999985               0.000016123              -0.000917867               0.999999985              -0.000039013              -0.000903442               0.999999985               0.000442986              -0.001146978               0.999999984               0.000326868              -0.001058076               0.999999984               0.000287801              -0.001020467               0.999999984               0.000275938              -0.001011140               0.999999984               0.000272903              -0.001016869               0.999999984               0.000271470              -0.001029854               0.999999984               0.000267850              -0.001045265               0.999999984               0.000260139              -0.001060337               0.999999984               0.000247250              -0.001073674               0.999999984               0.000228462              -0.001084256               0.999999984               0.000202890              -0.001091407               0.999999984               0.000170061              -0.001094873               0.999999984               0.000130435              -0.001095125               0.999999985               0.000084879              -0.001092654               0.999999985               0.000034469              -0.001088004               0.999999985              -0.000019436              -0.001081970               0.999999985              -0.000075337              -0.001075363               0.999999985               0.000375609              -0.001222092               0.999999984               0.000267224              -0.001160422               0.999999984               0.000227356              -0.001129949               0.999999984               0.000213526              -0.001121070               0.999999984               0.000209233              -0.001125673               0.999999984               0.000207619              -0.001138124               0.999999984               0.000205061              -0.001154353               0.999999984               0.000199271              -0.001171786               0.999999984               0.000189251              -0.001188839               0.999999984               0.000174240              -0.001204557               0.999999984               0.000153355              -0.001218054               0.999999984               0.000125768              -0.001228814               0.999999984               0.000091055              -0.001236674               0.999999985               0.000049647              -0.001241842               0.999999985               0.000002099              -0.001244856               0.999999985              -0.000050835              -0.001246324               0.999999985              -0.000107770              -0.001247120               0.999999985               0.000304762              -0.001285314               0.999999984               0.000210390              -0.001251486               0.999999984               0.000172486              -0.001231613               0.999999984               0.000157568              -0.001226250               0.999999984               0.000152068              -0.001231872               0.999999984               0.000149942              -0.001244888               0.999999984               0.000147792              -0.001262429               0.999999984               0.000143390              -0.001282443               0.999999984               0.000135790              -0.001303385               0.999999984               0.000124208              -0.001324037               0.999999984               0.000107682              -0.001343614               0.999999984               0.000085371              -0.001361336               0.999999984               0.000056394              -0.001376804               0.999999984               0.000020372              -0.001389783               0.999999985              -0.000022836              -0.001400544               0.999999985              -0.000073399              -0.001409563               0.999999985              -0.000130825              -0.001417634               0.999999985               0.000231089              -0.001335599               0.999999984               0.000155906              -0.001327087               0.999999984               0.000123278              -0.001319241               0.999999984               0.000109049              -0.001319619               0.999999984               0.000103110              -0.001328086               0.999999984               0.000100505              -0.001343006               0.999999984               0.000098428              -0.001362673               0.999999984               0.000095132              -0.001385410               0.999999984               0.000089525              -0.001409966               0.999999984               0.000080958              -0.001435316               0.999999984               0.000068643              -0.001460596               0.999999984               0.000051704              -0.001485021               0.999999984               0.000029057              -0.001508104               0.999999984              -0.000000046              -0.001529338               0.999999985              -0.000036598              -0.001548509               0.999999985              -0.000081723              -0.001565648               0.999999985              -0.000136094              -0.001581249               0.999999985               0.000155281              -0.001372137               0.999999984               0.000103083              -0.001383774               0.999999984               0.000079045              -0.001386892               0.999999984               0.000067869              -0.001393366               0.999999984               0.000062649              -0.001405614               0.999999984               0.000060076              -0.001423315               0.999999984               0.000058400              -0.001445440               0.999999984               0.000056125              -0.001470922               0.999999984               0.000052268              -0.001498760               0.999999984               0.000046420              -0.001528214               0.999999984               0.000038179              -0.001558499               0.999999984               0.000026653              -0.001588955               0.999999984               0.000011013              -0.001619024               0.999999985              -0.000009684              -0.001648057               0.999999985              -0.000036635              -0.001675474               0.999999985              -0.000071335              -0.001700807               0.999999985              -0.000115687              -0.001723981               0.999999985               0.000078012              -0.001394285               0.999999984               0.000051302              -0.001418844               0.999999984               0.000038551              -0.001429630               0.999999984               0.000032385              -0.001440805               0.999999984               0.000029232              -0.001456080               0.999999984               0.000027727              -0.001476021               0.999999984               0.000026810              -0.001500228               0.999999984               0.000025586              -0.001527997               0.999999984               0.000023544              -0.001558482               0.999999984               0.000020565              -0.001591026               0.999999984               0.000016337              -0.001624974               0.999999984               0.000010440              -0.001659745               0.999999984               0.000002344              -0.001694819               0.999999985              -0.000008505              -0.001729448               0.999999985              -0.000022859              -0.001762934               0.999999985              -0.000041902              -0.001794695               0.999999985              -0.000067290              -0.001823956               0.999999985              -0.000000000              -0.001401677               0.999999984              -0.000000000              -0.001430676               0.999999984               0.000000000              -0.001444254               0.999999984              -0.000000000              -0.001457241               0.999999984               0.000000000              -0.001473649               0.999999984               0.000000000              -0.001494475               0.999999984              -0.000000000              -0.001519556               0.999999984              -0.000000000              -0.001548243               0.999999984              -0.000000000              -0.001579796               0.999999984              -0.000000000              -0.001613582               0.999999984              -0.000000000              -0.001648864               0.999999984              -0.000000000              -0.001685136               0.999999984              -0.000000000              -0.001721944               0.999999985               0.000000000              -0.001758601               0.999999985               0.000000000              -0.001794448               0.999999985              -0.000000000              -0.001828681               0.999999985              -0.000000000              -0.001860300               0.999999985               0.000827488               0.000000000               0.999999984               0.000878821               0.000000000               0.999999984               0.000900856               0.000000000               0.999999984               0.000913094              -0.000000000               0.999999984               0.000922823               0.000000000               0.999999984               0.000932664               0.000000000               0.999999984               0.000943653               0.000000000               0.999999984               0.000955867               0.000000000               0.999999984               0.000969279               0.000000000               0.999999984               0.000983739               0.000000000               0.999999984               0.000998885              -0.000000000               0.999999984               0.001014192               0.000000000               0.999999984               0.001029191               0.000000000               0.999999984               0.001043388               0.000000000               0.999999984               0.001056096               0.000000000               0.999999984               0.001066569               0.000000000               0.999999984               0.001074010               0.000000000               0.999999984               0.000823020               0.000133299               0.999999984               0.000870231               0.000107248               0.999999984               0.000889674               0.000095426               0.999999984               0.000900275               0.000090708               0.999999984               0.000908825               0.000089595               0.999999984               0.000917776               0.000090329               0.999999984               0.000927969               0.000091743               0.999999984               0.000939562               0.000093374               0.999999984               0.000952212               0.000094759               0.999999984               0.000965637               0.000095593               0.999999984               0.000979537               0.000095338               0.999999984               0.000993349               0.000093663               0.999999984               0.001006587               0.000090197               0.999999984               0.001018727               0.000084360               0.999999984               0.001029128               0.000075694               0.999999984               0.001037228               0.000063081               0.999999984               0.001042402               0.000045494               0.999999984               0.000809516               0.000265491               0.999999984               0.000844804               0.000213925               0.999999984               0.000856886               0.000191605               0.999999984               0.000862908               0.000183204               0.999999984               0.000868458               0.000181845               0.999999984               0.000875273               0.000183830               0.999999984               0.000883588               0.000187137               0.999999984               0.000893170               0.000190500               0.999999984               0.000903574               0.000193343               0.999999984               0.000914248               0.000194933               0.999999984               0.000924535               0.000194369               0.999999984               0.000934004               0.000191062               0.999999984               0.000942190               0.000184317               0.999999984               0.000948558               0.000173418               0.999999984               0.000952720               0.000157383               0.999999984               0.000954346               0.000134926               0.999999984               0.000953333               0.000104676               0.999999984               0.000787214               0.000395365               0.999999984               0.000803757               0.000319767               0.999999984               0.000805115               0.000289125               0.999999984               0.000804887               0.000278974               0.999999984               0.000806681               0.000278659               0.999999984               0.000810767               0.000282769               0.999999984               0.000816586               0.000288339               0.999999984               0.000823326               0.000293669               0.999999984               0.000830221               0.000297994               0.999999984               0.000836508               0.000300206               0.999999984               0.000841621               0.000299119               0.999999984               0.000845019               0.000294127               0.999999984               0.000846147               0.000284469               0.999999984               0.000844691               0.000269325               0.999999984               0.000840506               0.000248145               0.999999984               0.000833674               0.000219884               0.999999984               0.000824612               0.000183923               0.999999984               0.000756569               0.000521660               0.999999984               0.000748956               0.000424749               0.999999984               0.000738311               0.000388594               0.999999984               0.000732080               0.000378656               0.999999984               0.000730451               0.000380689               0.999999984               0.000731989               0.000387548               0.999999984               0.000735193               0.000395686               0.999999984               0.000738687               0.000403133               0.999999984               0.000741474               0.000408554               0.999999984               0.000742630               0.000410922               0.999999984               0.000741405               0.000409039               0.999999984               0.000737362               0.000402335               0.999999984               0.000730241               0.000390140               0.999999984               0.000720009               0.000371929               0.999999984               0.000706789               0.000347546               0.999999984               0.000691019               0.000316960               0.999999984               0.000673331               0.000280443               0.999999984               0.000717967               0.000643268               0.999999984               0.000683265               0.000528897               0.999999984               0.000661646               0.000490093               0.999999984               0.000650971               0.000482013               0.999999984               0.000647291               0.000487074               0.999999984               0.000647032               0.000496856               0.999999984               0.000647725               0.000507516               0.999999984               0.000647720               0.000516542               0.999999984               0.000645747               0.000522842               0.999999984               0.000640847               0.000524857               0.999999984               0.000632552               0.000521695               0.999999984               0.000620519               0.000513082               0.999999984               0.000604684               0.000498702               0.999999984               0.000585269               0.000478329               0.999999984               0.000562659               0.000452468               0.999999984               0.000537574               0.000421739               0.999999985               0.000510791               0.000387139               0.999999985               0.000672301               0.000758993               0.999999984               0.000610155               0.000632210               0.999999984               0.000580296               0.000593155               0.999999984               0.000567733               0.000587791               0.999999984               0.000563449               0.000595893               0.999999984               0.000561983               0.000608359               0.999999984               0.000560239               0.000620920               0.999999984               0.000556200               0.000631108               0.999999984               0.000548877               0.000637523               0.999999984               0.000537413               0.000638739               0.999999984               0.000521347               0.000634042               0.999999984               0.000500484               0.000623670               0.999999984               0.000475043               0.000607515               0.999999984               0.000445643               0.000586053               0.999999985               0.000413124               0.000560093               0.999999985               0.000378403               0.000530607               0.999999985               0.000342440               0.000499164               0.999999985               0.000620570               0.000867585               0.999999984               0.000533080               0.000734528               0.999999984               0.000498801               0.000696901               0.999999984               0.000487031               0.000694177               0.999999984               0.000483290               0.000704785               0.999999984               0.000480898               0.000719386               0.999999984               0.000476474               0.000733224               0.999999984               0.000468246               0.000743672               0.999999984               0.000455042               0.000749554               0.999999984               0.000436053               0.000749565               0.999999984               0.000410945               0.000743315               0.999999984               0.000379971               0.000731494               0.999999984               0.000343864               0.000714529               0.999999985               0.000303805               0.000693060               0.999999985               0.000260977               0.000668320               0.999999985               0.000216617               0.000641616               0.999999985               0.000171515               0.000614307               0.999999985               0.000564421               0.000967097               0.999999984               0.000454799               0.000835653               0.999999984               0.000421264               0.000799801               0.999999984               0.000412039               0.000799027               0.999999984               0.000409493               0.000811568               0.999999984               0.000406270               0.000827477               0.999999984               0.000398983               0.000841824               0.999999984               0.000385839               0.000852001               0.999999984               0.000365639               0.000856944               0.999999984               0.000337723               0.000855533               0.999999984               0.000302148               0.000847991               0.999999984               0.000259842               0.000835321               0.999999985               0.000212270               0.000818325               0.999999985               0.000161083               0.000798161               0.999999985               0.000107777               0.000776219               0.999999985               0.000053506               0.000753659               0.999999985              -0.000000864               0.000731104               0.999999985               0.000506346               0.001061271               0.999999984               0.000389391               0.000948715               0.999999984               0.000352950               0.000908757               0.999999984               0.000342894               0.000902406               0.999999984               0.000340534               0.000910989               0.999999984               0.000338589               0.000925201               0.999999984               0.000333431               0.000940127               0.999999984               0.000323098               0.000952979               0.999999984               0.000306970               0.000962315               0.999999984               0.000283899               0.000967359               0.999999984               0.000253263               0.000967683               0.999999984               0.000215425               0.000963565               0.999999985               0.000171461               0.000955795               0.999999985               0.000122680               0.000944927               0.999999985               0.000070461               0.000932005               0.999999985               0.000016123               0.000917867               0.999999985              -0.000039013               0.000903442               0.999999985               0.000442986               0.001146978               0.999999984               0.000326868               0.001058076               0.999999984               0.000287801               0.001020467               0.999999984               0.000275938               0.001011140               0.999999984               0.000272903               0.001016869               0.999999984               0.000271470               0.001029854               0.999999984               0.000267850               0.001045265               0.999999984               0.000260139               0.001060337               0.999999984               0.000247250               0.001073674               0.999999984               0.000228462               0.001084256               0.999999984               0.000202890               0.001091407               0.999999984               0.000170061               0.001094873               0.999999984               0.000130435               0.001095125               0.999999985               0.000084879               0.001092654               0.999999985               0.000034469               0.001088004               0.999999985              -0.000019436               0.001081970               0.999999985              -0.000075337               0.001075363               0.999999985               0.000375609               0.001222092               0.999999984               0.000267224               0.001160422               0.999999984               0.000227356               0.001129949               0.999999984               0.000213526               0.001121070               0.999999984               0.000209233               0.001125673               0.999999984               0.000207619               0.001138124               0.999999984               0.000205061               0.001154353               0.999999984               0.000199271               0.001171786               0.999999984               0.000189251               0.001188839               0.999999984               0.000174240               0.001204557               0.999999984               0.000153355               0.001218054               0.999999984               0.000125768               0.001228814               0.999999984               0.000091055               0.001236674               0.999999985               0.000049647               0.001241842               0.999999985               0.000002099               0.001244856               0.999999985              -0.000050835               0.001246324               0.999999985              -0.000107770               0.001247120               0.999999985               0.000304762               0.001285314               0.999999984               0.000210390               0.001251486               0.999999984               0.000172486               0.001231613               0.999999984               0.000157568               0.001226250               0.999999984               0.000152068               0.001231872               0.999999984               0.000149942               0.001244888               0.999999984               0.000147792               0.001262429               0.999999984               0.000143390               0.001282443               0.999999984               0.000135790               0.001303385               0.999999984               0.000124208               0.001324037               0.999999984               0.000107682               0.001343614               0.999999984               0.000085371               0.001361336               0.999999984               0.000056394               0.001376804               0.999999984               0.000020372               0.001389783               0.999999985              -0.000022836               0.001400544               0.999999985              -0.000073399               0.001409563               0.999999985              -0.000130825               0.001417634               0.999999985               0.000231089               0.001335599               0.999999984               0.000155906               0.001327087               0.999999984               0.000123278               0.001319241               0.999999984               0.000109049               0.001319619               0.999999984               0.000103110               0.001328086               0.999999984               0.000100505               0.001343006               0.999999984               0.000098428               0.001362673               0.999999984               0.000095132               0.001385410               0.999999984               0.000089525               0.001409966               0.999999984               0.000080958               0.001435316               0.999999984               0.000068643               0.001460596               0.999999984               0.000051704               0.001485021               0.999999984               0.000029057               0.001508104               0.999999984              -0.000000046               0.001529338               0.999999985              -0.000036598               0.001548509               0.999999985              -0.000081723               0.001565648               0.999999985              -0.000136094               0.001581249               0.999999985               0.000155281               0.001372137               0.999999984               0.000103083               0.001383774               0.999999984               0.000079045               0.001386892               0.999999984               0.000067869               0.001393366               0.999999984               0.000062649               0.001405614               0.999999984               0.000060076               0.001423315               0.999999984               0.000058400               0.001445440               0.999999984               0.000056125               0.001470922               0.999999984               0.000052268               0.001498760               0.999999984               0.000046420               0.001528214               0.999999984               0.000038179               0.001558499               0.999999984               0.000026653               0.001588955               0.999999984               0.000011013               0.001619024               0.999999985              -0.000009684               0.001648057               0.999999985              -0.000036635               0.001675474               0.999999985              -0.000071335               0.001700807               0.999999985              -0.000115687               0.001723981               0.999999985               0.000078012               0.001394285               0.999999984               0.000051302               0.001418844               0.999999984               0.000038551               0.001429630               0.999999984               0.000032385               0.001440805               0.999999984               0.000029232               0.001456080               0.999999984               0.000027727               0.001476021               0.999999984               0.000026810               0.001500228               0.999999984               0.000025586               0.001527997               0.999999984               0.000023544               0.001558482               0.999999984               0.000020565               0.001591026               0.999999984               0.000016337               0.001624974               0.999999984               0.000010440               0.001659745               0.999999984               0.000002344               0.001694819               0.999999985              -0.000008505               0.001729448               0.999999985              -0.000022859               0.001762934               0.999999985              -0.000041902               0.001794695               0.999999985              -0.000067290               0.001823956               0.999999985              -0.000000000               0.001401677               0.999999984              -0.000000000               0.001430676               0.999999984              -0.000000000               0.001444254               0.999999984               0.000000000               0.001457241               0.999999984              -0.000000000               0.001473649               0.999999984              -0.000000000               0.001494475               0.999999984               0.000000000               0.001519556               0.999999984               0.000000000               0.001548243               0.999999984              -0.000000000               0.001579796               0.999999984              -0.000000000               0.001613582               0.999999984              -0.000000000               0.001648864               0.999999984              -0.000000000               0.001685136               0.999999984               0.000000000               0.001721944               0.999999985               0.000000000               0.001758601               0.999999985              -0.000000000               0.001794448               0.999999985               0.000000000               0.001828681               0.999999985               0.000000000               0.001860300               0.999999985 </DataArray>
<DataArray type="Float64"                                    Name="stress"                                                      NumberOfComponents="10" format="ascii">
              0.002251214               0.024282076              -0.000000000              -0.002191049               0.008824294               0.006633245               0.000000000               0.000000000               0.000000000               0.000000000               0.002184772               0.018795867              -0.000000000              -0.001530190               0.006775290               0.005245100               0.000000000               0.000000000               0.000000000               0.000000000               0.002827640               0.014320308              -0.000000000              -0.000729672               0.005016612               0.004286941               0.000000000               0.000000000               0.000000000               0.000000000               0.002644677               0.011781135               0.000000000              -0.000480887               0.004087301               0.003606414               0.000000000               0.000000000               0.000000000               0.000000000               0.002228767               0.010172663               0.000000000              -0.000435794               0.003536119               0.003100324               0.000000000               0.000000000               0.000000000               0.000000000               0.001775396               0.009050984               0.000000000              -0.000465598               0.003172164               0.002706566               0.000000000               0.000000000               0.000000000               0.000000000               0.001350225               0.008195213               0.000000000              -0.000518066               0.002904399               0.002386333               0.000000000               0.000000000               0.000000000               0.000000000               0.000980971               0.007501697               0.000000000              -0.000569847               0.002690490               0.002120643               0.000000000               0.000000000               0.000000000               0.000000000               0.000661191               0.006902351               0.000000000              -0.000614846               0.002505709               0.001890863               0.000000000               0.000000000               0.000000000               0.000000000               0.000388928               0.006354796              -0.000000000              -0.000648500               0.002334411               0.001685911               0.000000000               0.000000000               0.000000000               0.000000000               0.000173553               0.005826429              -0.000000000              -0.000663219               0.002163197               0.001499977               0.000000000               0.000000000               0.000000000               0.000000000               0.000015500               0.005296281              -0.000000000              -0.000656221               0.001984150               0.001327929               0.000000000               0.000000000               0.000000000               0.000000000              -0.000093584               0.004744240              -0.000000000              -0.000628122               0.001790772               0.001162649               0.000000000               0.000000000               0.000000000               0.000000000              -0.000147949               0.004152603               0.000000000              -0.000574555               0.001575706               0.001001151               0.000000000               0.000000000               0.000000000               0.000000000              -0.000142711               0.003504706               0.000000000              -0.000491604               0.001332092               0.000840488               0.000000000               0.000000000               0.000000000               0.000000000              -0.000085091               0.002765520              -0.000000000              -0.000377598               0.001047697               0.000670099               0.000000000               0.000000000               0.000000000               0.000000000              -0.000106069               0.002192442               0.000000000              -0.000313830               0.000835417               0.000521586               0.000000000               0.000000000               0.000000000               0.000000000               0.002330167               0.023779933              -0.001635821              -0.002098674               0.008626123               0.006527449               0.000000000               0.000000000               0.000000000               0.000000000               0.002130081               0.018467015              -0.000776677              -0.001509593               0.006658808               0.005149215               0.000000000               0.000000000               0.000000000               0.000000000               0.002633451               0.014184385               0.000071872              -0.000785502               0.004989915               0.004204413               0.000000000               0.000000000               0.000000000               0.000000000               0.002399678               0.011746663               0.000424285              -0.000568453               0.004104999               0.003536547               0.000000000               0.000000000               0.000000000               0.000000000               0.001974370               0.010193371               0.000564275              -0.000533782               0.003575684               0.003041902               0.000000000               0.000000000               0.000000000               0.000000000               0.001530357               0.009099171               0.000606168              -0.000563511               0.003220864               0.002657352               0.000000000               0.000000000               0.000000000               0.000000000               0.001120957               0.008258017               0.000605364              -0.000611892               0.002956609               0.002344717               0.000000000               0.000000000               0.000000000               0.000000000               0.000770969               0.007566677               0.000587827              -0.000656720               0.002741107               0.002084387               0.000000000               0.000000000               0.000000000               0.000000000               0.000482516               0.006969455               0.000563479              -0.000690237               0.002553207               0.001862971               0.000000000               0.000000000               0.000000000               0.000000000               0.000243932               0.006422081               0.000533692              -0.000711284               0.002377767               0.001666483               0.000000000               0.000000000               0.000000000               0.000000000               0.000058442               0.005894060               0.000500065              -0.000714840               0.002202947               0.001488107               0.000000000               0.000000000               0.000000000               0.000000000              -0.000072656               0.005367226               0.000463545              -0.000698148               0.002021774               0.001323626               0.000000000               0.000000000               0.000000000               0.000000000              -0.000154534               0.004825035               0.000418452              -0.000661078               0.001828688               0.001167610               0.000000000               0.000000000               0.000000000               0.000000000              -0.000182912               0.004255712               0.000361252              -0.000600555               0.001618741               0.001018187               0.000000000               0.000000000               0.000000000               0.000000000              -0.000160010               0.003642711               0.000279076              -0.000515341               0.001386005               0.000870664               0.000000000               0.000000000               0.000000000               0.000000000              -0.000093265               0.002965334               0.000158795              -0.000405640               0.001123648               0.000718008               0.000000000               0.000000000               0.000000000               0.000000000              -0.000105107               0.002453446               0.000099913              -0.000346095               0.000933172               0.000587077               0.000000000               0.000000000               0.000000000               0.000000000               0.002509111               0.022334196              -0.003033020              -0.001850855               0.008061609               0.006210754               0.000000000               0.000000000               0.000000000               0.000000000               0.001951672               0.017538261              -0.001433023              -0.001460403               0.006332829               0.004872427               0.000000000               0.000000000               0.000000000               0.000000000               0.002077191               0.013801853               0.000132851              -0.000946283               0.004915999               0.003969716               0.000000000               0.000000000               0.000000000               0.000000000               0.001708484               0.011646824               0.000759129              -0.000815170               0.004153959               0.003338789               0.000000000               0.000000000               0.000000000               0.000000000               0.001260661               0.010238714               0.000993443              -0.000807090               0.003681901               0.002874811               0.000000000               0.000000000               0.000000000               0.000000000               0.000850317               0.009216725               0.001055640              -0.000833220               0.003349951               0.002516731               0.000000000               0.000000000               0.000000000               0.000000000               0.000504351               0.008410371               0.001044959              -0.000862163               0.003090817               0.002228654               0.000000000               0.000000000               0.000000000               0.000000000               0.000224723               0.007730678               0.001011176              -0.000882062               0.002870887               0.001988826               0.000000000               0.000000000               0.000000000               0.000000000               0.000012790               0.007136173               0.000969011              -0.000887223               0.002674442               0.001787218               0.000000000               0.000000000               0.000000000               0.000000000              -0.000137594               0.006588706               0.000914750              -0.000875184               0.002487941               0.001612757               0.000000000               0.000000000               0.000000000               0.000000000              -0.000236837               0.006062038               0.000851933              -0.000846567               0.002302848               0.001456281               0.000000000               0.000000000               0.000000000               0.000000000              -0.000291404               0.005544378               0.000782034              -0.000802322               0.002115548               0.001313226               0.000000000               0.000000000               0.000000000               0.000000000              -0.000299888               0.005028652               0.000698772              -0.000741038               0.001923213               0.001182175               0.000000000               0.000000000               0.000000000               0.000000000              -0.000265557               0.004510745               0.000593894              -0.000663426               0.001724708               0.001061283               0.000000000               0.000000000               0.000000000               0.000000000              -0.000195559               0.003989482               0.000449934              -0.000572018               0.001520487               0.000948468               0.000000000               0.000000000               0.000000000               0.000000000              -0.000101270               0.003466594               0.000251908              -0.000471299               0.001312619               0.000841320               0.000000000               0.000000000               0.000000000               0.000000000              -0.000089209               0.003103221               0.000153443              -0.000421355               0.001174848               0.000753493               0.000000000               0.000000000               0.000000000               0.000000000               0.002664783               0.020126407              -0.004011242              -0.001516506               0.007214237               0.005697730               0.000000000               0.000000000               0.000000000               0.000000000               0.001615384               0.016156921              -0.001891602              -0.001413844               0.005856868               0.004443024               0.000000000               0.000000000               0.000000000               0.000000000               0.001220722               0.013241760               0.000151538              -0.001197446               0.004813025               0.003615578               0.000000000               0.000000000               0.000000000               0.000000000               0.000696977               0.011482835               0.000918776              -0.001173985               0.004218902               0.003044916               0.000000000               0.000000000               0.000000000               0.000000000               0.000251996               0.010268299               0.001184447              -0.001189036               0.003819077               0.002630041               0.000000000               0.000000000               0.000000000               0.000000000              -0.000083109               0.009337521               0.001243366              -0.001198353               0.003511927               0.002313573               0.000000000               0.000000000               0.000000000               0.000000000              -0.000320624               0.008572782               0.001219772              -0.001191829               0.003254842               0.002063013               0.000000000               0.000000000               0.000000000               0.000000000              -0.000478472               0.007914186               0.001172537              -0.001168698               0.003027601               0.001858904               0.000000000               0.000000000               0.000000000               0.000000000              -0.000570984               0.007319205               0.001117959              -0.001129017               0.002816049               0.001687032               0.000000000               0.000000000               0.000000000               0.000000000              -0.000608845               0.006764239               0.001047310              -0.001073845               0.002612672               0.001538827               0.000000000               0.000000000               0.000000000               0.000000000              -0.000603908               0.006236350               0.000965258              -0.001006007               0.002414098               0.001408091               0.000000000               0.000000000               0.000000000               0.000000000              -0.000556879               0.005734054               0.000874411              -0.000925584               0.002219860               0.001294276               0.000000000               0.000000000               0.000000000               0.000000000              -0.000472643               0.005255944               0.000764912              -0.000834232               0.002030041               0.001195809               0.000000000               0.000000000               0.000000000               0.000000000              -0.000362729               0.004804143               0.000632527              -0.000736539               0.001846878               0.001110339               0.000000000               0.000000000               0.000000000               0.000000000              -0.000237463               0.004391986               0.000464622              -0.000638045               0.001676662               0.001038617               0.000000000               0.000000000               0.000000000               0.000000000              -0.000113223               0.004037664               0.000250573              -0.000547165               0.001528263               0.000981098               0.000000000               0.000000000               0.000000000               0.000000000              -0.000075656               0.003827377               0.000144279              -0.000506792               0.001444710               0.000937918               0.000000000               0.000000000               0.000000000               0.000000000               0.002654037               0.017426884              -0.004475919              -0.001183097               0.006203268               0.005020171               0.000000000               0.000000000               0.000000000               0.000000000               0.001095132               0.014505331              -0.002134177              -0.001402490               0.005302558               0.003900069               0.000000000               0.000000000               0.000000000               0.000000000               0.000159105               0.012572498               0.000082842              -0.001511894               0.004694755               0.003182861               0.000000000               0.000000000               0.000000000               0.000000000              -0.000460158               0.011244068               0.000855627              -0.001578064               0.004274007               0.002695943               0.000000000               0.000000000               0.000000000               0.000000000              -0.000833064               0.010224686               0.001100142              -0.001590481               0.003938355               0.002347874               0.000000000               0.000000000               0.000000000               0.000000000              -0.001040036               0.009380057               0.001143861              -0.001562517               0.003647493               0.002084976               0.000000000               0.000000000               0.000000000               0.000000000              -0.001133842               0.008655125               0.001116035              -0.001507078               0.003387372               0.001880294               0.000000000               0.000000000               0.000000000               0.000000000              -0.001150166               0.008008212               0.001066355              -0.001432335               0.003146822               0.001714487               0.000000000               0.000000000               0.000000000               0.000000000              -0.001109298               0.007413474               0.001008340              -0.001342668               0.002918689               0.001576021               0.000000000               0.000000000               0.000000000               0.000000000              -0.001022789               0.006853276               0.000936828              -0.001240203               0.002697803               0.001457601               0.000000000               0.000000000               0.000000000               0.000000000              -0.000902125               0.006329284               0.000854067              -0.001129455               0.002486225               0.001356770               0.000000000               0.000000000               0.000000000               0.000000000              -0.000755681               0.005846653               0.000760390              -0.001014210               0.002286935               0.001272725               0.000000000               0.000000000               0.000000000               0.000000000              -0.000592994               0.005409458               0.000645925              -0.000898553               0.002102652               0.001204099               0.000000000               0.000000000               0.000000000               0.000000000              -0.000423876               0.005025425               0.000512356              -0.000787130               0.001937501               0.001150372               0.000000000               0.000000000               0.000000000               0.000000000              -0.000262149               0.004708237               0.000359449              -0.000686834               0.001798341               0.001111507               0.000000000               0.000000000               0.000000000               0.000000000              -0.000123037               0.004477417               0.000185567              -0.000605815               0.001694396               0.001088581               0.000000000               0.000000000               0.000000000               0.000000000              -0.000072177               0.004365615               0.000101732              -0.000572767               0.001646113               0.001073346               0.000000000               0.000000000               0.000000000               0.000000000               0.002340208               0.014511907              -0.004448158              -0.000936412               0.005149390               0.004212978               0.000000000               0.000000000               0.000000000               0.000000000               0.000389306               0.012754130              -0.002202608              -0.001448274               0.004734092               0.003285817               0.000000000               0.000000000               0.000000000               0.000000000              -0.000976380               0.011837983              -0.000106148              -0.001845886               0.004561250               0.002715364               0.000000000               0.000000000               0.000000000               0.000000000              -0.001580998               0.010909899               0.000573940              -0.001956607               0.004288799               0.002332192               0.000000000               0.000000000               0.000000000               0.000000000              -0.001810160               0.010054201               0.000778572              -0.001935580               0.003996560               0.002060980               0.000000000               0.000000000               0.000000000               0.000000000              -0.001842581               0.009282769               0.000818788              -0.001851309               0.003711328               0.001860019               0.000000000               0.000000000               0.000000000               0.000000000              -0.001773920               0.008585570               0.000804202              -0.001738412               0.003441299               0.001702887               0.000000000               0.000000000               0.000000000               0.000000000              -0.001648467               0.007946421               0.000774063              -0.001611474               0.003185938               0.001574465               0.000000000               0.000000000               0.000000000               0.000000000              -0.001478345               0.007356358               0.000731546              -0.001473921               0.002943402               0.001469481               0.000000000               0.000000000               0.000000000               0.000000000              -0.001280991               0.006801105               0.000670698              -0.001330506               0.002710514               0.001380008               0.000000000               0.000000000               0.000000000               0.000000000              -0.001066493               0.006290717               0.000602091              -0.001186271               0.002492308               0.001306037               0.000000000               0.000000000               0.000000000               0.000000000              -0.000841333               0.005838648               0.000524871              -0.001045328               0.002294639               0.001249311               0.000000000               0.000000000               0.000000000               0.000000000              -0.000622369               0.005448312               0.000430487              -0.000914425               0.002120894               0.001206469               0.000000000               0.000000000               0.000000000               0.000000000              -0.000418569               0.005130682               0.000324562              -0.000798297               0.001976309               0.001178012               0.000000000               0.000000000               0.000000000               0.000000000              -0.000242966               0.004892531               0.000213546              -0.000702677               0.001865053               0.001162376               0.000000000               0.000000000               0.000000000               0.000000000              -0.000108827               0.004738688               0.000103300              -0.000633144               0.001790595               0.001157451               0.000000000               0.000000000               0.000000000               0.000000000              -0.000059104               0.004676565               0.000054093              -0.000606733               0.001761084               0.001154351               0.000000000               0.000000000               0.000000000               0.000000000               0.001662197               0.011627421              -0.004018277              -0.000830105               0.004152469               0.003322364               0.000000000               0.000000000               0.000000000               0.000000000              -0.000462886               0.011046538              -0.002154343              -0.001554397               0.004200274               0.002645877               0.000000000               0.000000000               0.000000000               0.000000000              -0.002064675               0.011065243              -0.000417028              -0.002157403               0.004407512               0.002250109               0.000000000               0.000000000               0.000000000               0.000000000              -0.002527795               0.010464047               0.000128037              -0.002255923               0.004239955               0.001984032               0.000000000               0.000000000               0.000000000               0.000000000              -0.002553347               0.009738236               0.000311019              -0.002174779               0.003970973               0.001796193               0.000000000               0.000000000               0.000000000               0.000000000              -0.002398632               0.009027313               0.000372179              -0.002027896               0.003685040               0.001657143               0.000000000               0.000000000               0.000000000               0.000000000              -0.002169013               0.008354956               0.000391520              -0.001857745               0.003404206               0.001546461               0.000000000               0.000000000               0.000000000               0.000000000              -0.001909427               0.007726201               0.000394556              -0.001681806               0.003135976               0.001454170               0.000000000               0.000000000               0.000000000               0.000000000              -0.001634119               0.007140811               0.000380519              -0.001505392               0.002882044               0.001376652               0.000000000               0.000000000               0.000000000               0.000000000              -0.001346450               0.006604662               0.000346396              -0.001330498               0.002645032               0.001314533               0.000000000               0.000000000               0.000000000               0.000000000              -0.001058812               0.006129761               0.000310503              -0.001163272               0.002430990               0.001267719               0.000000000               0.000000000               0.000000000               0.000000000              -0.000782097               0.005727563               0.000269678              -0.001009229               0.002245578               0.001236349               0.000000000               0.000000000               0.000000000               0.000000000              -0.000537034               0.005399144               0.000214523              -0.000876278               0.002091789               0.001215511               0.000000000               0.000000000               0.000000000               0.000000000              -0.000334846               0.005148263               0.000152323              -0.000769098               0.001972436               0.001203338               0.000000000               0.000000000               0.000000000               0.000000000              -0.000180079               0.004975861               0.000088798              -0.000689510               0.001888441               0.001198930               0.000000000               0.000000000               0.000000000               0.000000000              -0.000074295               0.004879997               0.000035456              -0.000637859               0.001839269               0.001201410               0.000000000               0.000000000               0.000000000               0.000000000              -0.000037160               0.004848775               0.000015723              -0.000620030               0.001822919               0.001202889               0.000000000               0.000000000               0.000000000               0.000000000               0.000654544               0.008960642              -0.003292516              -0.000874627               0.003278392               0.002403765               0.000000000               0.000000000               0.000000000               0.000000000              -0.001408017               0.009480600              -0.002039127              -0.001713078               0.003731194               0.002018116               0.000000000               0.000000000               0.000000000               0.000000000              -0.002998665               0.010258635              -0.000830801              -0.002406823               0.004221785               0.001814962               0.000000000               0.000000000               0.000000000               0.000000000              -0.003218469               0.009905082              -0.000404273              -0.002445055               0.004116679               0.001671624               0.000000000               0.000000000               0.000000000               0.000000000              -0.003011915               0.009292805              -0.000209403              -0.002291063               0.003861258               0.001570195               0.000000000               0.000000000               0.000000000               0.000000000              -0.002676797               0.008635658              -0.000104513              -0.002083251               0.003572941               0.001489690               0.000000000               0.000000000               0.000000000               0.000000000              -0.002312095               0.007988715              -0.000041037              -0.001865621               0.003284752               0.001419131               0.000000000               0.000000000               0.000000000               0.000000000              -0.001942846               0.007378549               0.000004736              -0.001650882               0.003009786               0.001358904               0.000000000               0.000000000               0.000000000               0.000000000              -0.001574996               0.006819604               0.000034409              -0.001443070               0.002754202               0.001311132               0.000000000               0.000000000               0.000000000               0.000000000              -0.001215386               0.006320856               0.000046677              -0.001245874               0.002522222               0.001276349               0.000000000               0.000000000               0.000000000               0.000000000              -0.000880427               0.005898830               0.000058398              -0.001067511               0.002322094               0.001254583               0.000000000               0.000000000               0.000000000               0.000000000              -0.000588509               0.005556890               0.000065290              -0.000915300               0.002157378               0.001242078               0.000000000               0.000000000               0.000000000               0.000000000              -0.000356954               0.005293929               0.000054131              -0.000795597               0.002029824               0.001234228               0.000000000               0.000000000               0.000000000               0.000000000              -0.000190128               0.005109836               0.000033039              -0.000710026               0.001939937               0.001229911               0.000000000               0.000000000               0.000000000               0.000000000              -0.000084142               0.005001260               0.000011863              -0.000656709               0.001885973               0.001229264               0.000000000               0.000000000               0.000000000               0.000000000              -0.000028006               0.004956307              -0.000000847              -0.000630039               0.001862099               0.001232060               0.000000000               0.000000000               0.000000000               0.000000000              -0.000011310               0.004947660              -0.000002971              -0.000622697               0.001856769               0.001234072               0.000000000               0.000000000               0.000000000               0.000000000              -0.000554091               0.006703862              -0.002398831              -0.001045766               0.002583186               0.001537420               0.000000000               0.000000000               0.000000000               0.000000000              -0.002331677               0.008074916              -0.001903153              -0.001883739               0.003319524               0.001435785               0.000000000               0.000000000               0.000000000               0.000000000              -0.003722553               0.009445714              -0.001318208              -0.002576665               0.004007428               0.001430763               0.000000000               0.000000000               0.000000000               0.000000000              -0.003682073               0.009352780              -0.000966417              -0.002549869               0.003967518               0.001417650               0.000000000               0.000000000               0.000000000               0.000000000              -0.003286064               0.008879997              -0.000736863              -0.002342268               0.003740725               0.001398457               0.000000000               0.000000000               0.000000000               0.000000000              -0.002809955               0.008298528              -0.000579520              -0.002091044               0.003463163               0.001372119               0.000000000               0.000000000               0.000000000               0.000000000              -0.002337033               0.007702331              -0.000463607              -0.001839174               0.003180476               0.001341302               0.000000000               0.000000000               0.000000000               0.000000000              -0.001883632               0.007137499              -0.000367820              -0.001598546               0.002911991               0.001313445               0.000000000               0.000000000               0.000000000               0.000000000              -0.001442208               0.006616824              -0.000287588              -0.001367928               0.002661562               0.001293634               0.000000000               0.000000000               0.000000000               0.000000000              -0.001027442               0.006156311              -0.000219445              -0.001154827               0.002437025               0.001282199               0.000000000               0.000000000               0.000000000               0.000000000              -0.000664863               0.005778076              -0.000154060              -0.000971580               0.002249866               0.001278286               0.000000000               0.000000000               0.000000000               0.000000000              -0.000378946               0.005475194              -0.000097330              -0.000826502               0.002100547               0.001274045               0.000000000               0.000000000               0.000000000               0.000000000              -0.000176731               0.005245025              -0.000059699              -0.000721900               0.001988958               0.001267057               0.000000000               0.000000000               0.000000000               0.000000000              -0.000050585               0.005094442              -0.000036095              -0.000655773               0.001916721               0.001260949               0.000000000               0.000000000               0.000000000               0.000000000               0.000013958               0.005018953              -0.000019569              -0.000622133               0.001880345               0.001258212               0.000000000               0.000000000               0.000000000               0.000000000               0.000030056               0.004994329              -0.000007612              -0.000613019               0.001869099               0.001256081               0.000000000               0.000000000               0.000000000               0.000000000               0.000026367               0.004991618              -0.000002455              -0.000614063               0.001868544               0.001254481               0.000000000               0.000000000               0.000000000               0.000000000              -0.001963257               0.004604964              -0.001454496              -0.001311839               0.001972252               0.000660413               0.000000000               0.000000000               0.000000000               0.000000000              -0.003104456               0.006442349              -0.001746861              -0.001969460               0.002803914               0.000834454               0.000000000               0.000000000               0.000000000               0.000000000              -0.004143790               0.008237850              -0.001827048              -0.002583646               0.003607137               0.001023491               0.000000000               0.000000000               0.000000000               0.000000000              -0.003964146               0.008538976              -0.001564248              -0.002553921               0.003697604               0.001143683               0.000000000               0.000000000               0.000000000               0.000000000              -0.003494248               0.008335020              -0.001301835              -0.002352215               0.003562384               0.001210169               0.000000000               0.000000000               0.000000000               0.000000000              -0.002967671               0.007948942              -0.001090837              -0.002106489               0.003351784               0.001245294               0.000000000               0.000000000               0.000000000               0.000000000              -0.002454801               0.007498024              -0.000917719              -0.001857799               0.003118582               0.001260784               0.000000000               0.000000000               0.000000000               0.000000000              -0.001972791               0.007043817              -0.000775676              -0.001620270               0.002888005               0.001267735               0.000000000               0.000000000               0.000000000               0.000000000              -0.001514986               0.006615734              -0.000651635              -0.001395083               0.002670250               0.001275167               0.000000000               0.000000000               0.000000000               0.000000000              -0.001080893               0.006226234              -0.000531503              -0.001183611               0.002469928               0.001286317               0.000000000               0.000000000               0.000000000               0.000000000              -0.000694151               0.005883565              -0.000412984              -0.000995750               0.002293085               0.001297336               0.000000000               0.000000000               0.000000000               0.000000000              -0.000379871               0.005598163              -0.000301822              -0.000842220               0.002146776               0.001304556               0.000000000               0.000000000               0.000000000               0.000000000              -0.000150617               0.005367498              -0.000206990              -0.000727417               0.002031620               0.001304203               0.000000000               0.000000000               0.000000000               0.000000000              -0.000005290               0.005193263              -0.000128978              -0.000651140               0.001948117               0.001296977               0.000000000               0.000000000               0.000000000               0.000000000               0.000067611               0.005078957              -0.000065992              -0.000609514               0.001896140               0.001286626               0.000000000               0.000000000               0.000000000               0.000000000               0.000087380               0.005020457              -0.000022677              -0.000594788               0.001871732               0.001276944               0.000000000               0.000000000               0.000000000               0.000000000               0.000082247               0.005003634              -0.000005264              -0.000594610               0.001866065               0.001271454               0.000000000               0.000000000               0.000000000               0.000000000              -0.003755201               0.002704926              -0.000527026              -0.001746313               0.001483736              -0.000262577               0.000000000               0.000000000               0.000000000               0.000000000              -0.003973438               0.004797133              -0.001518626              -0.002089676               0.002295586               0.000205910               0.000000000               0.000000000               0.000000000               0.000000000              -0.004469559               0.006820922              -0.002230611              -0.002528694               0.003116515               0.000587821               0.000000000               0.000000000               0.000000000               0.000000000              -0.004166323               0.007494146              -0.002129648              -0.002499134               0.003331068               0.000831934               0.000000000               0.000000000               0.000000000               0.000000000              -0.003657200               0.007605037              -0.001875171              -0.002322075               0.003309011               0.000986937               0.000000000               0.000000000               0.000000000               0.000000000              -0.003112169               0.007461524              -0.001629957              -0.002099749               0.003187066               0.001087317               0.000000000               0.000000000               0.000000000               0.000000000              -0.002579518               0.007197452              -0.001415537              -0.001866996               0.003021458               0.001154462               0.000000000               0.000000000               0.000000000               0.000000000              -0.002076515               0.006896591              -0.001231958              -0.001640763               0.002845761               0.001204998               0.000000000               0.000000000               0.000000000               0.000000000              -0.001607617               0.006593760              -0.001069628              -0.001427073               0.002673589               0.001246516               0.000000000               0.000000000               0.000000000               0.000000000              -0.001163426               0.006293730              -0.000914721              -0.001222998               0.002505555               0.001282557               0.000000000               0.000000000               0.000000000               0.000000000              -0.000750273               0.006002141              -0.000756922              -0.001031617               0.002344566               0.001312949               0.000000000               0.000000000               0.000000000               0.000000000              -0.000390514               0.005739572              -0.000598310              -0.000863887               0.002201134               0.001337247               0.000000000               0.000000000               0.000000000               0.000000000              -0.000109785               0.005509834              -0.000445527              -0.000729897               0.002079892               0.001349995               0.000000000               0.000000000               0.000000000               0.000000000               0.000082719               0.005311512              -0.000303854              -0.000632918               0.001981459               0.001348541               0.000000000               0.000000000               0.000000000               0.000000000               0.000189184               0.005155034              -0.000177392              -0.000573434               0.001909472               0.001336038               0.000000000               0.000000000               0.000000000               0.000000000               0.000219947               0.005053448              -0.000075447              -0.000549200               0.001867532               0.001318333               0.000000000               0.000000000               0.000000000               0.000000000               0.000208500               0.005012117              -0.000028895              -0.000548326               0.001853464               0.001305138               0.000000000               0.000000000               0.000000000               0.000000000              -0.005816967               0.001161476               0.000298615              -0.002326544               0.001162666              -0.001163879               0.000000000               0.000000000               0.000000000               0.000000000              -0.004991407               0.003251626              -0.001201068              -0.002278227               0.001843271              -0.000434955               0.000000000               0.000000000               0.000000000               0.000000000              -0.004739547               0.005215868              -0.002411308              -0.002429308               0.002548374               0.000119065               0.000000000               0.000000000               0.000000000               0.000000000              -0.004227943               0.006138486              -0.002514083              -0.002352784               0.002830402               0.000477618               0.000000000               0.000000000               0.000000000               0.000000000              -0.003659824               0.006535366              -0.002324853              -0.002189350               0.002908216               0.000718866               0.000000000               0.000000000               0.000000000               0.000000000              -0.003100292               0.006646392              -0.002084476              -0.001993404               0.002879909               0.000886505               0.000000000               0.000000000               0.000000000               0.000000000              -0.002562495               0.006603274              -0.001851953              -0.001786341               0.002796516               0.001010175               0.000000000               0.000000000               0.000000000               0.000000000              -0.002055468               0.006487889              -0.001644086              -0.001581783               0.002689869               0.001108086               0.000000000               0.000000000               0.000000000               0.000000000              -0.001575860               0.006338370              -0.001462134              -0.001383241               0.002573849               0.001190608               0.000000000               0.000000000               0.000000000               0.000000000              -0.001122027               0.006161992              -0.001289451              -0.001191006               0.002450979               0.001259972               0.000000000               0.000000000               0.000000000               0.000000000              -0.000695220               0.005962892              -0.001112150              -0.001006067               0.002322966               0.001316899               0.000000000               0.000000000               0.000000000               0.000000000              -0.000303661               0.005756442              -0.000925170              -0.000833426               0.002196603               0.001363177               0.000000000               0.000000000               0.000000000               0.000000000               0.000027232               0.005551064              -0.000733168              -0.000683669               0.002078226               0.001394557               0.000000000               0.000000000               0.000000000               0.000000000               0.000279648               0.005359965              -0.000540872              -0.000565126               0.001975013               0.001409886               0.000000000               0.000000000               0.000000000               0.000000000               0.000442337               0.005197969              -0.000348113              -0.000483869               0.001893928               0.001410060               0.000000000               0.000000000               0.000000000               0.000000000               0.000504679               0.005078867              -0.000165171              -0.000445603               0.001841473               0.001395870               0.000000000               0.000000000               0.000000000               0.000000000               0.000495517               0.005024916              -0.000074871              -0.000442294               0.001822387               0.001380092               0.000000000               0.000000000               0.000000000               0.000000000              -0.008003235               0.000052877               0.000898983              -0.003007820               0.001020225              -0.001987595               0.000000000               0.000000000               0.000000000               0.000000000              -0.006101483               0.001885983              -0.000842049              -0.002523800               0.001469917              -0.001053883               0.000000000               0.000000000               0.000000000               0.000000000              -0.004980783               0.003556856              -0.002335673              -0.002312397               0.001956403              -0.000355993               0.000000000               0.000000000               0.000000000               0.000000000              -0.004173175               0.004593944              -0.002624722              -0.002139179               0.002244358               0.000105178               0.000000000               0.000000000               0.000000000               0.000000000              -0.003508359               0.005211695              -0.002536780              -0.001967093               0.002392911               0.000425818               0.000000000               0.000000000               0.000000000               0.000000000              -0.002927475               0.005560321              -0.002340405              -0.001792840               0.002451034               0.000658194               0.000000000               0.000000000               0.000000000               0.000000000              -0.002394367               0.005745556              -0.002121142              -0.001616079               0.002453859               0.000837779               0.000000000               0.000000000               0.000000000               0.000000000              -0.001890292               0.005831145              -0.001914581              -0.001437750               0.002422945               0.000985195               0.000000000               0.000000000               0.000000000               0.000000000              -0.001414829               0.005845316              -0.001731392              -0.001261223               0.002368827               0.001107603               0.000000000               0.000000000               0.000000000               0.000000000              -0.000960577               0.005807310              -0.001557692              -0.001086128               0.002297793               0.001211665               0.000000000               0.000000000               0.000000000               0.000000000              -0.000523567               0.005725487              -0.001380955              -0.000912022               0.002212484               0.001300462               0.000000000               0.000000000               0.000000000               0.000000000              -0.000105519               0.005610220              -0.001191846              -0.000740846               0.002117003               0.001376157               0.000000000               0.000000000               0.000000000               0.000000000               0.000279536               0.005473736              -0.000989475              -0.000579390               0.002017690               0.001438300               0.000000000               0.000000000               0.000000000               0.000000000               0.000610147               0.005330451              -0.000773359              -0.000437500               0.001922633               0.001485132               0.000000000               0.000000000               0.000000000               0.000000000               0.000863496               0.005197728              -0.000533005              -0.000325905               0.001841194               0.001515289               0.000000000               0.000000000               0.000000000               0.000000000               0.001015016               0.005090889              -0.000271337              -0.000255729               0.001782189               0.001526460               0.000000000               0.000000000               0.000000000               0.000000000               0.001057854               0.005043342              -0.000136762              -0.000233722               0.001759004               0.001525283               0.000000000               0.000000000               0.000000000               0.000000000              -0.010097437              -0.000643798               0.001165139              -0.003706062               0.001020747              -0.002685314               0.000000000               0.000000000               0.000000000               0.000000000              -0.007205425               0.000778996              -0.000508211              -0.002799406               0.001192792              -0.001606614               0.000000000               0.000000000               0.000000000               0.000000000              -0.005205535               0.002016597              -0.002004182              -0.002204147               0.001406904              -0.000797243               0.000000000               0.000000000               0.000000000               0.000000000              -0.004044006               0.003046906              -0.002398726              -0.001897362               0.001648077              -0.000249285               0.000000000               0.000000000               0.000000000               0.000000000              -0.003249744               0.003803787              -0.002406791              -0.001694124               0.001832623               0.000138499               0.000000000               0.000000000               0.000000000               0.000000000              -0.002631115               0.004345099              -0.002279113              -0.001529803               0.001958285               0.000428482               0.000000000               0.000000000               0.000000000               0.000000000              -0.002093865               0.004726636              -0.002108010              -0.001376027               0.002034204               0.000658178               0.000000000               0.000000000               0.000000000               0.000000000              -0.001599876               0.004988810              -0.001930875              -0.001223553               0.002070770               0.000847218               0.000000000               0.000000000               0.000000000               0.000000000              -0.001138791               0.005162726              -0.001765120              -0.001072385               0.002078353               0.001005967               0.000000000               0.000000000               0.000000000               0.000000000              -0.000694073               0.005270160              -0.001611319              -0.000919046               0.002063051               0.001144005               0.000000000               0.000000000               0.000000000               0.000000000              -0.000251746               0.005320721              -0.001457752              -0.000759494               0.002026720               0.001267227               0.000000000               0.000000000               0.000000000               0.000000000               0.000190589               0.005328575              -0.001292136              -0.000594600               0.001974374               0.001379774               0.000000000               0.000000000               0.000000000               0.000000000               0.000629196               0.005300594              -0.001110149              -0.000426625               0.001909055               0.001482430               0.000000000               0.000000000               0.000000000               0.000000000               0.001048687               0.005240066              -0.000903810              -0.000261751               0.001833921               0.001572171               0.000000000               0.000000000               0.000000000               0.000000000               0.001429471               0.005159527              -0.000653615              -0.000108889               0.001756122               0.001647232               0.000000000               0.000000000               0.000000000               0.000000000               0.001749410               0.005079926              -0.000351452               0.000021037               0.001686279               0.001707317               0.000000000               0.000000000               0.000000000               0.000000000               0.001925410               0.005056509              -0.000194662               0.000089964               0.001655498               0.001745462               0.000000000               0.000000000               0.000000000               0.000000000              -0.011849367              -0.001013158               0.001058235              -0.004316865               0.001101228              -0.003215637               0.000000000               0.000000000               0.000000000               0.000000000              -0.008159167              -0.000020731              -0.000253403              -0.003057094               0.001012114              -0.002044980               0.000000000               0.000000000               0.000000000               0.000000000              -0.005401776               0.000765902              -0.001460191              -0.002121402               0.000962427              -0.001158974               0.000000000               0.000000000               0.000000000               0.000000000              -0.003900207               0.001716302              -0.001831709              -0.001677113               0.001131130              -0.000545983               0.000000000               0.000000000               0.000000000               0.000000000              -0.002961769               0.002540882              -0.001888022              -0.001428271               0.001323041              -0.000105230               0.000000000               0.000000000               0.000000000               0.000000000              -0.002286295               0.003203629              -0.001827404              -0.001257812               0.001487136               0.000229324               0.000000000               0.000000000               0.000000000               0.000000000              -0.001737912               0.003723340              -0.001719879              -0.001117132               0.001613478               0.000496345               0.000000000               0.000000000               0.000000000               0.000000000              -0.001255707               0.004125034              -0.001594238              -0.000986518               0.001703836               0.000717319               0.000000000               0.000000000               0.000000000               0.000000000              -0.000805793               0.004437373              -0.001472216              -0.000856843               0.001764723               0.000907881               0.000000000               0.000000000               0.000000000               0.000000000              -0.000366056               0.004678469              -0.001361663              -0.000722078               0.001800166               0.001078088               0.000000000               0.000000000               0.000000000               0.000000000               0.000077873               0.004856509              -0.001251049              -0.000577861               0.001811440               0.001233579               0.000000000               0.000000000               0.000000000               0.000000000               0.000539249               0.004986838              -0.001129781              -0.000421136               0.001802641               0.001381505               0.000000000               0.000000000               0.000000000               0.000000000               0.001023635               0.005069065              -0.000993094              -0.000249770               0.001772928               0.001523158               0.000000000               0.000000000               0.000000000               0.000000000               0.001528511               0.005098673              -0.000829375              -0.000064143               0.001720922               0.001656779               0.000000000               0.000000000               0.000000000               0.000000000               0.002054234               0.005084705              -0.000620346               0.000134748               0.001649969               0.001784717               0.000000000               0.000000000               0.000000000               0.000000000               0.002596941               0.005046312              -0.000345608               0.000343060               0.001567734               0.001910794               0.000000000               0.000000000               0.000000000               0.000000000               0.002972834               0.005061074              -0.000202452               0.000482174               0.001526283               0.002008457               0.000000000               0.000000000               0.000000000               0.000000000              -0.013020266              -0.001170890               0.000626505              -0.004736236               0.001188441              -0.003547795               0.000000000               0.000000000               0.000000000               0.000000000              -0.008810038              -0.000497562              -0.000093190              -0.003241567               0.000914662              -0.002326905               0.000000000               0.000000000               0.000000000               0.000000000              -0.005539936              -0.000044379              -0.000767784              -0.002071927               0.000675845              -0.001396083               0.000000000               0.000000000               0.000000000               0.000000000              -0.003795970               0.000813340              -0.000991936              -0.001525154               0.000779492              -0.000745662               0.000000000               0.000000000               0.000000000               0.000000000              -0.002736474               0.001652431              -0.001039608              -0.001232729               0.000961713              -0.000271016               0.000000000               0.000000000               0.000000000               0.000000000              -0.002010968               0.002380050              -0.001020859              -0.001051617               0.001143881               0.000092263               0.000000000               0.000000000               0.000000000               0.000000000              -0.001455727               0.002986163              -0.000970887              -0.000919166               0.001301766               0.000382600               0.000000000               0.000000000               0.000000000               0.000000000              -0.000978799               0.003480419              -0.000907396              -0.000802100               0.001427495               0.000625394               0.000000000               0.000000000               0.000000000               0.000000000              -0.000529894               0.003884691              -0.000846535              -0.000684295               0.001522982               0.000838687               0.000000000               0.000000000               0.000000000               0.000000000              -0.000088644               0.004213752              -0.000791324              -0.000559960               0.001591223               0.001031263               0.000000000               0.000000000               0.000000000               0.000000000               0.000359029               0.004476582              -0.000733853              -0.000424936               0.001633824               0.001208888               0.000000000               0.000000000               0.000000000               0.000000000               0.000835726               0.004690194              -0.000669244              -0.000272877               0.001654341               0.001381464               0.000000000               0.000000000               0.000000000               0.000000000               0.001353985               0.004849690              -0.000594818              -0.000098467               0.001649369               0.001550903               0.000000000               0.000000000               0.000000000               0.000000000               0.001925510               0.004949351              -0.000504632               0.000103396               0.001615302               0.001718698               0.000000000               0.000000000               0.000000000               0.000000000               0.002570734               0.005001841              -0.000385834               0.000338792               0.001554333               0.001893125               0.000000000               0.000000000               0.000000000               0.000000000               0.003310588               0.005011081              -0.000219254               0.000615079               0.001465317               0.002080396               0.000000000               0.000000000               0.000000000               0.000000000               0.003877779               0.005064574              -0.000132621               0.000821087               0.001414479               0.002235566               0.000000000               0.000000000               0.000000000               0.000000000              -0.013432641              -0.001211123               0.000000000              -0.004885847               0.001224900              -0.003660947               0.000000000               0.000000000               0.000000000               0.000000000              -0.009041817              -0.000653776               0.000000000              -0.003308957               0.000885054              -0.002423903               0.000000000               0.000000000               0.000000000               0.000000000              -0.005590641              -0.000322128               0.000000000              -0.002056223               0.000578028              -0.001478195               0.000000000               0.000000000               0.000000000               0.000000000              -0.003757902               0.000493612               0.000000000              -0.001470913               0.000654837              -0.000816076               0.000000000               0.000000000               0.000000000               0.000000000              -0.002649055               0.001332372              -0.000000000              -0.001159940               0.000830765              -0.000329175               0.000000000               0.000000000               0.000000000               0.000000000              -0.001907678               0.002081660              -0.000000000              -0.000975585               0.001019074               0.000043490               0.000000000               0.000000000               0.000000000               0.000000000              -0.001351806               0.002716699               0.000000000              -0.000846513               0.001187728               0.000341215               0.000000000               0.000000000               0.000000000               0.000000000              -0.000874589               0.003242870              -0.000000000              -0.000733328               0.001325389               0.000592061               0.000000000               0.000000000               0.000000000               0.000000000              -0.000423302               0.003679717              -0.000000000              -0.000618701               0.001432794               0.000814092               0.000000000               0.000000000               0.000000000               0.000000000               0.000018019               0.004035743               0.000000000              -0.000497710               0.001511137               0.001013428               0.000000000               0.000000000               0.000000000               0.000000000               0.000468125               0.004323548               0.000000000              -0.000364896               0.001562800               0.001197904               0.000000000               0.000000000               0.000000000               0.000000000               0.000951806               0.004564729               0.000000000              -0.000213663               0.001592782               0.001379119               0.000000000               0.000000000               0.000000000               0.000000000               0.001485677               0.004754369               0.000000000              -0.000037168               0.001597163               0.001559995               0.000000000               0.000000000               0.000000000               0.000000000               0.002085264               0.004886543              -0.000000000               0.000171155               0.001571780               0.001742934               0.000000000               0.000000000               0.000000000               0.000000000               0.002776316               0.004968210              -0.000000000               0.000420088               0.001516024               0.001936112               0.000000000               0.000000000               0.000000000               0.000000000               0.003594162               0.004995966               0.000000000               0.000723308               0.001424203               0.002147510               0.000000000               0.000000000               0.000000000               0.000000000               0.004240702               0.005065319               0.000000000               0.000957089               0.001369393               0.002326482               0.000000000               0.000000000               0.000000000               0.000000000               0.000000000               0.000000000               0.000000000               0.000000000               0.000000000               0.000000000               0.000000000               0.000000000               0.000000000               0.000000000               0.000000000               0.000000000               0.000000000               0.000000000               0.000000000               0.000000000               0.000000000               0.000000000               0.000000000               0.000000000               0.000000000               0.000000000               0.000000000               0.000000000               0.000000000               0.000000000               0.000000000               0.000000000               0.000000000               0.000000000               0.000000000               0.000000000               0.000000000               0.000000000               0.000000000               0.000000000               0.000000000               0.000000000               0.000000000               0.000000000               0.000000000               0.000000000               0.000000000               0.000000000               0.000000000               0.000000000               0.000000000               0.000000000               0.000000000               0.000000000               0.000000000               0.000000000               0.000000000               0.000000000               0.000000000               0.000000000               0.000000000               0.000000000               0.000000000               0.000000000               0.000000000               0.000000000               0.000000000               0.000000000               0.000000000               0.000000000               0.000000000               0.000000000               0.000000000               0.000000000               0.000000000               0.000000000               0.000000000               0.000000000               0.000000000               0.000000000               0.000000000               0.000000000               0.000000000               0.000000000               0.000000000               0.000000000               0.000000000               0.000000000               0.000000000               0.000000000               0.000000000               0.000000000               0.000000000               0.000000000               0.000000000               0.000000000               0.000000000               0.000000000               0.000000000               0.000000000               0.000000000               0.000000000               0.000000000               0.000000000               0.000000000               0.000000000               0.000000000               0.000000000               0.000000000               0.000000000               0.000000000               0.000000000               0.000000000               0.000000000               0.000000000               0.000000000               0.000000000               0.000000000               0.000000000               0.000000000               0.000000000               0.000000000               0.000000000               0.000000000               0.000000000               0.000000000               0.000000000               0.000000000               0.000000000               0.000000000               0.000000000               0.000000000               0.000000000               0.000000000               0.000000000               0.000000000               0.000000000               0.000000000               0.000000000               0.000000000               0.000000000               0.000000000               0.000000000               0.000000000               0.000000000               0.000000000               0.000000000               0.000000000               0.000000000               0.000000000               0.000000000               0.000000000               0.000000000               0.000000000               0.000000000               0.000000000               0.000000000               0.000000000               0.000000000               0.000000000               0.000000000               0.000000000               0.000000000               0.000000000               0.000000000               0.000000000               0.000000000               0.000000000               0.000000000               0.000000000               0.000000000               0.000000000               0.000000000               0.000000000               0.002330167               0.023779933               0.001635821              -0.002098674               0.008626123               0.006527449               0.000000000               0.000000000               0.000000000               0.000000000               0.002130081               0.018467015               0.000776677              -0.001509593               0.006658808               0.005149215               0.000000000               0.000000000               0.000000000               0.000000000               0.002633451               0.014184385              -0.000071872              -0.000785502               0.004989915               0.004204413               0.000000000               0.000000000               0.000000000               0.000000000               0.002399678               0.011746663              -0.000424285              -0.000568453               0.004104999               0.003536547               0.000000000               0.000000000               0.000000000               0.000000000               0.001974370               0.010193371              -0.000564275              -0.000533782               0.003575684               0.003041902               0.000000000               0.000000000               0.000000000               0.000000000               0.001530357               0.009099171              -0.000606168              -0.000563511               0.003220864               0.002657352               0.000000000               0.000000000               0.000000000               0.000000000               0.001120957               0.008258017              -0.000605364              -0.000611892               0.002956609               0.002344717               0.000000000               0.000000000               0.000000000               0.000000000               0.000770969               0.007566677              -0.000587827              -0.000656720               0.002741107               0.002084387               0.000000000               0.000000000               0.000000000               0.000000000               0.000482516               0.006969455              -0.000563479              -0.000690237               0.002553207               0.001862971               0.000000000               0.000000000               0.000000000               0.000000000               0.000243932               0.006422081              -0.000533692              -0.000711284               0.002377767               0.001666483               0.000000000               0.000000000               0.000000000               0.000000000               0.000058442               0.005894060              -0.000500065              -0.000714840               0.002202947               0.001488107               0.000000000               0.000000000               0.000000000               0.000000000              -0.000072656               0.005367226              -0.000463545              -0.000698148               0.002021774               0.001323626               0.000000000               0.000000000               0.000000000               0.000000000              -0.000154534               0.004825035              -0.000418452              -0.000661078               0.001828688               0.001167610               0.000000000               0.000000000               0.000000000               0.000000000              -0.000182912               0.004255712              -0.000361252              -0.000600555               0.001618741               0.001018187               0.000000000               0.000000000               0.000000000               0.000000000              -0.000160010               0.003642711              -0.000279076              -0.000515341               0.001386005               0.000870664               0.000000000               0.000000000               0.000000000               0.000000000              -0.000093265               0.002965334              -0.000158795              -0.000405640               0.001123648               0.000718008               0.000000000               0.000000000               0.000000000               0.000000000              -0.000105107               0.002453446              -0.000099913              -0.000346095               0.000933172               0.000587077               0.000000000               0.000000000               0.000000000               0.000000000               0.002509111               0.022334196               0.003033020              -0.001850855               0.008061609               0.006210754               0.000000000               0.000000000               0.000000000               0.000000000               0.001951672               0.017538261               0.001433023              -0.001460403               0.006332829               0.004872427               0.000000000               0.000000000               0.000000000               0.000000000               0.002077191               0.013801853              -0.000132851              -0.000946283               0.004915999               0.003969716               0.000000000               0.000000000               0.000000000               0.000000000               0.001708484               0.011646824              -0.000759129              -0.000815170               0.004153959               0.003338789               0.000000000               0.000000000               0.000000000               0.000000000               0.001260661               0.010238714              -0.000993443              -0.000807090               0.003681901               0.002874811               0.000000000               0.000000000               0.000000000               0.000000000               0.000850317               0.009216725              -0.001055640              -0.000833220               0.003349951               0.002516731               0.000000000               0.000000000               0.000000000               0.000000000               0.000504351               0.008410371              -0.001044959              -0.000862163               0.003090817               0.002228654               0.000000000               0.000000000               0.000000000               0.000000000               0.000224723               0.007730678              -0.001011176              -0.000882062               0.002870887               0.001988826               0.000000000               0.000000000               0.000000000               0.000000000               0.000012790               0.007136173              -0.000969011              -0.000887223               0.002674442               0.001787218               0.000000000               0.000000000               0.000000000               0.000000000              -0.000137594               0.006588706              -0.000914750              -0.000875184               0.002487941               0.001612757               0.000000000               0.000000000               0.000000000               0.000000000              -0.000236837               0.006062038              -0.000851933              -0.000846567               0.002302848               0.001456281               0.000000000               0.000000000               0.000000000               0.000000000              -0.000291404               0.005544378              -0.000782034              -0.000802322               0.002115548               0.001313226               0.000000000               0.000000000               0.000000000               0.000000000              -0.000299888               0.005028652              -0.000698772              -0.000741038               0.001923213               0.001182175               0.000000000               0.000000000               0.000000000               0.000000000              -0.000265557               0.004510745              -0.000593894              -0.000663426               0.001724708               0.001061283               0.000000000               0.000000000               0.000000000               0.000000000              -0.000195559               0.003989482              -0.000449934              -0.000572018               0.001520487               0.000948468               0.000000000               0.000000000               0.000000000               0.000000000              -0.000101270               0.003466594              -0.000251908              -0.000471299               0.001312619               0.000841320               0.000000000               0.000000000               0.000000000               0.000000000              -0.000089209               0.003103221              -0.000153443              -0.000421355               0.001174848               0.000753493               0.000000000               0.000000000               0.000000000               0.000000000               0.002664783               0.020126407               0.004011242              -0.001516506               0.007214237               0.005697730               0.000000000               0.000000000               0.000000000               0.000000000               0.001615384               0.016156921               0.001891602              -0.001413844               0.005856868               0.004443024               0.000000000               0.000000000               0.000000000               0.000000000               0.001220722               0.013241760              -0.000151538              -0.001197446               0.004813025               0.003615578               0.000000000               0.000000000               0.000000000               0.000000000               0.000696977               0.011482835              -0.000918776              -0.001173985               0.004218902               0.003044916               0.000000000               0.000000000               0.000000000               0.000000000               0.000251996               0.010268299              -0.001184447              -0.001189036               0.003819077               0.002630041               0.000000000               0.000000000               0.000000000               0.000000000              -0.000083109               0.009337521              -0.001243366              -0.001198353               0.003511927               0.002313573               0.000000000               0.000000000               0.000000000               0.000000000              -0.000320624               0.008572782              -0.001219772              -0.001191829               0.003254842               0.002063013               0.000000000               0.000000000               0.000000000               0.000000000              -0.000478472               0.007914186              -0.001172537              -0.001168698               0.003027601               0.001858904               0.000000000               0.000000000               0.000000000               0.000000000              -0.000570984               0.007319205              -0.001117959              -0.001129017               0.002816049               0.001687032               0.000000000               0.000000000               0.000000000               0.000000000              -0.000608845               0.006764239              -0.001047310              -0.001073845               0.002612672               0.001538827               0.000000000               0.000000000               0.000000000               0.000000000              -0.000603908               0.006236350              -0.000965258              -0.001006007               0.002414098               0.001408091               0.000000000               0.000000000               0.000000000               0.000000000              -0.000556879               0.005734054              -0.000874411              -0.000925584               0.002219860               0.001294276               0.000000000               0.000000000               0.000000000               0.000000000              -0.000472643               0.005255944              -0.000764912              -0.000834232               0.002030041               0.001195809               0.000000000               0.000000000               0.000000000               0.000000000              -0.000362729               0.004804143              -0.000632527              -0.000736539               0.001846878               0.001110339               0.000000000               0.000000000               0.000000000               0.000000000              -0.000237463               0.004391986              -0.000464622              -0.000638045               0.001676662               0.001038617               0.000000000               0.000000000               0.000000000               0.000000000              -0.000113223               0.004037664              -0.000250573              -0.000547165               0.001528263               0.000981098               0.000000000               0.000000000               0.000000000               0.000000000              -0.000075656               0.003827377              -0.000144279              -0.000506792               0.001444710               0.000937918               0.000000000               0.000000000               0.000000000               0.000000000               0.002654037               0.017426884               0.004475919              -0.001183097               0.006203268               0.005020171               0.000000000               0.000000000               0.000000000               0.000000000               0.001095132               0.014505331               0.002134177              -0.001402490               0.005302558               0.003900069               0.000000000               0.000000000               0.000000000               0.000000000               0.000159105               0.012572498              -0.000082842              -0.001511894               0.004694755               0.003182861               0.000000000               0.000000000               0.000000000               0.000000000              -0.000460158               0.011244068              -0.000855627              -0.001578064               0.004274007               0.002695943               0.000000000               0.000000000               0.000000000               0.000000000              -0.000833064               0.010224686              -0.001100142              -0.001590481               0.003938355               0.002347874               0.000000000               0.000000000               0.000000000               0.000000000              -0.001040036               0.009380057              -0.001143861              -0.001562517               0.003647493               0.002084976               0.000000000               0.000000000               0.000000000               0.000000000              -0.001133842               0.008655125              -0.001116035              -0.001507078               0.003387372               0.001880294               0.000000000               0.000000000               0.000000000               0.000000000              -0.001150166               0.008008212              -0.001066355              -0.001432335               0.003146822               0.001714487               0.000000000               0.000000000               0.000000000               0.000000000              -0.001109298               0.007413474              -0.001008340              -0.001342668               0.002918689               0.001576021               0.000000000               0.000000000               0.000000000               0.000000000              -0.001022789               0.006853276              -0.000936828              -0.001240203               0.002697803               0.001457601               0.000000000               0.000000000               0.000000000               0.000000000              -0.000902125               0.006329284              -0.000854067              -0.001129455               0.002486225               0.001356770               0.000000000               0.000000000               0.000000000               0.000000000              -0.000755681               0.005846653              -0.000760390              -0.001014210               0.002286935               0.001272725               0.000000000               0.000000000               0.000000000               0.000000000              -0.000592994               0.005409458              -0.000645925              -0.000898553               0.002102652               0.001204099               0.000000000               0.000000000               0.000000000               0.000000000              -0.000423876               0.005025425              -0.000512356              -0.000787130               0.001937501               0.001150372               0.000000000               0.000000000               0.000000000               0.000000000              -0.000262149               0.004708237              -0.000359449              -0.000686834               0.001798341               0.001111507               0.000000000               0.000000000               0.000000000               0.000000000              -0.000123037               0.004477417              -0.000185567              -0.000605815               0.001694396               0.001088581               0.000000000               0.000000000               0.000000000               0.000000000              -0.000072177               0.004365615              -0.000101732              -0.000572767               0.001646113               0.001073346               0.000000000               0.000000000               0.000000000               0.000000000               0.002340208               0.014511907               0.004448158              -0.000936412               0.005149390               0.004212978               0.000000000               0.000000000               0.000000000               0.000000000               0.000389306               0.012754130               0.002202608              -0.001448274               0.004734092               0.003285817               0.000000000               0.000000000               0.000000000               0.000000000              -0.000976380               0.011837983               0.000106148              -0.001845886               0.004561250               0.002715364               0.000000000               0.000000000               0.000000000               0.000000000              -0.001580998               0.010909899              -0.000573940              -0.001956607               0.004288799               0.002332192               0.000000000               0.000000000               0.000000000               0.000000000              -0.001810160               0.010054201              -0.000778572              -0.001935580               0.003996560               0.002060980               0.000000000               0.000000000               0.000000000               0.000000000              -0.001842581               0.009282769              -0.000818788              -0.001851309               0.003711328               0.001860019               0.000000000               0.000000000               0.000000000               0.000000000              -0.001773920               0.008585570              -0.000804202              -0.001738412               0.003441299               0.001702887               0.000000000               0.000000000               0.000000000               0.000000000              -0.001648467               0.007946421              -0.000774063              -0.001611474               0.003185938               0.001574465               0.000000000               0.000000000               0.000000000               0.000000000              -0.001478345               0.007356358              -0.000731546              -0.001473921               0.002943402               0.001469481               0.000000000               0.000000000               0.000000000               0.000000000              -0.001280991               0.006801105              -0.000670698              -0.001330506               0.002710514               0.001380008               0.000000000               0.000000000               0.000000000               0.000000000              -0.001066493               0.006290717              -0.000602091              -0.001186271               0.002492308               0.001306037               0.000000000               0.000000000               0.000000000               0.000000000              -0.000841333               0.005838648              -0.000524871              -0.001045328               0.002294639               0.001249311               0.000000000               0.000000000               0.000000000               0.000000000              -0.000622369               0.005448312              -0.000430487              -0.000914425               0.002120894               0.001206469               0.000000000               0.000000000               0.000000000               0.000000000              -0.000418569               0.005130682              -0.000324562              -0.000798297               0.001976309               0.001178012               0.000000000               0.000000000               0.000000000               0.000000000              -0.000242966               0.004892531              -0.000213546              -0.000702677               0.001865053               0.001162376               0.000000000               0.000000000               0.000000000               0.000000000              -0.000108827               0.004738688              -0.000103300              -0.000633144               0.001790595               0.001157451               0.000000000               0.000000000               0.000000000               0.000000000              -0.000059104               0.004676565              -0.000054093              -0.000606733               0.001761084               0.001154351               0.000000000               0.000000000               0.000000000               0.000000000               0.001662197               0.011627421               0.004018277              -0.000830105               0.004152469               0.003322364               0.000000000               0.000000000               0.000000000               0.000000000              -0.000462886               0.011046538               0.002154343              -0.001554397               0.004200274               0.002645877               0.000000000               0.000000000               0.000000000               0.000000000              -0.002064675               0.011065243               0.000417028              -0.002157403               0.004407512               0.002250109               0.000000000               0.000000000               0.000000000               0.000000000              -0.002527795               0.010464047              -0.000128037              -0.002255923               0.004239955               0.001984032               0.000000000               0.000000000               0.000000000               0.000000000              -0.002553347               0.009738236              -0.000311019              -0.002174779               0.003970973               0.001796193               0.000000000               0.000000000               0.000000000               0.000000000              -0.002398632               0.009027313              -0.000372179              -0.002027896               0.003685040               0.001657143               0.000000000               0.000000000               0.000000000               0.000000000              -0.002169013               0.008354956              -0.000391520              -0.001857745               0.003404206               0.001546461               0.000000000               0.000000000               0.000000000               0.000000000              -0.001909427               0.007726201              -0.000394556              -0.001681806               0.003135976               0.001454170               0.000000000               0.000000000               0.000000000               0.000000000              -0.001634119               0.007140811              -0.000380519              -0.001505392               0.002882044               0.001376652               0.000000000               0.000000000               0.000000000               0.000000000              -0.001346450               0.006604662              -0.000346396              -0.001330498               0.002645032               0.001314533               0.000000000               0.000000000               0.000000000               0.000000000              -0.001058812               0.006129761              -0.000310503              -0.001163272               0.002430990               0.001267719               0.000000000               0.000000000               0.000000000               0.000000000              -0.000782097               0.005727563              -0.000269678              -0.001009229               0.002245578               0.001236349               0.000000000               0.000000000               0.000000000               0.000000000              -0.000537034               0.005399144              -0.000214523              -0.000876278               0.002091789               0.001215511               0.000000000               0.000000000               0.000000000               0.000000000              -0.000334846               0.005148263              -0.000152323              -0.000769098               0.001972436               0.001203338               0.000000000               0.000000000               0.000000000               0.000000000              -0.000180079               0.004975861              -0.000088798              -0.000689510               0.001888441               0.001198930               0.000000000               0.000000000               0.000000000               0.000000000              -0.000074295               0.004879997              -0.000035456              -0.000637859               0.001839269               0.001201410               0.000000000               0.000000000               0.000000000               0.000000000              -0.000037160               0.004848775              -0.000015723              -0.000620030               0.001822919               0.001202889               0.000000000               0.000000000               0.000000000               0.000000000               0.000654544               0.008960642               0.003292516              -0.000874627               0.003278392               0.002403765               0.000000000               0.000000000               0.000000000               0.000000000              -0.001408017               0.009480600               0.002039127              -0.001713078               0.003731194               0.002018116               0.000000000               0.000000000               0.000000000               0.000000000              -0.002998665               0.010258635               0.000830801              -0.002406823               0.004221785               0.001814962               0.000000000               0.000000000               0.000000000               0.000000000              -0.003218469               0.009905082               0.000404273              -0.002445055               0.004116679               0.001671624               0.000000000               0.000000000               0.000000000               0.000000000              -0.003011915               0.009292805               0.000209403              -0.002291063               0.003861258               0.001570195               0.000000000               0.000000000               0.000000000               0.000000000              -0.002676797               0.008635658               0.000104513              -0.002083251               0.003572941               0.001489690               0.000000000               0.000000000               0.000000000               0.000000000              -0.002312095               0.007988715               0.000041037              -0.001865621               0.003284752               0.001419131               0.000000000               0.000000000               0.000000000               0.000000000              -0.001942846               0.007378549              -0.000004736              -0.001650882               0.003009786               0.001358904               0.000000000               0.000000000               0.000000000               0.000000000              -0.001574996               0.006819604              -0.000034409              -0.001443070               0.002754202               0.001311132               0.000000000               0.000000000               0.000000000               0.000000000              -0.001215386               0.006320856              -0.000046677              -0.001245874               0.002522222               0.001276349               0.000000000               0.000000000               0.000000000               0.000000000              -0.000880427               0.005898830              -0.000058398              -0.001067511               0.002322094               0.001254583               0.000000000               0.000000000               0.000000000               0.000000000              -0.000588509               0.005556890              -0.000065290              -0.000915300               0.002157378               0.001242078               0.000000000               0.000000000               0.000000000               0.000000000              -0.000356954               0.005293929              -0.000054131              -0.000795597               0.002029824               0.001234228               0.000000000               0.000000000               0.000000000               0.000000000              -0.000190128               0.005109836              -0.000033039              -0.000710026               0.001939937               0.001229911               0.000000000               0.000000000               0.000000000               0.000000000              -0.000084142               0.005001260              -0.000011863              -0.000656709               0.001885973               0.001229264               0.000000000               0.000000000               0.000000000               0.000000000              -0.000028006               0.004956307               0.000000847              -0.000630039               0.001862099               0.001232060               0.000000000               0.000000000               0.000000000               0.000000000              -0.000011310               0.004947660               0.000002971              -0.000622697               0.001856769               0.001234072               0.000000000               0.000000000               0.000000000               0.000000000              -0.000554091               0.006703862               0.002398831              -0.001045766               0.002583186               0.001537420               0.000000000               0.000000000               0.000000000               0.000000000              -0.002331677               0.008074916               0.001903153              -0.001883739               0.003319524               0.001435785               0.000000000               0.000000000               0.000000000               0.000000000              -0.003722553               0.009445714               0.001318208              -0.002576665               0.004007428               0.001430763               0.000000000               0.000000000               0.000000000               0.000000000              -0.003682073               0.009352780               0.000966417              -0.002549869               0.003967518               0.001417650               0.000000000               0.000000000               0.000000000               0.000000000              -0.003286064               0.008879997               0.000736863              -0.002342268               0.003740725               0.001398457               0.000000000               0.000000000               0.000000000               0.000000000              -0.002809955               0.008298528               0.000579520              -0.002091044               0.003463163               0.001372119               0.000000000               0.000000000               0.000000000               0.000000000              -0.002337033               0.007702331               0.000463607              -0.001839174               0.003180476               0.001341302               0.000000000               0.000000000               0.000000000               0.000000000              -0.001883632               0.007137499               0.000367820              -0.001598546               0.002911991               0.001313445               0.000000000               0.000000000               0.000000000               0.000000000              -0.001442208               0.006616824               0.000287588              -0.001367928               0.002661562               0.001293634               0.000000000               0.000000000               0.000000000               0.000000000              -0.001027442               0.006156311               0.000219445              -0.001154827               0.002437025               0.001282199               0.000000000               0.000000000               0.000000000               0.000000000              -0.000664863               0.005778076               0.000154060              -0.000971580               0.002249866               0.001278286               0.000000000               0.000000000               0.000000000               0.000000000              -0.000378946               0.005475194               0.000097330              -0.000826502               0.002100547               0.001274045               0.000000000               0.000000000               0.000000000               0.000000000              -0.000176731               0.005245025               0.000059699              -0.000721900               0.001988958               0.001267057               0.000000000               0.000000000               0.000000000               0.000000000              -0.000050585               0.005094442               0.000036095              -0.000655773               0.001916721               0.001260949               0.000000000               0.000000000               0.000000000               0.000000000               0.000013958               0.005018953               0.000019569              -0.000622133               0.001880345               0.001258212               0.000000000               0.000000000               0.000000000               0.000000000               0.000030056               0.004994329               0.000007612              -0.000613019               0.001869099               0.001256081               0.000000000               0.000000000               0.000000000               0.000000000               0.000026367               0.004991618               0.000002455              -0.000614063               0.001868544               0.001254481               0.000000000               0.000000000               0.000000000               0.000000000              -0.001963257               0.004604964               0.001454496              -0.001311839               0.001972252               0.000660413               0.000000000               0.000000000               0.000000000               0.000000000              -0.003104456               0.006442349               0.001746861              -0.001969460               0.002803914               0.000834454               0.000000000               0.000000000               0.000000000               0.000000000              -0.004143790               0.008237850               0.001827048              -0.002583646               0.003607137               0.001023491               0.000000000               0.000000000               0.000000000               0.000000000              -0.003964146               0.008538976               0.001564248              -0.002553921               0.003697604               0.001143683               0.000000000               0.000000000               0.000000000               0.000000000              -0.003494248               0.008335020               0.001301835              -0.002352215               0.003562384               0.001210169               0.000000000               0.000000000               0.000000000               0.000000000              -0.002967671               0.007948942               0.001090837              -0.002106489               0.003351784               0.001245294               0.000000000               0.000000000               0.000000000               0.000000000              -0.002454801               0.007498024               0.000917719              -0.001857799               0.003118582               0.001260784               0.000000000               0.000000000               0.000000000               0.000000000              -0.001972791               0.007043817               0.000775676              -0.001620270               0.002888005               0.001267735               0.000000000               0.000000000               0.000000000               0.000000000              -0.001514986               0.006615734               0.000651635              -0.001395083               0.002670250               0.001275167               0.000000000               0.000000000               0.000000000               0.000000000              -0.001080893               0.006226234               0.000531503              -0.001183611               0.002469928               0.001286317               0.000000000               0.000000000               0.000000000               0.000000000              -0.000694151               0.005883565               0.000412984              -0.000995750               0.002293085               0.001297336               0.000000000               0.000000000               0.000000000               0.000000000              -0.000379871               0.005598163               0.000301822              -0.000842220               0.002146776               0.001304556               0.000000000               0.000000000               0.000000000               0.000000000              -0.000150617               0.005367498               0.000206990              -0.000727417               0.002031620               0.001304203               0.000000000               0.000000000               0.000000000               0.000000000              -0.000005290               0.005193263               0.000128978              -0.000651140               0.001948117               0.001296977               0.000000000               0.000000000               0.000000000               0.000000000               0.000067611               0.005078957               0.000065992              -0.000609514               0.001896140               0.001286626               0.000000000               0.000000000               0.000000000               0.000000000               0.000087380               0.005020457               0.000022677              -0.000594788               0.001871732               0.001276944               0.000000000               0.000000000               0.000000000               0.000000000               0.000082247               0.005003634               0.000005264              -0.000594610               0.001866065               0.001271454               0.000000000               0.000000000               0.000000000               0.000000000              -0.003755201               0.002704926               0.000527026              -0.001746313               0.001483736              -0.000262577               0.000000000               0.000000000               0.000000000               0.000000000              -0.003973438               0.004797133               0.001518626              -0.002089676               0.002295586               0.000205910               0.000000000               0.000000000               0.000000000               0.000000000              -0.004469559               0.006820922               0.002230611              -0.002528694               0.003116515               0.000587821               0.000000000               0.000000000               0.000000000               0.000000000              -0.004166323               0.007494146               0.002129648              -0.002499134               0.003331068               0.000831934               0.000000000               0.000000000               0.000000000               0.000000000              -0.003657200               0.007605037               0.001875171              -0.002322075               0.003309011               0.000986937               0.000000000               0.000000000               0.000000000               0.000000000              -0.003112169               0.007461524               0.001629957              -0.002099749               0.003187066               0.001087317               0.000000000               0.000000000               0.000000000               0.000000000              -0.002579518               0.007197452               0.001415537              -0.001866996               0.003021458               0.001154462               0.000000000               0.000000000               0.000000000               0.000000000              -0.002076515               0.006896591               0.001231958              -0.001640763               0.002845761               0.001204998               0.000000000               0.000000000               0.000000000               0.000000000              -0.001607617               0.006593760               0.001069628              -0.001427073               0.002673589               0.001246516               0.000000000               0.000000000               0.000000000               0.000000000              -0.001163426               0.006293730               0.000914721              -0.001222998               0.002505555               0.001282557               0.000000000               0.000000000               0.000000000               0.000000000              -0.000750273               0.006002141               0.000756922              -0.001031617               0.002344566               0.001312949               0.000000000               0.000000000               0.000000000               0.000000000              -0.000390514               0.005739572               0.000598310              -0.000863887               0.002201134               0.001337247               0.000000000               0.000000000               0.000000000               0.000000000              -0.000109785               0.005509834               0.000445527              -0.000729897               0.002079892               0.001349995               0.000000000               0.000000000               0.000000000               0.000000000               0.000082719               0.005311512               0.000303854              -0.000632918               0.001981459               0.001348541               0.000000000               0.000000000               0.000000000               0.000000000               0.000189184               0.005155034               0.000177392              -0.000573434               0.001909472               0.001336038               0.000000000               0.000000000               0.000000000               0.000000000               0.000219947               0.005053448               0.000075447              -0.000549200               0.001867532               0.001318333               0.000000000               0.000000000               0.000000000               0.000000000               0.000208500               0.005012117               0.000028895              -0.000548326               0.001853464               0.001305138               0.000000000               0.000000000               0.000000000               0.000000000              -0.005816967               0.001161476              -0.000298615              -0.002326544               0.001162666              -0.001163879               0.000000000               0.000000000               0.000000000               0.000000000              -0.004991407               0.003251626               0.001201068              -0.002278227               0.001843271              -0.000434955               0.000000000               0.000000000               0.000000000               0.000000000              -0.004739547               0.005215868               0.002411308              -0.002429308               0.002548374               0.000119065               0.000000000               0.000000000               0.000000000               0.000000000              -0.004227943               0.006138486               0.002514083              -0.002352784               0.002830402               0.000477618               0.000000000               0.000000000               0.000000000               0.000000000              -0.003659824               0.006535366               0.002324853              -0.002189350               0.002908216               0.000718866               0.000000000               0.000000000               0.000000000               0.000000000              -0.003100292               0.006646392               0.002084476              -0.001993404               0.002879909               0.000886505               0.000000000               0.000000000               0.000000000               0.000000000              -0.002562495               0.006603274               0.001851953              -0.001786341               0.002796516               0.001010175               0.000000000               0.000000000               0.000000000               0.000000000              -0.002055468               0.006487889               0.001644086              -0.001581783               0.002689869               0.001108086               0.000000000               0.000000000               0.000000000               0.000000000              -0.001575860               0.006338370               0.001462134              -0.001383241               0.002573849               0.001190608               0.000000000               0.000000000               0.000000000               0.000000000              -0.001122027               0.006161992               0.001289451              -0.001191006               0.002450979               0.001259972               0.000000000               0.000000000               0.000000000               0.000000000              -0.000695220               0.005962892               0.001112150              -0.001006067               0.002322966               0.001316899               0.000000000               0.000000000               0.000000000               0.000000000              -0.000303661               0.005756442               0.000925170              -0.000833426               0.002196603               0.001363177               0.000000000               0.000000000               0.000000000               0.000000000               0.000027232               0.005551064               0.000733168              -0.000683669               0.002078226               0.001394557               0.000000000               0.000000000               0.000000000               0.000000000               0.000279648               0.005359965               0.000540872              -0.000565126               0.001975013               0.001409886               0.000000000               0.000000000               0.000000000               0.000000000               0.000442337               0.005197969               0.000348113              -0.000483869               0.001893928               0.001410060               0.000000000               0.000000000               0.000000000               0.000000000               0.000504679               0.005078867               0.000165171              -0.000445603               0.001841473               0.001395870               0.000000000               0.000000000               0.000000000               0.000000000               0.000495517               0.005024916               0.000074871              -0.000442294               0.001822387               0.001380092               0.000000000               0.000000000               0.000000000               0.000000000              -0.008003235               0.000052877              -0.000898983              -0.003007820               0.001020225              -0.001987595               0.000000000               0.000000000               0.000000000               0.000000000              -0.006101483               0.001885983               0.000842049              -0.002523800               0.001469917              -0.001053883               0.000000000               0.000000000               0.000000000               0.000000000              -0.004980783               0.003556856               0.002335673              -0.002312397               0.001956403              -0.000355993               0.000000000               0.000000000               0.000000000               0.000000000              -0.004173175               0.004593944               0.002624722              -0.002139179               0.002244358               0.000105178               0.000000000               0.000000000               0.000000000               0.000000000              -0.003508359               0.005211695               0.002536780              -0.001967093               0.002392911               0.000425818               0.000000000               0.000000000               0.000000000               0.000000000              -0.002927475               0.005560321               0.002340405              -0.001792840               0.002451034               0.000658194               0.000000000               0.000000000               0.000000000               0.000000000              -0.002394367               0.005745556               0.002121142              -0.001616079               0.002453859               0.000837779               0.000000000               0.000000000               0.000000000               0.000000000              -0.001890292               0.005831145               0.001914581              -0.001437750               0.002422945               0.000985195               0.000000000               0.000000000               0.000000000               0.000000000              -0.001414829               0.005845316               0.001731392              -0.001261223               0.002368827               0.001107603               0.000000000               0.000000000               0.000000000               0.000000000              -0.000960577               0.005807310               0.001557692              -0.001086128               0.002297793               0.001211665               0.000000000               0.000000000               0.000000000               0.000000000              -0.000523567               0.005725487               0.001380955              -0.000912022               0.002212484               0.001300462               0.000000000               0.000000000               0.000000000               0.000000000              -0.000105519               0.005610220               0.001191846              -0.000740846               0.002117003               0.001376157               0.000000000               0.000000000               0.000000000               0.000000000               0.000279536               0.005473736               0.000989475              -0.000579390               0.002017690               0.001438300               0.000000000               0.000000000               0.000000000               0.000000000               0.000610147               0.005330451               0.000773359              -0.000437500               0.001922633               0.001485132               0.000000000               0.000000000               0.000000000               0.000000000               0.000863496               0.005197728               0.000533005              -0.000325905               0.001841194               0.001515289               0.000000000               0.000000000               0.000000000               0.000000000               0.001015016               0.005090889               0.000271337              -0.000255729               0.001782189               0.001526460               0.000000000               0.000000000               0.000000000               0.000000000               0.001057854               0.005043342               0.000136762              -0.000233722               0.001759004               0.001525283               0.000000000               0.000000000               0.000000000               0.000000000              -0.010097437              -0.000643798              -0.001165139              -0.003706062               0.001020747              -0.002685314               0.000000000               0.000000000               0.000000000               0.000000000              -0.007205425               0.000778996               0.000508211              -0.002799406               0.001192792              -0.001606614               0.000000000               0.000000000               0.000000000               0.000000000              -0.005205535               0.002016597               0.002004182              -0.002204147               0.001406904              -0.000797243               0.000000000               0.000000000               0.000000000               0.000000000              -0.004044006               0.003046906               0.002398726              -0.001897362               0.001648077              -0.000249285               0.000000000               0.000000000               0.000000000               0.000000000              -0.003249744               0.003803787               0.002406791              -0.001694124               0.001832623               0.000138499               0.000000000               0.000000000               0.000000000               0.000000000              -0.002631115               0.004345099               0.002279113              -0.001529803               0.001958285               0.000428482               0.000000000               0.000000000               0.000000000               0.000000000              -0.002093865               0.004726636               0.002108010              -0.001376027               0.002034204               0.000658178               0.000000000               0.000000000               0.000000000               0.000000000              -0.001599876               0.004988810               0.001930875              -0.001223553               0.002070770               0.000847218               0.000000000               0.000000000               0.000000000               0.000000000              -0.001138791               0.005162726               0.001765120              -0.001072385               0.002078353               0.001005967               0.000000000               0.000000000               0.000000000               0.000000000              -0.000694073               0.005270160               0.001611319              -0.000919046               0.002063051               0.001144005               0.000000000               0.000000000               0.000000000               0.000000000              -0.000251746               0.005320721               0.001457752              -0.000759494               0.002026720               0.001267227               0.000000000               0.000000000               0.000000000               0.000000000               0.000190589               0.005328575               0.001292136              -0.000594600               0.001974374               0.001379774               0.000000000               0.000000000               0.000000000               0.000000000               0.000629196               0.005300594               0.001110149              -0.000426625               0.001909055               0.001482430               0.000000000               0.000000000               0.000000000               0.000000000               0.001048687               0.005240066               0.000903810              -0.000261751               0.001833921               0.001572171               0.000000000               0.000000000               0.000000000               0.000000000               0.001429471               0.005159527               0.000653615              -0.000108889               0.001756122               0.001647232               0.000000000               0.000000000               0.000000000               0.000000000               0.001749410               0.005079926               0.000351452               0.000021037               0.001686279               0.001707317               0.000000000               0.000000000               0.000000000               0.000000000               0.001925410               0.005056509               0.000194662               0.000089964               0.001655498               0.001745462               0.000000000               0.000000000               0.000000000               0.000000000              -0.011849367              -0.001013158              -0.001058235              -0.004316865               0.001101228              -0.003215637               0.000000000               0.000000000               0.000000000               0.000000000              -0.008159167              -0.000020731               0.000253403              -0.003057094               0.001012114              -0.002044980               0.000000000               0.000000000               0.000000000               0.000000000              -0.005401776               0.000765902               0.001460191              -0.002121402               0.000962427              -0.001158974               0.000000000               0.000000000               0.000000000               0.000000000              -0.003900207               0.001716302               0.001831709              -0.001677113               0.001131130              -0.000545983               0.000000000               0.000000000               0.000000000               0.000000000              -0.002961769               0.002540882               0.001888022              -0.001428271               0.001323041              -0.000105230               0.000000000               0.000000000               0.000000000               0.000000000              -0.002286295               0.003203629               0.001827404              -0.001257812               0.001487136               0.000229324               0.000000000               0.000000000               0.000000000               0.000000000              -0.001737912               0.003723340               0.001719879              -0.001117132               0.001613478               0.000496345               0.000000000               0.000000000               0.000000000               0.000000000              -0.001255707               0.004125034               0.001594238              -0.000986518               0.001703836               0.000717319               0.000000000               0.000000000               0.000000000               0.000000000              -0.000805793               0.004437373               0.001472216              -0.000856843               0.001764723               0.000907881               0.000000000               0.000000000               0.000000000               0.000000000              -0.000366056               0.004678469               0.001361663              -0.000722078               0.001800166               0.001078088               0.000000000               0.000000000               0.000000000               0.000000000               0.000077873               0.004856509               0.001251049              -0.000577861               0.001811440               0.001233579               0.000000000               0.000000000               0.000000000               0.000000000               0.000539249               0.004986838               0.001129781              -0.000421136               0.001802641               0.001381505               0.000000000               0.000000000               0.000000000               0.000000000               0.001023635               0.005069065               0.000993094              -0.000249770               0.001772928               0.001523158               0.000000000               0.000000000               0.000000000               0.000000000               0.001528511               0.005098673               0.000829375              -0.000064143               0.001720922               0.001656779               0.000000000               0.000000000               0.000000000               0.000000000               0.002054234               0.005084705               0.000620346               0.000134748               0.001649969               0.001784717               0.000000000               0.000000000               0.000000000               0.000000000               0.002596941               0.005046312               0.000345608               0.000343060               0.001567734               0.001910794               0.000000000               0.000000000               0.000000000               0.000000000               0.002972834               0.005061074               0.000202452               0.000482174               0.001526283               0.002008457               0.000000000               0.000000000               0.000000000               0.000000000              -0.013020266              -0.001170890              -0.000626505              -0.004736236               0.001188441              -0.003547795               0.000000000               0.000000000               0.000000000               0.000000000              -0.008810038              -0.000497562               0.000093190              -0.003241567               0.000914662              -0.002326905               0.000000000               0.000000000               0.000000000               0.000000000              -0.005539936              -0.000044379               0.000767784              -0.002071927               0.000675845              -0.001396083               0.000000000               0.000000000               0.000000000               0.000000000              -0.003795970               0.000813340               0.000991936              -0.001525154               0.000779492              -0.000745662               0.000000000               0.000000000               0.000000000               0.000000000              -0.002736474               0.001652431               0.001039608              -0.001232729               0.000961713              -0.000271016               0.000000000               0.000000000               0.000000000               0.000000000              -0.002010968               0.002380050               0.001020859              -0.001051617               0.001143881               0.000092263               0.000000000               0.000000000               0.000000000               0.000000000              -0.001455727               0.002986163               0.000970887              -0.000919166               0.001301766               0.000382600               0.000000000               0.000000000               0.000000000               0.000000000              -0.000978799               0.003480419               0.000907396              -0.000802100               0.001427495               0.000625394               0.000000000               0.000000000               0.000000000               0.000000000              -0.000529894               0.003884691               0.000846535              -0.000684295               0.001522982               0.000838687               0.000000000               0.000000000               0.000000000               0.000000000              -0.000088644               0.004213752               0.000791324              -0.000559960               0.001591223               0.001031263               0.000000000               0.000000000               0.000000000               0.000000000               0.000359029               0.004476582               0.000733853              -0.000424936               0.001633824               0.001208888               0.000000000               0.000000000               0.000000000               0.000000000               0.000835726               0.004690194               0.000669244              -0.000272877               0.001654341               0.001381464               0.000000000               0.000000000               0.000000000               0.000000000               0.001353985               0.004849690               0.000594818              -0.000098467               0.001649369               0.001550903               0.000000000               0.000000000               0.000000000               0.000000000               0.001925510               0.004949351               0.000504632               0.000103396               0.001615302               0.001718698               0.000000000               0.000000000               0.000000000               0.000000000               0.002570734               0.005001841               0.000385834               0.000338792               0.001554333               0.001893125               0.000000000               0.000000000               0.000000000               0.000000000               0.003310588               0.005011081               0.000219254               0.000615079               0.001465317               0.002080396               0.000000000               0.000000000               0.000000000               0.000000000               0.003877779               0.005064574               0.000132621               0.000821087               0.001414479               0.002235566               0.000000000               0.000000000               0.000000000               0.000000000              -0.013432641              -0.001211123              -0.000000000              -0.004885847               0.001224900              -0.003660947               0.000000000               0.000000000               0.000000000               0.000000000              -0.009041817              -0.000653776              -0.000000000              -0.003308957               0.000885054              -0.002423903               0.000000000               0.000000000               0.000000000               0.000000000              -0.005590641              -0.000322128               0.000000000              -0.002056223               0.000578028              -0.001478195               0.000000000               0.000000000               0.000000000               0.000000000              -0.003757902               0.000493612              -0.000000000              -0.001470913               0.000654837              -0.000816076               0.000000000               0.000000000               0.000000000               0.000000000              -0.002649055               0.001332372              -0.000000000              -0.001159940               0.000830765              -0.000329175               0.000000000               0.000000000               0.000000000               0.000000000              -0.001907678               0.002081660               0.000000000              -0.000975585               0.001019074               0.000043490               0.000000000               0.000000000               0.000000000               0.000000000              -0.001351806               0.002716699              -0.000000000              -0.000846513               0.001187728               0.000341215               0.000000000               0.000000000               0.000000000               0.000000000              -0.000874589               0.003242870              -0.000000000              -0.000733328               0.001325389               0.000592061               0.000000000               0.000000000               0.000000000               0.000000000              -0.000423302               0.003679717              -0.000000000              -0.000618701               0.001432794               0.000814092               0.000000000               0.000000000               0.000000000               0.000000000               0.000018019               0.004035743               0.000000000              -0.000497710               0.001511137               0.001013428               0.000000000               0.000000000               0.000000000               0.000000000               0.000468125               0.004323548               0.000000000              -0.000364896               0.001562800               0.001197904               0.000000000               0.000000000               0.000000000               0.000000000               0.000951806               0.004564729              -0.000000000              -0.000213663               0.001592782               0.001379119               0.000000000               0.000000000               0.000000000               0.000000000               0.001485677               0.004754369               0.000000000              -0.000037168               0.001597163               0.001559995               0.000000000               0.000000000               0.000000000               0.000000000               0.002085264               0.004886543              -0.000000000               0.000171155               0.001571780               0.001742934               0.000000000               0.000000000               0.000000000               0.000000000               0.002776316               0.004968210               0.000000000               0.000420088               0.001516024               0.001936112               0.000000000               0.000000000               0.000000000               0.000000000               0.003594162               0.004995966               0.000000000               0.000723308               0.001424203               0.002147510               0.000000000               0.000000000               0.000000000               0.000000000               0.004240702               0.005065319              -0.000000000               0.000957089               0.001369393               0.002326482               0.000000000               0.000000000               0.000000000               0.000000000               0.002251214               0.024282076              -0.000000000              -0.002191049               0.008824294               0.006633245               0.000000000               0.000000000               0.000000000               0.000000000               0.002184772               0.018795867              -0.000000000              -0.001530190               0.006775290               0.005245100               0.000000000               0.000000000               0.000000000               0.000000000               0.002827640               0.014320308               0.000000000              -0.000729672               0.005016612               0.004286941               0.000000000               0.000000000               0.000000000               0.000000000               0.002644677               0.011781135               0.000000000              -0.000480887               0.004087301               0.003606414               0.000000000               0.000000000               0.000000000               0.000000000               0.002228767               0.010172663              -0.000000000              -0.000435794               0.003536119               0.003100324               0.000000000               0.000000000               0.000000000               0.000000000               0.001775396               0.009050984               0.000000000              -0.000465598               0.003172164               0.002706566               0.000000000               0.000000000               0.000000000               0.000000000               0.001350225               0.008195213               0.000000000              -0.000518066               0.002904399               0.002386333               0.000000000               0.000000000               0.000000000               0.000000000               0.000980971               0.007501697              -0.000000000              -0.000569847               0.002690490               0.002120643               0.000000000               0.000000000               0.000000000               0.000000000               0.000661191               0.006902351               0.000000000              -0.000614846               0.002505709               0.001890863               0.000000000               0.000000000               0.000000000               0.000000000               0.000388928               0.006354796               0.000000000              -0.000648500               0.002334411               0.001685911               0.000000000               0.000000000               0.000000000               0.000000000               0.000173553               0.005826429              -0.000000000              -0.000663219               0.002163197               0.001499977               0.000000000               0.000000000               0.000000000               0.000000000               0.000015500               0.005296281              -0.000000000              -0.000656221               0.001984150               0.001327929               0.000000000               0.000000000               0.000000000               0.000000000              -0.000093584               0.004744240              -0.000000000              -0.000628122               0.001790772               0.001162649               0.000000000               0.000000000               0.000000000               0.000000000              -0.000147949               0.004152603               0.000000000              -0.000574555               0.001575706               0.001001151               0.000000000               0.000000000               0.000000000               0.000000000              -0.000142711               0.003504706               0.000000000              -0.000491604               0.001332092               0.000840488               0.000000000               0.000000000               0.000000000               0.000000000              -0.000085091               0.002765520               0.000000000              -0.000377598               0.001047697               0.000670099               0.000000000               0.000000000               0.000000000               0.000000000              -0.000106069               0.002192442               0.000000000              -0.000313830               0.000835417               0.000521586               0.000000000               0.000000000               0.000000000               0.000000000               0.002330167               0.023779933              -0.001635821              -0.002098674               0.008626123               0.006527449               0.000000000               0.000000000               0.000000000               0.000000000               0.002130081               0.018467015              -0.000776677              -0.001509593               0.006658808               0.005149215               0.000000000               0.000000000               0.000000000               0.000000000               0.002633451               0.014184385               0.000071872              -0.000785502               0.004989915               0.004204413               0.000000000               0.000000000               0.000000000               0.000000000               0.002399678               0.011746663               0.000424285              -0.000568453               0.004104999               0.003536547               0.000000000               0.000000000               0.000000000               0.000000000               0.001974370               0.010193371               0.000564275              -0.000533782               0.003575684               0.003041902               0.000000000               0.000000000               0.000000000               0.000000000               0.001530357               0.009099171               0.000606168              -0.000563511               0.003220864               0.002657352               0.000000000               0.000000000               0.000000000               0.000000000               0.001120957               0.008258017               0.000605364              -0.000611892               0.002956609               0.002344717               0.000000000               0.000000000               0.000000000               0.000000000               0.000770969               0.007566677               0.000587827              -0.000656720               0.002741107               0.002084387               0.000000000               0.000000000               0.000000000               0.000000000               0.000482516               0.006969455               0.000563479              -0.000690237               0.002553207               0.001862971               0.000000000               0.000000000               0.000000000               0.000000000               0.000243932               0.006422081               0.000533692              -0.000711284               0.002377767               0.001666483               0.000000000               0.000000000               0.000000000               0.000000000               0.000058442               0.005894060               0.000500065              -0.000714840               0.002202947               0.001488107               0.000000000               0.000000000               0.000000000               0.000000000              -0.000072656               0.005367226               0.000463545              -0.000698148               0.002021774               0.001323626               0.000000000               0.000000000               0.000000000               0.000000000              -0.000154534               0.004825035               0.000418452              -0.000661078               0.001828688               0.001167610               0.000000000               0.000000000               0.000000000               0.000000000              -0.000182912               0.004255712               0.000361252              -0.000600555               0.001618741               0.001018187               0.000000000               0.000000000               0.000000000               0.000000000              -0.000160010               0.003642711               0.000279076              -0.000515341               0.001386005               0.000870664               0.000000000               0.000000000               0.000000000               0.000000000              -0.000093265               0.002965334               0.000158795              -0.000405640               0.001123648               0.000718008               0.000000000               0.000000000               0.000000000               0.000000000              -0.000105107               0.002453446               0.000099913              -0.000346095               0.000933172               0.000587077               0.000000000               0.000000000               0.000000000               0.000000000               0.002509111               0.022334196              -0.003033020              -0.001850855               0.008061609               0.006210754               0.000000000               0.000000000               0.000000000               0.000000000               0.001951672               0.017538261              -0.001433023              -0.001460403               0.006332829               0.004872427               0.000000000               0.000000000               0.000000000               0.000000000               0.002077191               0.013801853               0.000132851              -0.000946283               0.004915999               0.003969716               0.000000000               0.000000000               0.000000000               0.000000000               0.001708484               0.011646824               0.000759129              -0.000815170               0.004153959               0.003338789               0.000000000               0.000000000               0.000000000               0.000000000               0.001260661               0.010238714               0.000993443              -0.000807090               0.003681901               0.002874811               0.000000000               0.000000000               0.000000000               0.000000000               0.000850317               0.009216725               0.001055640              -0.000833220               0.003349951               0.002516731               0.000000000               0.000000000               0.000000000               0.000000000               0.000504351               0.008410371               0.001044959              -0.000862163               0.003090817               0.002228654               0.000000000               0.000000000               0.000000000               0.000000000               0.000224723               0.007730678               0.001011176              -0.000882062               0.002870887               0.001988826               0.000000000               0.000000000               0.000000000               0.000000000               0.000012790               0.007136173               0.000969011              -0.000887223               0.002674442               0.001787218               0.000000000               0.000000000               0.000000000               0.000000000              -0.000137594               0.006588706               0.000914750              -0.000875184               0.002487941               0.001612757               0.000000000               0.000000000               0.000000000               0.000000000              -0.000236837               0.006062038               0.000851933              -0.000846567               0.002302848               0.001456281               0.000000000               0.000000000               0.000000000               0.000000000              -0.000291404               0.005544378               0.000782034              -0.000802322               0.002115548               0.001313226               0.000000000               0.000000000               0.000000000               0.000000000              -0.000299888               0.005028652               0.000698772              -0.000741038               0.001923213               0.001182175               0.000000000               0.000000000               0.000000000               0.000000000              -0.000265557               0.004510745               0.000593894              -0.000663426               0.001724708               0.001061283               0.000000000               0.000000000               0.000000000               0.000000000              -0.000195559               0.003989482               0.000449934              -0.000572018               0.001520487               0.000948468               0.000000000               0.000000000               0.000000000               0.000000000              -0.000101270               0.003466594               0.000251908              -0.000471299               0.001312619               0.000841320               0.000000000               0.000000000               0.000000000               0.000000000              -0.000089209               0.003103221               0.000153443              -0.000421355               0.001174848               0.000753493               0.000000000               0.000000000               0.000000000               0.000000000               0.002664783               0.020126407              -0.004011242              -0.001516506               0.007214237               0.005697730               0.000000000               0.000000000               0.000000000               0.000000000               0.001615384               0.016156921              -0.001891602              -0.001413844               0.005856868               0.004443024               0.000000000               0.000000000               0.000000000               0.000000000               0.001220722               0.013241760               0.000151538              -0.001197446               0.004813025               0.003615578               0.000000000               0.000000000               0.000000000               0.000000000               0.000696977               0.011482835               0.000918776              -0.001173985               0.004218902               0.003044916               0.000000000               0.000000000               0.000000000               0.000000000               0.000251996               0.010268299               0.001184447              -0.001189036               0.003819077               0.002630041               0.000000000               0.000000000               0.000000000               0.000000000              -0.000083109               0.009337521               0.001243366              -0.001198353               0.003511927               0.002313573               0.000000000               0.000000000               0.000000000               0.000000000              -0.000320624               0.008572782               0.001219772              -0.001191829               0.003254842               0.002063013               0.000000000               0.000000000               0.000000000               0.000000000              -0.000478472               0.007914186               0.001172537              -0.001168698               0.003027601               0.001858904               0.000000000               0.000000000               0.000000000               0.000000000              -0.000570984               0.007319205               0.001117959              -0.001129017               0.002816049               0.001687032               0.000000000               0.000000000               0.000000000               0.000000000              -0.000608845               0.006764239               0.001047310              -0.001073845               0.002612672               0.001538827               0.000000000               0.000000000               0.000000000               0.000000000              -0.000603908               0.006236350               0.000965258              -0.001006007               0.002414098               0.001408091               0.000000000               0.000000000               0.000000000               0.000000000              -0.000556879               0.005734054               0.000874411              -0.000925584               0.002219860               0.001294276               0.000000000               0.000000000               0.000000000               0.000000000              -0.000472643               0.005255944               0.000764912              -0.000834232               0.002030041               0.001195809               0.000000000               0.000000000               0.000000000               0.000000000              -0.000362729               0.004804143               0.000632527              -0.000736539               0.001846878               0.001110339               0.000000000               0.000000000               0.000000000               0.000000000              -0.000237463               0.004391986               0.000464622              -0.000638045               0.001676662               0.001038617               0.000000000               0.000000000               0.000000000               0.000000000              -0.000113223               0.004037664               0.000250573              -0.000547165               0.001528263               0.000981098               0.000000000               0.000000000               0.000000000               0.000000000              -0.000075656               0.003827377               0.000144279              -0.000506792               0.001444710               0.000937918               0.000000000               0.000000000               0.000000000               0.000000000               0.002654037               0.017426884              -0.004475919              -0.001183097               0.006203268               0.005020171               0.000000000               0.000000000               0.000000000               0.000000000               0.001095132               0.014505331              -0.002134177              -0.001402490               0.005302558               0.003900069               0.000000000               0.000000000               0.000000000               0.000000000               0.000159105               0.012572498               0.000082842              -0.001511894               0.004694755               0.003182861               0.000000000               0.000000000               0.000000000               0.000000000              -0.000460158               0.011244068               0.000855627              -0.001578064               0.004274007               0.002695943               0.000000000               0.000000000               0.000000000               0.000000000              -0.000833064               0.010224686               0.001100142              -0.001590481               0.003938355               0.002347874               0.000000000               0.000000000               0.000000000               0.000000000              -0.001040036               0.009380057               0.001143861              -0.001562517               0.003647493               0.002084976               0.000000000               0.000000000               0.000000000               0.000000000              -0.001133842               0.008655125               0.001116035              -0.001507078               0.003387372               0.001880294               0.000000000               0.000000000               0.000000000               0.000000000              -0.001150166               0.008008212               0.001066355              -0.001432335               0.003146822               0.001714487               0.000000000               0.000000000               0.000000000               0.000000000              -0.001109298               0.007413474               0.001008340              -0.001342668               0.002918689               0.001576021               0.000000000               0.000000000               0.000000000               0.000000000              -0.001022789               0.006853276               0.000936828              -0.001240203               0.002697803               0.001457601               0.000000000               0.000000000               0.000000000               0.000000000              -0.000902125               0.006329284               0.000854067              -0.001129455               0.002486225               0.001356770               0.000000000               0.000000000               0.000000000               0.000000000              -0.000755681               0.005846653               0.000760390              -0.001014210               0.002286935               0.001272725               0.000000000               0.000000000               0.000000000               0.000000000              -0.000592994               0.005409458               0.000645925              -0.000898553               0.002102652               0.001204099               0.000000000               0.000000000               0.000000000               0.000000000              -0.000423876               0.005025425               0.000512356              -0.000787130               0.001937501               0.001150372               0.000000000               0.000000000               0.000000000               0.000000000              -0.000262149               0.004708237               0.000359449              -0.000686834               0.001798341               0.001111507               0.000000000               0.000000000               0.000000000               0.000000000              -0.000123037               0.004477417               0.000185567              -0.000605815               0.001694396               0.001088581               0.000000000               0.000000000               0.000000000               0.000000000              -0.000072177               0.004365615               0.000101732              -0.000572767               0.001646113               0.001073346               0.000000000               0.000000000               0.000000000               0.000000000               0.002340208               0.014511907              -0.004448158              -0.000936412               0.005149390               0.004212978               0.000000000               0.000000000               0.000000000               0.000000000               0.000389306               0.012754130              -0.002202608              -0.001448274               0.004734092               0.003285817               0.000000000               0.000000000               0.000000000               0.000000000              -0.000976380               0.011837983              -0.000106148              -0.001845886               0.004561250               0.002715364               0.000000000               0.000000000               0.000000000               0.000000000              -0.001580998               0.010909899               0.000573940              -0.001956607               0.004288799               0.002332192               0.000000000               0.000000000               0.000000000               0.000000000              -0.001810160               0.010054201               0.000778572              -0.001935580               0.003996560               0.002060980               0.000000000               0.000000000               0.000000000               0.000000000              -0.001842581               0.009282769               0.000818788              -0.001851309               0.003711328               0.001860019               0.000000000               0.000000000               0.000000000               0.000000000              -0.001773920               0.008585570               0.000804202              -0.001738412               0.003441299               0.001702887               0.000000000               0.000000000               0.000000000               0.000000000              -0.001648467               0.007946421               0.000774063              -0.001611474               0.003185938               0.001574465               0.000000000               0.000000000               0.000000000               0.000000000              -0.001478345               0.007356358               0.000731546              -0.001473921               0.002943402               0.001469481               0.000000000               0.000000000               0.000000000               0.000000000              -0.001280991               0.006801105               0.000670698              -0.001330506               0.002710514               0.001380008               0.000000000               0.000000000               0.000000000               0.000000000              -0.001066493               0.006290717               0.000602091              -0.001186271               0.002492308               0.001306037               0.000000000               0.000000000               0.000000000               0.000000000              -0.000841333               0.005838648               0.000524871              -0.001045328               0.002294639               0.001249311               0.000000000               0.000000000               0.000000000               0.000000000              -0.000622369               0.005448312               0.000430487              -0.000914425               0.002120894               0.001206469               0.000000000               0.000000000               0.000000000               0.000000000              -0.000418569               0.005130682               0.000324562              -0.000798297               0.001976309               0.001178012               0.000000000               0.000000000               0.000000000               0.000000000              -0.000242966               0.004892531               0.000213546              -0.000702677               0.001865053               0.001162376               0.000000000               0.000000000               0.000000000               0.000000000              -0.000108827               0.004738688               0.000103300              -0.000633144               0.001790595               0.001157451               0.000000000               0.000000000               0.000000000               0.000000000              -0.000059104               0.004676565               0.000054093              -0.000606733               0.001761084               0.001154351               0.000000000               0.000000000               0.000000000               0.000000000               0.001662197               0.011627421              -0.004018277              -0.000830105               0.004152469               0.003322364               0.000000000               0.000000000               0.000000000               0.000000000              -0.000462886               0.011046538              -0.002154343              -0.001554397               0.004200274               0.002645877               0.000000000               0.000000000               0.000000000               0.000000000              -0.002064675               0.011065243              -0.000417028              -0.002157403               0.004407512               0.002250109               0.000000000               0.000000000               0.000000000               0.000000000              -0.002527795               0.010464047               0.000128037              -0.002255923               0.004239955               0.001984032               0.000000000               0.000000000               0.000000000               0.000000000              -0.002553347               0.009738236               0.000311019              -0.002174779               0.003970973               0.001796193               0.000000000               0.000000000               0.000000000               0.000000000              -0.002398632               0.009027313               0.000372179              -0.002027896               0.003685040               0.001657143               0.000000000               0.000000000               0.000000000               0.000000000              -0.002169013               0.008354956               0.000391520              -0.001857745               0.003404206               0.001546461               0.000000000               0.000000000               0.000000000               0.000000000              -0.001909427               0.007726201               0.000394556              -0.001681806               0.003135976               0.001454170               0.000000000               0.000000000               0.000000000               0.000000000              -0.001634119               0.007140811               0.000380519              -0.001505392               0.002882044               0.001376652               0.000000000               0.000000000               0.000000000               0.000000000              -0.001346450               0.006604662               0.000346396              -0.001330498               0.002645032               0.001314533               0.000000000               0.000000000               0.000000000               0.000000000              -0.001058812               0.006129761               0.000310503              -0.001163272               0.002430990               0.001267719               0.000000000               0.000000000               0.000000000               0.000000000              -0.000782097               0.005727563               0.000269678              -0.001009229               0.002245578               0.001236349               0.000000000               0.000000000               0.000000000               0.000000000              -0.000537034               0.005399144               0.000214523              -0.000876278               0.002091789               0.001215511               0.000000000               0.000000000               0.000000000               0.000000000              -0.000334846               0.005148263               0.000152323              -0.000769098               0.001972436               0.001203338               0.000000000               0.000000000               0.000000000               0.000000000              -0.000180079               0.004975861               0.000088798              -0.000689510               0.001888441               0.001198930               0.000000000               0.000000000               0.000000000               0.000000000              -0.000074295               0.004879997               0.000035456              -0.000637859               0.001839269               0.001201410               0.000000000               0.000000000               0.000000000               0.000000000              -0.000037160               0.004848775               0.000015723              -0.000620030               0.001822919               0.001202889               0.000000000               0.000000000               0.000000000               0.000000000               0.000654544               0.008960642              -0.003292516              -0.000874627               0.003278392               0.002403765               0.000000000               0.000000000               0.000000000               0.000000000              -0.001408017               0.009480600              -0.002039127              -0.001713078               0.003731194               0.002018116               0.000000000               0.000000000               0.000000000               0.000000000              -0.002998665               0.010258635              -0.000830801              -0.002406823               0.004221785               0.001814962               0.000000000               0.000000000               0.000000000               0.000000000              -0.003218469               0.009905082              -0.000404273              -0.002445055               0.004116679               0.001671624               0.000000000               0.000000000               0.000000000               0.000000000              -0.003011915               0.009292805              -0.000209403              -0.002291063               0.003861258               0.001570195               0.000000000               0.000000000               0.000000000               0.000000000              -0.002676797               0.008635658              -0.000104513              -0.002083251               0.003572941               0.001489690               0.000000000               0.000000000               0.000000000               0.000000000              -0.002312095               0.007988715              -0.000041037              -0.001865621               0.003284752               0.001419131               0.000000000               0.000000000               0.000000000               0.000000000              -0.001942846               0.007378549               0.000004736              -0.001650882               0.003009786               0.001358904               0.000000000               0.000000000               0.000000000               0.000000000              -0.001574996               0.006819604               0.000034409              -0.001443070               0.002754202               0.001311132               0.000000000               0.000000000               0.000000000               0.000000000              -0.001215386               0.006320856               0.000046677              -0.001245874               0.002522222               0.001276349               0.000000000               0.000000000               0.000000000               0.000000000              -0.000880427               0.005898830               0.000058398              -0.001067511               0.002322094               0.001254583               0.000000000               0.000000000               0.000000000               0.000000000              -0.000588509               0.005556890               0.000065290              -0.000915300               0.002157378               0.001242078               0.000000000               0.000000000               0.000000000               0.000000000              -0.000356954               0.005293929               0.000054131              -0.000795597               0.002029824               0.001234228               0.000000000               0.000000000               0.000000000               0.000000000              -0.000190128               0.005109836               0.000033039              -0.000710026               0.001939937               0.001229911               0.000000000               0.000000000               0.000000000               0.000000000              -0.000084142               0.005001260               0.000011863              -0.000656709               0.001885973               0.001229264               0.000000000               0.000000000               0.000000000               0.000000000              -0.000028006               0.004956307              -0.000000847              -0.000630039               0.001862099               0.001232060               0.000000000               0.000000000               0.000000000               0.000000000              -0.000011310               0.004947660              -0.000002971              -0.000622697               0.001856769               0.001234072               0.000000000               0.000000000               0.000000000               0.000000000              -0.000554091               0.006703862              -0.002398831              -0.001045766               0.002583186               0.001537420               0.000000000               0.000000000               0.000000000               0.000000000              -0.002331677               0.008074916              -0.001903153              -0.001883739               0.003319524               0.001435785               0.000000000               0.000000000               0.000000000               0.000000000              -0.003722553               0.009445714              -0.001318208              -0.002576665               0.004007428               0.001430763               0.000000000               0.000000000               0.000000000               0.000000000              -0.003682073               0.009352780              -0.000966417              -0.002549869               0.003967518               0.001417650               0.000000000               0.000000000               0.000000000               0.000000000              -0.003286064               0.008879997              -0.000736863              -0.002342268               0.003740725               0.001398457               0.000000000               0.000000000               0.000000000               0.000000000              -0.002809955               0.008298528              -0.000579520              -0.002091044               0.003463163               0.001372119               0.000000000               0.000000000               0.000000000               0.000000000              -0.002337033               0.007702331              -0.000463607              -0.001839174               0.003180476               0.001341302               0.000000000               0.000000000               0.000000000               0.000000000              -0.001883632               0.007137499              -0.000367820              -0.001598546               0.002911991               0.001313445               0.000000000               0.000000000               0.000000000               0.000000000              -0.001442208               0.006616824              -0.000287588              -0.001367928               0.002661562               0.001293634               0.000000000               0.000000000               0.000000000               0.000000000              -0.001027442               0.006156311              -0.000219445              -0.001154827               0.002437025               0.001282199               0.000000000               0.000000000               0.000000000               0.000000000              -0.000664863               0.005778076              -0.000154060              -0.000971580               0.002249866               0.001278286               0.000000000               0.000000000               0.000000000               0.000000000              -0.000378946               0.005475194              -0.000097330              -0.000826502               0.002100547               0.001274045               0.000000000               0.000000000               0.000000000               0.000000000              -0.000176731               0.005245025              -0.000059699              -0.000721900               0.001988958               0.001267057               0.000000000               0.000000000               0.000000000               0.000000000              -0.000050585               0.005094442              -0.000036095              -0.000655773               0.001916721               0.001260949               0.000000000               0.000000000               0.000000000               0.000000000               0.000013958               0.005018953              -0.000019569              -0.000622133               0.001880345               0.001258212               0.000000000               0.000000000               0.000000000               0.000000000               0.000030056               0.004994329              -0.000007612              -0.000613019               0.001869099               0.001256081               0.000000000               0.000000000               0.000000000               0.000000000               0.000026367               0.004991618              -0.000002455              -0.000614063               0.001868544               0.001254481               0.000000000               0.000000000               0.000000000               0.000000000              -0.001963257               0.004604964              -0.001454496              -0.001311839               0.001972252               0.000660413               0.000000000               0.000000000               0.000000000               0.000000000              -0.003104456               0.006442349              -0.001746861              -0.001969460               0.002803914               0.000834454               0.000000000               0.000000000               0.000000000               0.000000000              -0.004143790               0.008237850              -0.001827048              -0.002583646               0.003607137               0.001023491               0.000000000               0.000000000               0.000000000               0.000000000              -0.003964146               0.008538976              -0.001564248              -0.002553921               0.003697604               0.001143683               0.000000000               0.000000000               0.000000000               0.000000000              -0.003494248               0.008335020              -0.001301835              -0.002352215               0.003562384               0.001210169               0.000000000               0.000000000               0.000000000               0.000000000              -0.002967671               0.007948942              -0.001090837              -0.002106489               0.003351784               0.001245294               0.000000000               0.000000000               0.000000000               0.000000000              -0.002454801               0.007498024              -0.000917719              -0.001857799               0.003118582               0.001260784               0.000000000               0.000000000               0.000000000               0.000000000              -0.001972791               0.007043817              -0.000775676              -0.001620270               0.002888005               0.001267735               0.000000000               0.000000000               0.000000000               0.000000000              -0.001514986               0.006615734              -0.000651635              -0.001395083               0.002670250               0.001275167               0.000000000               0.000000000               0.000000000               0.000000000              -0.001080893               0.006226234              -0.000531503              -0.001183611               0.002469928               0.001286317               0.000000000               0.000000000               0.000000000               0.000000000              -0.000694151               0.005883565              -0.000412984              -0.000995750               0.002293085               0.001297336               0.000000000               0.000000000               0.000000000               0.000000000              -0.000379871               0.005598163              -0.000301822              -0.000842220               0.002146776               0.001304556               0.000000000               0.000000000               0.000000000               0.000000000              -0.000150617               0.005367498              -0.000206990              -0.000727417               0.002031620               0.001304203               0.000000000               0.000000000               0.000000000               0.000000000              -0.000005290               0.005193263              -0.000128978              -0.000651140               0.001948117               0.001296977               0.000000000               0.000000000               0.000000000               0.000000000               0.000067611               0.005078957              -0.000065992              -0.000609514               0.001896140               0.001286626               0.000000000               0.000000000               0.000000000               0.000000000               0.000087380               0.005020457              -0.000022677              -0.000594788               0.001871732               0.001276944               0.000000000               0.000000000               0.000000000               0.000000000               0.000082247               0.005003634              -0.000005264              -0.000594610               0.001866065               0.001271454               0.000000000               0.000000000               0.000000000               0.000000000              -0.003755201               0.002704926              -0.000527026              -0.001746313               0.001483736              -0.000262577               0.000000000               0.000000000               0.000000000               0.000000000              -0.003973438               0.004797133              -0.001518626              -0.002089676               0.002295586               0.000205910               0.000000000               0.000000000               0.000000000               0.000000000              -0.004469559               0.006820922              -0.002230611              -0.002528694               0.003116515               0.000587821               0.000000000               0.000000000               0.000000000               0.000000000              -0.004166323               0.007494146              -0.002129648              -0.002499134               0.003331068               0.000831934               0.000000000               0.000000000               0.000000000               0.000000000              -0.003657200               0.007605037              -0.001875171              -0.002322075               0.003309011               0.000986937               0.000000000               0.000000000               0.000000000               0.000000000              -0.003112169               0.007461524              -0.001629957              -0.002099749               0.003187066               0.001087317               0.000000000               0.000000000               0.000000000               0.000000000              -0.002579518               0.007197452              -0.001415537              -0.001866996               0.003021458               0.001154462               0.000000000               0.000000000               0.000000000               0.000000000              -0.002076515               0.006896591              -0.001231958              -0.001640763               0.002845761               0.001204998               0.000000000               0.000000000               0.000000000               0.000000000              -0.001607617               0.006593760              -0.001069628              -0.001427073               0.002673589               0.001246516               0.000000000               0.000000000               0.000000000               0.000000000              -0.001163426               0.006293730              -0.000914721              -0.001222998               0.002505555               0.001282557               0.000000000               0.000000000               0.000000000               0.000000000              -0.000750273               0.006002141              -0.000756922              -0.001031617               0.002344566               0.001312949               0.000000000               0.000000000               0.000000000               0.000000000              -0.000390514               0.005739572              -0.000598310              -0.000863887               0.002201134               0.001337247               0.000000000               0.000000000               0.000000000               0.000000000              -0.000109785               0.005509834              -0.000445527              -0.000729897               0.002079892               0.001349995               0.000000000               0.000000000               0.000000000               0.000000000               0.000082719               0.005311512              -0.000303854              -0.000632918               0.001981459               0.001348541               0.000000000               0.000000000               0.000000000               0.000000000               0.000189184               0.005155034              -0.000177392              -0.000573434               0.001909472               0.001336038               0.000000000               0.000000000               0.000000000               0.000000000               0.000219947               0.005053448              -0.000075447              -0.000549200               0.001867532               0.001318333               0.000000000               0.000000000               0.000000000               0.000000000               0.000208500               0.005012117              -0.000028895              -0.000548326               0.001853464               0.001305138               0.000000000               0.000000000               0.000000000               0.000000000              -0.005816967               0.001161476               0.000298615              -0.002326544               0.001162666              -0.001163879               0.000000000               0.000000000               0.000000000               0.000000000              -0.004991407               0.003251626              -0.001201068              -0.002278227               0.001843271              -0.000434955               0.000000000               0.000000000               0.000000000               0.000000000              -0.004739547               0.005215868              -0.002411308              -0.002429308               0.002548374               0.000119065               0.000000000               0.000000000               0.000000000               0.000000000              -0.004227943               0.006138486              -0.002514083              -0.002352784               0.002830402               0.000477618               0.000000000               0.000000000               0.000000000               0.000000000              -0.003659824               0.006535366              -0.002324853              -0.002189350               0.002908216               0.000718866               0.000000000               0.000000000               0.000000000               0.000000000              -0.003100292               0.006646392              -0.002084476              -0.001993404               0.002879909               0.000886505               0.000000000               0.000000000               0.000000000               0.000000000              -0.002562495               0.006603274              -0.001851953              -0.001786341               0.002796516               0.001010175               0.000000000               0.000000000               0.000000000               0.000000000              -0.002055468               0.006487889              -0.001644086              -0.001581783               0.002689869               0.001108086               0.000000000               0.000000000               0.000000000               0.000000000              -0.001575860               0.006338370              -0.001462134              -0.001383241               0.002573849               0.001190608               0.000000000               0.000000000               0.000000000               0.000000000              -0.001122027               0.006161992              -0.001289451              -0.001191006               0.002450979               0.001259972               0.000000000               0.000000000               0.000000000               0.000000000              -0.000695220               0.005962892              -0.001112150              -0.001006067               0.002322966               0.001316899               0.000000000               0.000000000               0.000000000               0.000000000              -0.000303661               0.005756442              -0.000925170              -0.000833426               0.002196603               0.001363177               0.000000000               0.000000000               0.000000000               0.000000000               0.000027232               0.005551064              -0.000733168              -0.000683669               0.002078226               0.001394557               0.000000000               0.000000000               0.000000000               0.000000000               0.000279648               0.005359965              -0.000540872              -0.000565126               0.001975013               0.001409886               0.000000000               0.000000000               0.000000000               0.000000000               0.000442337               0.005197969              -0.000348113              -0.000483869               0.001893928               0.001410060               0.000000000               0.000000000               0.000000000               0.000000000               0.000504679               0.005078867              -0.000165171              -0.000445603               0.001841473               0.001395870               0.000000000               0.000000000               0.000000000               0.000000000               0.000495517               0.005024916              -0.000074871              -0.000442294               0.001822387               0.001380092               0.000000000               0.000000000               0.000000000               0.000000000              -0.008003235               0.000052877               0.000898983              -0.003007820               0.001020225              -0.001987595               0.000000000               0.000000000               0.000000000               0.000000000              -0.006101483               0.001885983              -0.000842049              -0.002523800               0.001469917              -0.001053883               0.000000000               0.000000000               0.000000000               0.000000000              -0.004980783               0.003556856              -0.002335673              -0.002312397               0.001956403              -0.000355993               0.000000000               0.000000000               0.000000000               0.000000000              -0.004173175               0.004593944              -0.002624722              -0.002139179               0.002244358               0.000105178               0.000000000               0.000000000               0.000000000               0.000000000              -0.003508359               0.005211695              -0.002536780              -0.001967093               0.002392911               0.000425818               0.000000000               0.000000000               0.000000000               0.000000000              -0.002927475               0.005560321              -0.002340405              -0.001792840               0.002451034               0.000658194               0.000000000               0.000000000               0.000000000               0.000000000              -0.002394367               0.005745556              -0.002121142              -0.001616079               0.002453859               0.000837779               0.000000000               0.000000000               0.000000000               0.000000000              -0.001890292               0.005831145              -0.001914581              -0.001437750               0.002422945               0.000985195               0.000000000               0.000000000               0.000000000               0.000000000              -0.001414829               0.005845316              -0.001731392              -0.001261223               0.002368827               0.001107603               0.000000000               0.000000000               0.000000000               0.000000000              -0.000960577               0.005807310              -0.001557692              -0.001086128               0.002297793               0.001211665               0.000000000               0.000000000               0.000000000               0.000000000              -0.000523567               0.005725487              -0.001380955              -0.000912022               0.002212484               0.001300462               0.000000000               0.000000000               0.000000000               0.000000000              -0.000105519               0.005610220              -0.001191846              -0.000740846               0.002117003               0.001376157               0.000000000               0.000000000               0.000000000               0.000000000               0.000279536               0.005473736              -0.000989475              -0.000579390               0.002017690               0.001438300               0.000000000               0.000000000               0.000000000               0.000000000               0.000610147               0.005330451              -0.000773359              -0.000437500               0.001922633               0.001485132               0.000000000               0.000000000               0.000000000               0.000000000               0.000863496               0.005197728              -0.000533005              -0.000325905               0.001841194               0.001515289               0.000000000               0.000000000               0.000000000               0.000000000               0.001015016               0.005090889              -0.000271337              -0.000255729               0.001782189               0.001526460               0.000000000               0.000000000               0.000000000               0.000000000               0.001057854               0.005043342              -0.000136762              -0.000233722               0.001759004               0.001525283               0.000000000               0.000000000               0.000000000               0.000000000              -0.010097437              -0.000643798               0.001165139              -0.003706062               0.001020747              -0.002685314               0.000000000               0.000000000               0.000000000               0.000000000              -0.007205425               0.000778996              -0.000508211              -0.002799406               0.001192792              -0.001606614               0.000000000               0.000000000               0.000000000               0.000000000              -0.005205535               0.002016597              -0.002004182              -0.002204147               0.001406904              -0.000797243               0.000000000               0.000000000               0.000000000               0.000000000              -0.004044006               0.003046906              -0.002398726              -0.001897362               0.001648077              -0.000249285               0.000000000               0.000000000               0.000000000               0.000000000              -0.003249744               0.003803787              -0.002406791              -0.001694124               0.001832623               0.000138499               0.000000000               0.000000000               0.000000000               0.000000000              -0.002631115               0.004345099              -0.002279113              -0.001529803               0.001958285               0.000428482               0.000000000               0.000000000               0.000000000               0.000000000              -0.002093865               0.004726636              -0.002108010              -0.001376027               0.002034204               0.000658178               0.000000000               0.000000000               0.000000000               0.000000000              -0.001599876               0.004988810              -0.001930875              -0.001223553               0.002070770               0.000847218               0.000000000               0.000000000               0.000000000               0.000000000              -0.001138791               0.005162726              -0.001765120              -0.001072385               0.002078353               0.001005967               0.000000000               0.000000000               0.000000000               0.000000000              -0.000694073               0.005270160              -0.001611319              -0.000919046               0.002063051               0.001144005               0.000000000               0.000000000               0.000000000               0.000000000              -0.000251746               0.005320721              -0.001457752              -0.000759494               0.002026720               0.001267227               0.000000000               0.000000000               0.000000000               0.000000000               0.000190589               0.005328575              -0.001292136              -0.000594600               0.001974374               0.001379774               0.000000000               0.000000000               0.000000000               0.000000000               0.000629196               0.005300594              -0.001110149              -0.000426625               0.001909055               0.001482430               0.000000000               0.000000000               0.000000000               0.000000000               0.001048687               0.005240066              -0.000903810              -0.000261751               0.001833921               0.001572171               0.000000000               0.000000000               0.000000000               0.000000000               0.001429471               0.005159527              -0.000653615              -0.000108889               0.001756122               0.001647232               0.000000000               0.000000000               0.000000000               0.000000000               0.001749410               0.005079926              -0.000351452               0.000021037               0.001686279               0.001707317               0.000000000               0.000000000               0.000000000               0.000000000               0.001925410               0.005056509              -0.000194662               0.000089964               0.001655498               0.001745462               0.000000000               0.000000000               0.000000000               0.000000000              -0.011849367              -0.001013158               0.001058235              -0.004316865               0.001101228              -0.003215637               0.000000000               0.000000000               0.000000000               0.000000000              -0.008159167              -0.000020731              -0.000253403              -0.003057094               0.001012114              -0.002044980               0.000000000               0.000000000               0.000000000               0.000000000              -0.005401776               0.000765902              -0.001460191              -0.002121402               0.000962427              -0.001158974               0.000000000               0.000000000               0.000000000               0.000000000              -0.003900207               0.001716302              -0.001831709              -0.001677113               0.001131130              -0.000545983               0.000000000               0.000000000               0.000000000               0.000000000              -0.002961769               0.002540882              -0.001888022              -0.001428271               0.001323041              -0.000105230               0.000000000               0.000000000               0.000000000               0.000000000              -0.002286295               0.003203629              -0.001827404              -0.001257812               0.001487136               0.000229324               0.000000000               0.000000000               0.000000000               0.000000000              -0.001737912               0.003723340              -0.001719879              -0.001117132               0.001613478               0.000496345               0.000000000               0.000000000               0.000000000               0.000000000              -0.001255707               0.004125034              -0.001594238              -0.000986518               0.001703836               0.000717319               0.000000000               0.000000000               0.000000000               0.000000000              -0.000805793               0.004437373              -0.001472216              -0.000856843               0.001764723               0.000907881               0.000000000               0.000000000               0.000000000               0.000000000              -0.000366056               0.004678469              -0.001361663              -0.000722078               0.001800166               0.001078088               0.000000000               0.000000000               0.000000000               0.000000000               0.000077873               0.004856509              -0.001251049              -0.000577861               0.001811440               0.001233579               0.000000000               0.000000000               0.000000000               0.000000000               0.000539249               0.004986838              -0.001129781              -0.000421136               0.001802641               0.001381505               0.000000000               0.000000000               0.000000000               0.000000000               0.001023635               0.005069065              -0.000993094              -0.000249770               0.001772928               0.001523158               0.000000000               0.000000000               0.000000000               0.000000000               0.001528511               0.005098673              -0.000829375              -0.000064143               0.001720922               0.001656779               0.000000000               0.000000000               0.000000000               0.000000000               0.002054234               0.005084705              -0.000620346               0.000134748               0.001649969               0.001784717               0.000000000               0.000000000               0.000000000               0.000000000               0.002596941               0.005046312              -0.000345608               0.000343060               0.001567734               0.001910794               0.000000000               0.000000000               0.000000000               0.000000000               0.002972834               0.005061074              -0.000202452               0.000482174               0.001526283               0.002008457               0.000000000               0.000000000               0.000000000               0.000000000              -0.013020266              -0.001170890               0.000626505              -0.004736236               0.001188441              -0.003547795               0.000000000               0.000000000               0.000000000               0.000000000              -0.008810038              -0.000497562              -0.000093190              -0.003241567               0.000914662              -0.002326905               0.000000000               0.000000000               0.000000000               0.000000000              -0.005539936              -0.000044379              -0.000767784              -0.002071927               0.000675845              -0.001396083               0.000000000               0.000000000               0.000000000               0.000000000              -0.003795970               0.000813340              -0.000991936              -0.001525154               0.000779492              -0.000745662               0.000000000               0.000000000               0.000000000               0.000000000              -0.002736474               0.001652431              -0.001039608              -0.001232729               0.000961713              -0.000271016               0.000000000               0.000000000               0.000000000               0.000000000              -0.002010968               0.002380050              -0.001020859              -0.001051617               0.001143881               0.000092263               0.000000000               0.000000000               0.000000000               0.000000000              -0.001455727               0.002986163              -0.000970887              -0.000919166               0.001301766               0.000382600               0.000000000               0.000000000               0.000000000               0.000000000              -0.000978799               0.003480419              -0.000907396              -0.000802100               0.001427495               0.000625394               0.000000000               0.000000000               0.000000000               0.000000000              -0.000529894               0.003884691              -0.000846535              -0.000684295               0.001522982               0.000838687               0.000000000               0.000000000               0.000000000               0.000000000              -0.000088644               0.004213752              -0.000791324              -0.000559960               0.001591223               0.001031263               0.000000000               0.000000000               0.000000000               0.000000000               0.000359029               0.004476582              -0.000733853              -0.000424936               0.001633824               0.001208888               0.000000000               0.000000000               0.000000000               0.000000000               0.000835726               0.004690194              -0.000669244              -0.000272877               0.001654341               0.001381464               0.000000000               0.000000000               0.000000000               0.000000000               0.001353985               0.004849690              -0.000594818              -0.000098467               0.001649369               0.001550903               0.000000000               0.000000000               0.000000000               0.000000000               0.001925510               0.004949351              -0.000504632               0.000103396               0.001615302               0.001718698               0.000000000               0.000000000               0.000000000               0.000000000               0.002570734               0.005001841              -0.000385834               0.000338792               0.001554333               0.001893125               0.000000000               0.000000000               0.000000000               0.000000000               0.003310588               0.005011081              -0.000219254               0.000615079               0.001465317               0.002080396               0.000000000               0.000000000               0.000000000               0.000000000               0.003877779               0.005064574              -0.000132621               0.000821087               0.001414479               0.002235566               0.000000000               0.000000000               0.000000000               0.000000000               0.000000000               0.000000000               0.000000000               0.000000000               0.000000000               0.000000000               0.000000000               0.000000000               0.000000000               0.000000000               0.000000000               0.000000000               0.000000000               0.000000000               0.000000000               0.000000000               0.000000000               0.000000000               0.000000000               0.000000000               0.000000000               0.000000000               0.000000000               0.000000000               0.000000000               0.000000000               0.000000000               0.000000000               0.000000000               0.000000000               0.000000000               0.000000000               0.000000000               0.000000000               0.000000000               0.000000000               0.000000000               0.000000000               0.000000000               0.000000000               0.000000000               0.000000000               0.000000000               0.000000000               0.000000000               0.000000000               0.000000000               0.000000000               0.000000000               0.000000000               0.000000000               0.000000000               0.000000000               0.000000000               0.000000000               0.000000000               0.000000000               0.000000000               0.000000000               0.000000000               0.000000000               0.000000000               0.000000000               0.000000000               0.000000000               0.000000000               0.000000000               0.000000000               0.000000000               0.000000000               0.000000000               0.000000000               0.000000000               0.000000000               0.000000000               0.000000000               0.000000000               0.000000000               0.000000000               0.000000000               0.000000000               0.000000000               0.000000000               0.000000000               0.000000000               0.000000000               0.000000000               0.000000000               0.000000000               0.000000000               0.000000000               0.000000000               0.000000000               0.000000000               0.000000000               0.000000000               0.000000000               0.000000000               0.000000000               0.000000000               0.000000000               0.000000000               0.000000000               0.000000000               0.000000000               0.000000000               0.000000000               0.000000000               0.000000000               0.000000000               0.000000000               0.000000000               0.000000000               0.000000000               0.000000000               0.000000000               0.000000000               0.000000000               0.000000000               0.000000000               0.000000000               0.000000000               0.000000000               0.000000000               0.000000000               0.000000000               0.000000000               0.000000000               0.000000000               0.000000000               0.000000000               0.000000000               0.000000000               0.000000000               0.000000000               0.000000000               0.000000000               0.000000000               0.000000000               0.000000000               0.000000000               0.000000000               0.000000000               0.000000000               0.000000000               0.000000000               0.000000000               0.000000000               0.000000000               0.000000000               0.000000000               0.000000000               0.000000000               0.000000000               0.000000000               0.000000000               0.000000000               0.000000000               0.000000000               0.000000000               0.000000000               0.000000000               0.000000000               0.000000000               0.000000000               0.000000000               0.000000000               0.000000000               0.000000000               0.000000000               0.000000000               0.000000000               0.000000000               0.000000000               0.000000000               0.000000000               0.000000000               0.000000000               0.000000000               0.000000000               0.000000000               0.000000000               0.000000000               0.000000000               0.000000000               0.000000000               0.000000000               0.000000000               0.000000000               0.000000000               0.000000000               0.000000000               0.000000000               0.000000000               0.000000000               0.000000000               0.000000000               0.000000000               0.000000000               0.000000000               0.000000000               0.000000000               0.000000000               0.000000000               0.000000000               0.000000000               0.000000000               0.000000000               0.000000000               0.000000000               0.000000000               0.000000000               0.000000000               0.000000000               0.000000000               0.000000000               0.000000000               0.000000000               0.000000000               0.000000000               0.000000000               0.000000000               0.000000000               0.000000000               0.000000000               0.000000000               0.000000000               0.000000000               0.000000000               0.000000000               0.000000000               0.000000000               0.000000000               0.000000000               0.000000000               0.000000000               0.000000000               0.000000000               0.000000000               0.000000000               0.000000000               0.000000000               0.000000000               0.000000000               0.000000000               0.000000000               0.000000000               0.000000000               0.000000000               0.000000000               0.000000000               0.000000000               0.000000000               0.000000000               0.000000000               0.000000000               0.000000000               0.000000000               0.000000000               0.000000000               0.000000000               0.000000000               0.000000000               0.000000000               0.000000000               0.000000000               0.000000000               0.000000000               0.000000000               0.000000000               0.000000000               0.000000000               0.000000000               0.000000000               0.000000000               0.000000000               0.000000000               0.000000000               0.000000000               0.000000000               0.000000000               0.000000000               0.000000000               0.000000000               0.000000000               0.000000000               0.000000000               0.000000000               0.000000000               0.000000000               0.000000000               0.000000000               0.000000000               0.000000000               0.000000000               0.000000000               0.000000000               0.000000000               0.000000000               0.000000000               0.000000000               0.000000000               0.000000000               0.000000000               0.000000000               0.000000000               0.000000000               0.000000000               0.000000000               0.000000000               0.000000000               0.000000000               0.000000000               0.000000000               0.000000000               0.000000000               0.000000000               0.000000000               0.000000000               0.000000000               0.000000000               0.000000000               0.000000000               0.000000000               0.000000000               0.000000000               0.000000000               0.000000000               0.000000000               0.000000000               0.000000000               0.000000000               0.000000000               0.000000000               0.000000000               0.000000000               0.000000000               0.000000000               0.000000000               0.000000000               0.002330167               0.023779933               0.001635821              -0.002098674               0.008626123               0.006527449               0.000000000               0.000000000               0.000000000               0.000000000               0.002130081               0.018467015               0.000776677              -0.001509593               0.006658808               0.005149215               0.000000000               0.000000000               0.000000000               0.000000000               0.002633451               0.014184385              -0.000071872              -0.000785502               0.004989915               0.004204413               0.000000000               0.000000000               0.000000000               0.000000000               0.002399678               0.011746663              -0.000424285              -0.000568453               0.004104999               0.003536547               0.000000000               0.000000000               0.000000000               0.000000000               0.001974370               0.010193371              -0.000564275              -0.000533782               0.003575684               0.003041902               0.000000000               0.000000000               0.000000000               0.000000000               0.001530357               0.009099171              -0.000606168              -0.000563511               0.003220864               0.002657352               0.000000000               0.000000000               0.000000000               0.000000000               0.001120957               0.008258017              -0.000605364              -0.000611892               0.002956609               0.002344717               0.000000000               0.000000000               0.000000000               0.000000000               0.000770969               0.007566677              -0.000587827              -0.000656720               0.002741107               0.002084387               0.000000000               0.000000000               0.000000000               0.000000000               0.000482516               0.006969455              -0.000563479              -0.000690237               0.002553207               0.001862971               0.000000000               0.000000000               0.000000000               0.000000000               0.000243932               0.006422081              -0.000533692              -0.000711284               0.002377767               0.001666483               0.000000000               0.000000000               0.000000000               0.000000000               0.000058442               0.005894060              -0.000500065              -0.000714840               0.002202947               0.001488107               0.000000000               0.000000000               0.000000000               0.000000000              -0.000072656               0.005367226              -0.000463545              -0.000698148               0.002021774               0.001323626               0.000000000               0.000000000               0.000000000               0.000000000              -0.000154534               0.004825035              -0.000418452              -0.000661078               0.001828688               0.001167610               0.000000000               0.000000000               0.000000000               0.000000000              -0.000182912               0.004255712              -0.000361252              -0.000600555               0.001618741               0.001018187               0.000000000               0.000000000               0.000000000               0.000000000              -0.000160010               0.003642711              -0.000279076              -0.000515341               0.001386005               0.000870664               0.000000000               0.000000000               0.000000000               0.000000000              -0.000093265               0.002965334              -0.000158795              -0.000405640               0.001123648               0.000718008               0.000000000               0.000000000               0.000000000               0.000000000              -0.000105107               0.002453446              -0.000099913              -0.000346095               0.000933172               0.000587077               0.000000000               0.000000000               0.000000000               0.000000000               0.002509111               0.022334196               0.003033020              -0.001850855               0.008061609               0.006210754               0.000000000               0.000000000               0.000000000               0.000000000               0.001951672               0.017538261               0.001433023              -0.001460403               0.006332829               0.004872427               0.000000000               0.000000000               0.000000000               0.000000000               0.002077191               0.013801853              -0.000132851              -0.000946283               0.004915999               0.003969716               0.000000000               0.000000000               0.000000000               0.000000000               0.001708484               0.011646824              -0.000759129              -0.000815170               0.004153959               0.003338789               0.000000000               0.000000000               0.000000000               0.000000000               0.001260661               0.010238714              -0.000993443              -0.000807090               0.003681901               0.002874811               0.000000000               0.000000000               0.000000000               0.000000000               0.000850317               0.009216725              -0.001055640              -0.000833220               0.003349951               0.002516731               0.000000000               0.000000000               0.000000000               0.000000000               0.000504351               0.008410371              -0.001044959              -0.000862163               0.003090817               0.002228654               0.000000000               0.000000000               0.000000000               0.000000000               0.000224723               0.007730678              -0.001011176              -0.000882062               0.002870887               0.001988826               0.000000000               0.000000000               0.000000000               0.000000000               0.000012790               0.007136173              -0.000969011              -0.000887223               0.002674442               0.001787218               0.000000000               0.000000000               0.000000000               0.000000000              -0.000137594               0.006588706              -0.000914750              -0.000875184               0.002487941               0.001612757               0.000000000               0.000000000               0.000000000               0.000000000              -0.000236837               0.006062038              -0.000851933              -0.000846567               0.002302848               0.001456281               0.000000000               0.000000000               0.000000000               0.000000000              -0.000291404               0.005544378              -0.000782034              -0.000802322               0.002115548               0.001313226               0.000000000               0.000000000               0.000000000               0.000000000              -0.000299888               0.005028652              -0.000698772              -0.000741038               0.001923213               0.001182175               0.000000000               0.000000000               0.000000000               0.000000000              -0.000265557               0.004510745              -0.000593894              -0.000663426               0.001724708               0.001061283               0.000000000               0.000000000               0.000000000               0.000000000              -0.000195559               0.003989482              -0.000449934              -0.000572018               0.001520487               0.000948468               0.000000000               0.000000000               0.000000000               0.000000000              -0.000101270               0.003466594              -0.000251908              -0.000471299               0.001312619               0.000841320               0.000000000               0.000000000               0.000000000               0.000000000              -0.000089209               0.003103221              -0.000153443              -0.000421355               0.001174848               0.000753493               0.000000000               0.000000000               0.000000000               0.000000000               0.002664783               0.020126407               0.004011242              -0.001516506               0.007214237               0.005697730               0.000000000               0.000000000               0.000000000               0.000000000               0.001615384               0.016156921               0.001891602              -0.001413844               0.005856868               0.004443024               0.000000000               0.000000000               0.000000000               0.000000000               0.001220722               0.013241760              -0.000151538              -0.001197446               0.004813025               0.003615578               0.000000000               0.000000000               0.000000000               0.000000000               0.000696977               0.011482835              -0.000918776              -0.001173985               0.004218902               0.003044916               0.000000000               0.000000000               0.000000000               0.000000000               0.000251996               0.010268299              -0.001184447              -0.001189036               0.003819077               0.002630041               0.000000000               0.000000000               0.000000000               0.000000000              -0.000083109               0.009337521              -0.001243366              -0.001198353               0.003511927               0.002313573               0.000000000               0.000000000               0.000000000               0.000000000              -0.000320624               0.008572782              -0.001219772              -0.001191829               0.003254842               0.002063013               0.000000000               0.000000000               0.000000000               0.000000000              -0.000478472               0.007914186              -0.001172537              -0.001168698               0.003027601               0.001858904               0.000000000               0.000000000               0.000000000               0.000000000              -0.000570984               0.007319205              -0.001117959              -0.001129017               0.002816049               0.001687032               0.000000000               0.000000000               0.000000000               0.000000000              -0.000608845               0.006764239              -0.001047310              -0.001073845               0.002612672               0.001538827               0.000000000               0.000000000               0.000000000               0.000000000              -0.000603908               0.006236350              -0.000965258              -0.001006007               0.002414098               0.001408091               0.000000000               0.000000000               0.000000000               0.000000000              -0.000556879               0.005734054              -0.000874411              -0.000925584               0.002219860               0.001294276               0.000000000               0.000000000               0.000000000               0.000000000              -0.000472643               0.005255944              -0.000764912              -0.000834232               0.002030041               0.001195809               0.000000000               0.000000000               0.000000000               0.000000000              -0.000362729               0.004804143              -0.000632527              -0.000736539               0.001846878               0.001110339               0.000000000               0.000000000               0.000000000               0.000000000              -0.000237463               0.004391986              -0.000464622              -0.000638045               0.001676662               0.001038617               0.000000000               0.000000000               0.000000000               0.000000000              -0.000113223               0.004037664              -0.000250573              -0.000547165               0.001528263               0.000981098               0.000000000               0.000000000               0.000000000               0.000000000              -0.000075656               0.003827377              -0.000144279              -0.000506792               0.001444710               0.000937918               0.000000000               0.000000000               0.000000000               0.000000000               0.002654037               0.017426884               0.004475919              -0.001183097               0.006203268               0.005020171               0.000000000               0.000000000               0.000000000               0.000000000               0.001095132               0.014505331               0.002134177              -0.001402490               0.005302558               0.003900069               0.000000000               0.000000000               0.000000000               0.000000000               0.000159105               0.012572498              -0.000082842              -0.001511894               0.004694755               0.003182861               0.000000000               0.000000000               0.000000000               0.000000000              -0.000460158               0.011244068              -0.000855627              -0.001578064               0.004274007               0.002695943               0.000000000               0.000000000               0.000000000               0.000000000              -0.000833064               0.010224686              -0.001100142              -0.001590481               0.003938355               0.002347874               0.000000000               0.000000000               0.000000000               0.000000000              -0.001040036               0.009380057              -0.001143861              -0.001562517               0.003647493               0.002084976               0.000000000               0.000000000               0.000000000               0.000000000              -0.001133842               0.008655125              -0.001116035              -0.001507078               0.003387372               0.001880294               0.000000000               0.000000000               0.000000000               0.000000000              -0.001150166               0.008008212              -0.001066355              -0.001432335               0.003146822               0.001714487               0.000000000               0.000000000               0.000000000               0.000000000              -0.001109298               0.007413474              -0.001008340              -0.001342668               0.002918689               0.001576021               0.000000000               0.000000000               0.000000000               0.000000000              -0.001022789               0.006853276              -0.000936828              -0.001240203               0.002697803               0.001457601               0.000000000               0.000000000               0.000000000               0.000000000              -0.000902125               0.006329284              -0.000854067              -0.001129455               0.002486225               0.001356770               0.000000000               0.000000000               0.000000000               0.000000000              -0.000755681               0.005846653              -0.000760390              -0.001014210               0.002286935               0.001272725               0.000000000               0.000000000               0.000000000               0.000000000              -0.000592994               0.005409458              -0.000645925              -0.000898553               0.002102652               0.001204099               0.000000000               0.000000000               0.000000000               0.000000000              -0.000423876               0.005025425              -0.000512356              -0.000787130               0.001937501               0.001150372               0.000000000               0.000000000               0.000000000               0.000000000              -0.000262149               0.004708237              -0.000359449              -0.000686834               0.001798341               0.001111507               0.000000000               0.000000000               0.000000000               0.000000000              -0.000123037               0.004477417              -0.000185567              -0.000605815               0.001694396               0.001088581               0.000000000               0.000000000               0.000000000               0.000000000              -0.000072177               0.004365615              -0.000101732              -0.000572767               0.001646113               0.001073346               0.000000000               0.000000000               0.000000000               0.000000000               0.002340208               0.014511907               0.004448158              -0.000936412               0.005149390               0.004212978               0.000000000               0.000000000               0.000000000               0.000000000               0.000389306               0.012754130               0.002202608              -0.001448274               0.004734092               0.003285817               0.000000000               0.000000000               0.000000000               0.000000000              -0.000976380               0.011837983               0.000106148              -0.001845886               0.004561250               0.002715364               0.000000000               0.000000000               0.000000000               0.000000000              -0.001580998               0.010909899              -0.000573940              -0.001956607               0.004288799               0.002332192               0.000000000               0.000000000               0.000000000               0.000000000              -0.001810160               0.010054201              -0.000778572              -0.001935580               0.003996560               0.002060980               0.000000000               0.000000000               0.000000000               0.000000000              -0.001842581               0.009282769              -0.000818788              -0.001851309               0.003711328               0.001860019               0.000000000               0.000000000               0.000000000               0.000000000              -0.001773920               0.008585570              -0.000804202              -0.001738412               0.003441299               0.001702887               0.000000000               0.000000000               0.000000000               0.000000000              -0.001648467               0.007946421              -0.000774063              -0.001611474               0.003185938               0.001574465               0.000000000               0.000000000               0.000000000               0.000000000              -0.001478345               0.007356358              -0.000731546              -0.001473921               0.002943402               0.001469481               0.000000000               0.000000000               0.000000000               0.000000000              -0.001280991               0.006801105              -0.000670698              -0.001330506               0.002710514               0.001380008               0.000000000               0.000000000               0.000000000               0.000000000              -0.001066493               0.006290717              -0.000602091              -0.001186271               0.002492308               0.001306037               0.000000000               0.000000000               0.000000000               0.000000000              -0.000841333               0.005838648              -0.000524871              -0.001045328               0.002294639               0.001249311               0.000000000               0.000000000               0.000000000               0.000000000              -0.000622369               0.005448312              -0.000430487              -0.000914425               0.002120894               0.001206469               0.000000000               0.000000000               0.000000000               0.000000000              -0.000418569               0.005130682              -0.000324562              -0.000798297               0.001976309               0.001178012               0.000000000               0.000000000               0.000000000               0.000000000              -0.000242966               0.004892531              -0.000213546              -0.000702677               0.001865053               0.001162376               0.000000000               0.000000000               0.000000000               0.000000000              -0.000108827               0.004738688              -0.000103300              -0.000633144               0.001790595               0.001157451               0.000000000               0.000000000               0.000000000               0.000000000              -0.000059104               0.004676565              -0.000054093              -0.000606733               0.001761084               0.001154351               0.000000000               0.000000000               0.000000000               0.000000000               0.001662197               0.011627421               0.004018277              -0.000830105               0.004152469               0.003322364               0.000000000               0.000000000               0.000000000               0.000000000              -0.000462886               0.011046538               0.002154343              -0.001554397               0.004200274               0.002645877               0.000000000               0.000000000               0.000000000               0.000000000              -0.002064675               0.011065243               0.000417028              -0.002157403               0.004407512               0.002250109               0.000000000               0.000000000               0.000000000               0.000000000              -0.002527795               0.010464047              -0.000128037              -0.002255923               0.004239955               0.001984032               0.000000000               0.000000000               0.000000000               0.000000000              -0.002553347               0.009738236              -0.000311019              -0.002174779               0.003970973               0.001796193               0.000000000               0.000000000               0.000000000               0.000000000              -0.002398632               0.009027313              -0.000372179              -0.002027896               0.003685040               0.001657143               0.000000000               0.000000000               0.000000000               0.000000000              -0.002169013               0.008354956              -0.000391520              -0.001857745               0.003404206               0.001546461               0.000000000               0.000000000               0.000000000               0.000000000              -0.001909427               0.007726201              -0.000394556              -0.001681806               0.003135976               0.001454170               0.000000000               0.000000000               0.000000000               0.000000000              -0.001634119               0.007140811              -0.000380519              -0.001505392               0.002882044               0.001376652               0.000000000               0.000000000               0.000000000               0.000000000              -0.001346450               0.006604662              -0.000346396              -0.001330498               0.002645032               0.001314533               0.000000000               0.000000000               0.000000000               0.000000000              -0.001058812               0.006129761              -0.000310503              -0.001163272               0.002430990               0.001267719               0.000000000               0.000000000               0.000000000               0.000000000              -0.000782097               0.005727563              -0.000269678              -0.001009229               0.002245578               0.001236349               0.000000000               0.000000000               0.000000000               0.000000000              -0.000537034               0.005399144              -0.000214523              -0.000876278               0.002091789               0.001215511               0.000000000               0.000000000               0.000000000               0.000000000              -0.000334846               0.005148263              -0.000152323              -0.000769098               0.001972436               0.001203338               0.000000000               0.000000000               0.000000000               0.000000000              -0.000180079               0.004975861              -0.000088798              -0.000689510               0.001888441               0.001198930               0.000000000               0.000000000               0.000000000               0.000000000              -0.000074295               0.004879997              -0.000035456              -0.000637859               0.001839269               0.001201410               0.000000000               0.000000000               0.000000000               0.000000000              -0.000037160               0.004848775              -0.000015723              -0.000620030               0.001822919               0.001202889               0.000000000               0.000000000               0.000000000               0.000000000               0.000654544               0.008960642               0.003292516              -0.000874627               0.003278392               0.002403765               0.000000000               0.000000000               0.000000000               0.000000000              -0.001408017               0.009480600               0.002039127              -0.001713078               0.003731194               0.002018116               0.000000000               0.000000000               0.000000000               0.000000000              -0.002998665               0.010258635               0.000830801              -0.002406823               0.004221785               0.001814962               0.000000000               0.000000000               0.000000000               0.000000000              -0.003218469               0.009905082               0.000404273              -0.002445055               0.004116679               0.001671624               0.000000000               0.000000000               0.000000000               0.000000000              -0.003011915               0.009292805               0.000209403              -0.002291063               0.003861258               0.001570195               0.000000000               0.000000000               0.000000000               0.000000000              -0.002676797               0.008635658               0.000104513              -0.002083251               0.003572941               0.001489690               0.000000000               0.000000000               0.000000000               0.000000000              -0.002312095               0.007988715               0.000041037              -0.001865621               0.003284752               0.001419131               0.000000000               0.000000000               0.000000000               0.000000000              -0.001942846               0.007378549              -0.000004736              -0.001650882               0.003009786               0.001358904               0.000000000               0.000000000               0.000000000               0.000000000              -0.001574996               0.006819604              -0.000034409              -0.001443070               0.002754202               0.001311132               0.000000000               0.000000000               0.000000000               0.000000000              -0.001215386               0.006320856              -0.000046677              -0.001245874               0.002522222               0.001276349               0.000000000               0.000000000               0.000000000               0.000000000              -0.000880427               0.005898830              -0.000058398              -0.001067511               0.002322094               0.001254583               0.000000000               0.000000000               0.000000000               0.000000000              -0.000588509               0.005556890              -0.000065290              -0.000915300               0.002157378               0.001242078               0.000000000               0.000000000               0.000000000               0.000000000              -0.000356954               0.005293929              -0.000054131              -0.000795597               0.002029824               0.001234228               0.000000000               0.000000000               0.000000000               0.000000000              -0.000190128               0.005109836              -0.000033039              -0.000710026               0.001939937               0.001229911               0.000000000               0.000000000               0.000000000               0.000000000              -0.000084142               0.005001260              -0.000011863              -0.000656709               0.001885973               0.001229264               0.000000000               0.000000000               0.000000000               0.000000000              -0.000028006               0.004956307               0.000000847              -0.000630039               0.001862099               0.001232060               0.000000000               0.000000000               0.000000000               0.000000000              -0.000011310               0.004947660               0.000002971              -0.000622697               0.001856769               0.001234072               0.000000000               0.000000000               0.000000000               0.000000000              -0.000554091               0.006703862               0.002398831              -0.001045766               0.002583186               0.001537420               0.000000000               0.000000000               0.000000000               0.000000000              -0.002331677               0.008074916               0.001903153              -0.001883739               0.003319524               0.001435785               0.000000000               0.000000000               0.000000000               0.000000000              -0.003722553               0.009445714               0.001318208              -0.002576665               0.004007428               0.001430763               0.000000000               0.000000000               0.000000000               0.000000000              -0.003682073               0.009352780               0.000966417              -0.002549869               0.003967518               0.001417650               0.000000000               0.000000000               0.000000000               0.000000000              -0.003286064               0.008879997               0.000736863              -0.002342268               0.003740725               0.001398457               0.000000000               0.000000000               0.000000000               0.000000000              -0.002809955               0.008298528               0.000579520              -0.002091044               0.003463163               0.001372119               0.000000000               0.000000000               0.000000000               0.000000000              -0.002337033               0.007702331               0.000463607              -0.001839174               0.003180476               0.001341302               0.000000000               0.000000000               0.000000000               0.000000000              -0.001883632               0.007137499               0.000367820              -0.001598546               0.002911991               0.001313445               0.000000000               0.000000000               0.000000000               0.000000000              -0.001442208               0.006616824               0.000287588              -0.001367928               0.002661562               0.001293634               0.000000000               0.000000000               0.000000000               0.000000000              -0.001027442               0.006156311               0.000219445              -0.001154827               0.002437025               0.001282199               0.000000000               0.000000000               0.000000000               0.000000000              -0.000664863               0.005778076               0.000154060              -0.000971580               0.002249866               0.001278286               0.000000000               0.000000000               0.000000000               0.000000000              -0.000378946               0.005475194               0.000097330              -0.000826502               0.002100547               0.001274045               0.000000000               0.000000000               0.000000000               0.000000000              -0.000176731               0.005245025               0.000059699              -0.000721900               0.001988958               0.001267057               0.000000000               0.000000000               0.000000000               0.000000000              -0.000050585               0.005094442               0.000036095              -0.000655773               0.001916721               0.001260949               0.000000000               0.000000000               0.000000000               0.000000000               0.000013958               0.005018953               0.000019569              -0.000622133               0.001880345               0.001258212               0.000000000               0.000000000               0.000000000               0.000000000               0.000030056               0.004994329               0.000007612              -0.000613019               0.001869099               0.001256081               0.000000000               0.000000000               0.000000000               0.000000000               0.000026367               0.004991618               0.000002455              -0.000614063               0.001868544               0.001254481               0.000000000               0.000000000               0.000000000               0.000000000              -0.001963257               0.004604964               0.001454496              -0.001311839               0.001972252               0.000660413               0.000000000               0.000000000               0.000000000               0.000000000              -0.003104456               0.006442349               0.001746861              -0.001969460               0.002803914               0.000834454               0.000000000               0.000000000               0.000000000               0.000000000              -0.004143790               0.008237850               0.001827048              -0.002583646               0.003607137               0.001023491               0.000000000               0.000000000               0.000000000               0.000000000              -0.003964146               0.008538976               0.001564248              -0.002553921               0.003697604               0.001143683               0.000000000               0.000000000               0.000000000               0.000000000              -0.003494248               0.008335020               0.001301835              -0.002352215               0.003562384               0.001210169               0.000000000               0.000000000               0.000000000               0.000000000              -0.002967671               0.007948942               0.001090837              -0.002106489               0.003351784               0.001245294               0.000000000               0.000000000               0.000000000               0.000000000              -0.002454801               0.007498024               0.000917719              -0.001857799               0.003118582               0.001260784               0.000000000               0.000000000               0.000000000               0.000000000              -0.001972791               0.007043817               0.000775676              -0.001620270               0.002888005               0.001267735               0.000000000               0.000000000               0.000000000               0.000000000              -0.001514986               0.006615734               0.000651635              -0.001395083               0.002670250               0.001275167               0.000000000               0.000000000               0.000000000               0.000000000              -0.001080893               0.006226234               0.000531503              -0.001183611               0.002469928               0.001286317               0.000000000               0.000000000               0.000000000               0.000000000              -0.000694151               0.005883565               0.000412984              -0.000995750               0.002293085               0.001297336               0.000000000               0.000000000               0.000000000               0.000000000              -0.000379871               0.005598163               0.000301822              -0.000842220               0.002146776               0.001304556               0.000000000               0.000000000               0.000000000               0.000000000              -0.000150617               0.005367498               0.000206990              -0.000727417               0.002031620               0.001304203               0.000000000               0.000000000               0.000000000               0.000000000              -0.000005290               0.005193263               0.000128978              -0.000651140               0.001948117               0.001296977               0.000000000               0.000000000               0.000000000               0.000000000               0.000067611               0.005078957               0.000065992              -0.000609514               0.001896140               0.001286626               0.000000000               0.000000000               0.000000000               0.000000000               0.000087380               0.005020457               0.000022677              -0.000594788               0.001871732               0.001276944               0.000000000               0.000000000               0.000000000               0.000000000               0.000082247               0.005003634               0.000005264              -0.000594610               0.001866065               0.001271454               0.000000000               0.000000000               0.000000000               0.000000000              -0.003755201               0.002704926               0.000527026              -0.001746313               0.001483736              -0.000262577               0.000000000               0.000000000               0.000000000               0.000000000              -0.003973438               0.004797133               0.001518626              -0.002089676               0.002295586               0.000205910               0.000000000               0.000000000               0.000000000               0.000000000              -0.004469559               0.006820922               0.002230611              -0.002528694               0.003116515               0.000587821               0.000000000               0.000000000               0.000000000               0.000000000              -0.004166323               0.007494146               0.002129648              -0.002499134               0.003331068               0.000831934               0.000000000               0.000000000               0.000000000               0.000000000              -0.003657200               0.007605037               0.001875171              -0.002322075               0.003309011               0.000986937               0.000000000               0.000000000               0.000000000               0.000000000              -0.003112169               0.007461524               0.001629957              -0.002099749               0.003187066               0.001087317               0.000000000               0.000000000               0.000000000               0.000000000              -0.002579518               0.007197452               0.001415537              -0.001866996               0.003021458               0.001154462               0.000000000               0.000000000               0.000000000               0.000000000              -0.002076515               0.006896591               0.001231958              -0.001640763               0.002845761               0.001204998               0.000000000               0.000000000               0.000000000               0.000000000              -0.001607617               0.006593760               0.001069628              -0.001427073               0.002673589               0.001246516               0.000000000               0.000000000               0.000000000               0.000000000              -0.001163426               0.006293730               0.000914721              -0.001222998               0.002505555               0.001282557               0.000000000               0.000000000               0.000000000               0.000000000              -0.000750273               0.006002141               0.000756922              -0.001031617               0.002344566               0.001312949               0.000000000               0.000000000               0.000000000               0.000000000              -0.000390514               0.005739572               0.000598310              -0.000863887               0.002201134               0.001337247               0.000000000               0.000000000               0.000000000               0.000000000              -0.000109785               0.005509834               0.000445527              -0.000729897               0.002079892               0.001349995               0.000000000               0.000000000               0.000000000               0.000000000               0.000082719               0.005311512               0.000303854              -0.000632918               0.001981459               0.001348541               0.000000000               0.000000000               0.000000000               0.000000000               0.000189184               0.005155034               0.000177392              -0.000573434               0.001909472               0.001336038               0.000000000               0.000000000               0.000000000               0.000000000               0.000219947               0.005053448               0.000075447              -0.000549200               0.001867532               0.001318333               0.000000000               0.000000000               0.000000000               0.000000000               0.000208500               0.005012117               0.000028895              -0.000548326               0.001853464               0.001305138               0.000000000               0.000000000               0.000000000               0.000000000              -0.005816967               0.001161476              -0.000298615              -0.002326544               0.001162666              -0.001163879               0.000000000               0.000000000               0.000000000               0.000000000              -0.004991407               0.003251626               0.001201068              -0.002278227               0.001843271              -0.000434955               0.000000000               0.000000000               0.000000000               0.000000000              -0.004739547               0.005215868               0.002411308              -0.002429308               0.002548374               0.000119065               0.000000000               0.000000000               0.000000000               0.000000000              -0.004227943               0.006138486               0.002514083              -0.002352784               0.002830402               0.000477618               0.000000000               0.000000000               0.000000000               0.000000000              -0.003659824               0.006535366               0.002324853              -0.002189350               0.002908216               0.000718866               0.000000000               0.000000000               0.000000000               0.000000000              -0.003100292               0.006646392               0.002084476              -0.001993404               0.002879909               0.000886505               0.000000000               0.000000000               0.000000000               0.000000000              -0.002562495               0.006603274               0.001851953              -0.001786341               0.002796516               0.001010175               0.000000000               0.000000000               0.000000000               0.000000000              -0.002055468               0.006487889               0.001644086              -0.001581783               0.002689869               0.001108086               0.000000000               0.000000000               0.000000000               0.000000000              -0.001575860               0.006338370               0.001462134              -0.001383241               0.002573849               0.001190608               0.000000000               0.000000000               0.000000000               0.000000000              -0.001122027               0.006161992               0.001289451              -0.001191006               0.002450979               0.001259972               0.000000000               0.000000000               0.000000000               0.000000000              -0.000695220               0.005962892               0.001112150              -0.001006067               0.002322966               0.001316899               0.000000000               0.000000000               0.000000000               0.000000000              -0.000303661               0.005756442               0.000925170              -0.000833426               0.002196603               0.001363177               0.000000000               0.000000000               0.000000000               0.000000000               0.000027232               0.005551064               0.000733168              -0.000683669               0.002078226               0.001394557               0.000000000               0.000000000               0.000000000               0.000000000               0.000279648               0.005359965               0.000540872              -0.000565126               0.001975013               0.001409886               0.000000000               0.000000000               0.000000000               0.000000000               0.000442337               0.005197969               0.000348113              -0.000483869               0.001893928               0.001410060               0.000000000               0.000000000               0.000000000               0.000000000               0.000504679               0.005078867               0.000165171              -0.000445603               0.001841473               0.001395870               0.000000000               0.000000000               0.000000000               0.000000000               0.000495517               0.005024916               0.000074871              -0.000442294               0.001822387               0.001380092               0.000000000               0.000000000               0.000000000               0.000000000              -0.008003235               0.000052877              -0.000898983              -0.003007820               0.001020225              -0.001987595               0.000000000               0.000000000               0.000000000               0.000000000              -0.006101483               0.001885983               0.000842049              -0.002523800               0.001469917              -0.001053883               0.000000000               0.000000000               0.000000000               0.000000000              -0.004980783               0.003556856               0.002335673              -0.002312397               0.001956403              -0.000355993               0.000000000               0.000000000               0.000000000               0.000000000              -0.004173175               0.004593944               0.002624722              -0.002139179               0.002244358               0.000105178               0.000000000               0.000000000               0.000000000               0.000000000              -0.003508359               0.005211695               0.002536780              -0.001967093               0.002392911               0.000425818               0.000000000               0.000000000               0.000000000               0.000000000              -0.002927475               0.005560321               0.002340405              -0.001792840               0.002451034               0.000658194               0.000000000               0.000000000               0.000000000               0.000000000              -0.002394367               0.005745556               0.002121142              -0.001616079               0.002453859               0.000837779               0.000000000               0.000000000               0.000000000               0.000000000              -0.001890292               0.005831145               0.001914581              -0.001437750               0.002422945               0.000985195               0.000000000               0.000000000               0.000000000               0.000000000              -0.001414829               0.005845316               0.001731392              -0.001261223               0.002368827               0.001107603               0.000000000               0.000000000               0.000000000               0.000000000              -0.000960577               0.005807310               0.001557692              -0.001086128               0.002297793               0.001211665               0.000000000               0.000000000               0.000000000               0.000000000              -0.000523567               0.005725487               0.001380955              -0.000912022               0.002212484               0.001300462               0.000000000               0.000000000               0.000000000               0.000000000              -0.000105519               0.005610220               0.001191846              -0.000740846               0.002117003               0.001376157               0.000000000               0.000000000               0.000000000               0.000000000               0.000279536               0.005473736               0.000989475              -0.000579390               0.002017690               0.001438300               0.000000000               0.000000000               0.000000000               0.000000000               0.000610147               0.005330451               0.000773359              -0.000437500               0.001922633               0.001485132               0.000000000               0.000000000               0.000000000               0.000000000               0.000863496               0.005197728               0.000533005              -0.000325905               0.001841194               0.001515289               0.000000000               0.000000000               0.000000000               0.000000000               0.001015016               0.005090889               0.000271337              -0.000255729               0.001782189               0.001526460               0.000000000               0.000000000               0.000000000               0.000000000               0.001057854               0.005043342               0.000136762              -0.000233722               0.001759004               0.001525283               0.000000000               0.000000000               0.000000000               0.000000000              -0.010097437              -0.000643798              -0.001165139              -0.003706062               0.001020747              -0.002685314               0.000000000               0.000000000               0.000000000               0.000000000              -0.007205425               0.000778996               0.000508211              -0.002799406               0.001192792              -0.001606614               0.000000000               0.000000000               0.000000000               0.000000000              -0.005205535               0.002016597               0.002004182              -0.002204147               0.001406904              -0.000797243               0.000000000               0.000000000               0.000000000               0.000000000              -0.004044006               0.003046906               0.002398726              -0.001897362               0.001648077              -0.000249285               0.000000000               0.000000000               0.000000000               0.000000000              -0.003249744               0.003803787               0.002406791              -0.001694124               0.001832623               0.000138499               0.000000000               0.000000000               0.000000000               0.000000000              -0.002631115               0.004345099               0.002279113              -0.001529803               0.001958285               0.000428482               0.000000000               0.000000000               0.000000000               0.000000000              -0.002093865               0.004726636               0.002108010              -0.001376027               0.002034204               0.000658178               0.000000000               0.000000000               0.000000000               0.000000000              -0.001599876               0.004988810               0.001930875              -0.001223553               0.002070770               0.000847218               0.000000000               0.000000000               0.000000000               0.000000000              -0.001138791               0.005162726               0.001765120              -0.001072385               0.002078353               0.001005967               0.000000000               0.000000000               0.000000000               0.000000000              -0.000694073               0.005270160               0.001611319              -0.000919046               0.002063051               0.001144005               0.000000000               0.000000000               0.000000000               0.000000000              -0.000251746               0.005320721               0.001457752              -0.000759494               0.002026720               0.001267227               0.000000000               0.000000000               0.000000000               0.000000000               0.000190589               0.005328575               0.001292136              -0.000594600               0.001974374               0.001379774               0.000000000               0.000000000               0.000000000               0.000000000               0.000629196               0.005300594               0.001110149              -0.000426625               0.001909055               0.001482430               0.000000000               0.000000000               0.000000000               0.000000000               0.001048687               0.005240066               0.000903810              -0.000261751               0.001833921               0.001572171               0.000000000               0.000000000               0.000000000               0.000000000               0.001429471               0.005159527               0.000653615              -0.000108889               0.001756122               0.001647232               0.000000000               0.000000000               0.000000000               0.000000000               0.001749410               0.005079926               0.000351452               0.000021037               0.001686279               0.001707317               0.000000000               0.000000000               0.000000000               0.000000000               0.001925410               0.005056509               0.000194662               0.000089964               0.001655498               0.001745462               0.000000000               0.000000000               0.000000000               0.000000000              -0.011849367              -0.001013158              -0.001058235              -0.004316865               0.001101228              -0.003215637               0.000000000               0.000000000               0.000000000               0.000000000              -0.008159167              -0.000020731               0.000253403              -0.003057094               0.001012114              -0.002044980               0.000000000               0.000000000               0.000000000               0.000000000              -0.005401776               0.000765902               0.001460191              -0.002121402               0.000962427              -0.001158974               0.000000000               0.000000000               0.000000000               0.000000000              -0.003900207               0.001716302               0.001831709              -0.001677113               0.001131130              -0.000545983               0.000000000               0.000000000               0.000000000               0.000000000              -0.002961769               0.002540882               0.001888022              -0.001428271               0.001323041              -0.000105230               0.000000000               0.000000000               0.000000000               0.000000000              -0.002286295               0.003203629               0.001827404              -0.001257812               0.001487136               0.000229324               0.000000000               0.000000000               0.000000000               0.000000000              -0.001737912               0.003723340               0.001719879              -0.001117132               0.001613478               0.000496345               0.000000000               0.000000000               0.000000000               0.000000000              -0.001255707               0.004125034               0.001594238              -0.000986518               0.001703836               0.000717319               0.000000000               0.000000000               0.000000000               0.000000000              -0.000805793               0.004437373               0.001472216              -0.000856843               0.001764723               0.000907881               0.000000000               0.000000000               0.000000000               0.000000000              -0.000366056               0.004678469               0.001361663              -0.000722078               0.001800166               0.001078088               0.000000000               0.000000000               0.000000000               0.000000000               0.000077873               0.004856509               0.001251049              -0.000577861               0.001811440               0.001233579               0.000000000               0.000000000               0.000000000               0.000000000               0.000539249               0.004986838               0.001129781              -0.000421136               0.001802641               0.001381505               0.000000000               0.000000000               0.000000000               0.000000000               0.001023635               0.005069065               0.000993094              -0.000249770               0.001772928               0.001523158               0.000000000               0.000000000               0.000000000               0.000000000               0.001528511               0.005098673               0.000829375              -0.000064143               0.001720922               0.001656779               0.000000000               0.000000000               0.000000000               0.000000000               0.002054234               0.005084705               0.000620346               0.000134748               0.001649969               0.001784717               0.000000000               0.000000000               0.000000000               0.000000000               0.002596941               0.005046312               0.000345608               0.000343060               0.001567734               0.001910794               0.000000000               0.000000000               0.000000000               0.000000000               0.002972834               0.005061074               0.000202452               0.000482174               0.001526283               0.002008457               0.000000000               0.000000000               0.000000000               0.000000000              -0.013020266              -0.001170890              -0.000626505              -0.004736236               0.001188441              -0.003547795               0.000000000               0.000000000               0.000000000               0.000000000              -0.008810038              -0.000497562               0.000093190              -0.003241567               0.000914662              -0.002326905               0.000000000               0.000000000               0.000000000               0.000000000              -0.005539936              -0.000044379               0.000767784              -0.002071927               0.000675845              -0.001396083               0.000000000               0.000000000               0.000000000               0.000000000              -0.003795970               0.000813340               0.000991936              -0.001525154               0.000779492              -0.000745662               0.000000000               0.000000000               0.000000000               0.000000000              -0.002736474               0.001652431               0.001039608              -0.001232729               0.000961713              -0.000271016               0.000000000               0.000000000               0.000000000               0.000000000              -0.002010968               0.002380050               0.001020859              -0.001051617               0.001143881               0.000092263               0.000000000               0.000000000               0.000000000               0.000000000              -0.001455727               0.002986163               0.000970887              -0.000919166               0.001301766               0.000382600               0.000000000               0.000000000               0.000000000               0.000000000              -0.000978799               0.003480419               0.000907396              -0.000802100               0.001427495               0.000625394               0.000000000               0.000000000               0.000000000               0.000000000              -0.000529894               0.003884691               0.000846535              -0.000684295               0.001522982               0.000838687               0.000000000               0.000000000               0.000000000               0.000000000              -0.000088644               0.004213752               0.000791324              -0.000559960               0.001591223               0.001031263               0.000000000               0.000000000               0.000000000               0.000000000               0.000359029               0.004476582               0.000733853              -0.000424936               0.001633824               0.001208888               0.000000000               0.000000000               0.000000000               0.000000000               0.000835726               0.004690194               0.000669244              -0.000272877               0.001654341               0.001381464               0.000000000               0.000000000               0.000000000               0.000000000               0.001353985               0.004849690               0.000594818              -0.000098467               0.001649369               0.001550903               0.000000000               0.000000000               0.000000000               0.000000000               0.001925510               0.004949351               0.000504632               0.000103396               0.001615302               0.001718698               0.000000000               0.000000000               0.000000000               0.000000000               0.002570734               0.005001841               0.000385834               0.000338792               0.001554333               0.001893125               0.000000000               0.000000000               0.000000000               0.000000000               0.003310588               0.005011081               0.000219254               0.000615079               0.001465317               0.002080396               0.000000000               0.000000000               0.000000000               0.000000000               0.003877779               0.005064574               0.000132621               0.000821087               0.001414479               0.002235566               0.000000000               0.000000000               0.000000000               0.000000000               0.000000000               0.000000000               0.000000000               0.000000000               0.000000000               0.000000000               0.000000000               0.000000000               0.000000000               0.000000000               0.000000000               0.000000000               0.000000000               0.000000000               0.000000000               0.000000000               0.000000000               0.000000000               0.000000000               0.000000000               0.000000000               0.000000000               0.000000000               0.000000000               0.000000000               0.000000000               0.000000000               0.000000000               0.000000000               0.000000000               0.000000000               0.000000000               0.000000000               0.000000000               0.000000000               0.000000000               0.000000000               0.000000000               0.000000000               0.000000000               0.000000000               0.000000000               0.000000000               0.000000000               0.000000000               0.000000000               0.000000000               0.000000000               0.000000000               0.000000000               0.000000000               0.000000000               0.000000000               0.000000000               0.000000000               0.000000000               0.000000000               0.000000000               0.000000000               0.000000000               0.000000000               0.000000000               0.000000000               0.000000000               0.000000000               0.000000000               0.000000000               0.000000000               0.000000000               0.000000000               0.000000000               0.000000000               0.000000000               0.000000000               0.000000000               0.000000000               0.000000000               0.000000000               0.000000000               0.000000000               0.000000000               0.000000000               0.000000000               0.000000000               0.000000000               0.000000000               0.000000000               0.000000000               0.000000000               0.000000000               0.000000000               0.000000000               0.000000000               0.000000000               0.000000000               0.000000000               0.000000000               0.000000000               0.000000000               0.000000000               0.000000000               0.000000000               0.000000000               0.000000000               0.000000000               0.000000000               0.000000000               0.000000000               0.000000000               0.000000000               0.000000000               0.000000000               0.000000000               0.000000000               0.000000000               0.000000000               0.000000000               0.000000000               0.000000000               0.000000000               0.000000000               0.000000000               0.000000000               0.000000000               0.000000000               0.000000000               0.000000000               0.000000000               0.000000000               0.000000000               0.000000000               0.000000000               0.000000000               0.000000000               0.000000000               0.000000000               0.000000000               0.000000000               0.000000000               0.000000000               0.000000000               0.000000000               0.000000000               0.000000000               0.000000000               0.000000000               0.000000000               0.000000000               0.000000000               0.000000000               0.000000000               0.000000000               0.000000000               0.000000000               0.000000000               0.000000000               0.000000000               0.000000000               0.000000000               0.000000000               0.000000000               0.000000000               0.000000000               0.000000000               0.000000000               0.000000000               0.000000000               0.000000000               0.000000000               0.000000000 </DataArray>
</PointData>
</Piece>
</UnstructuredGrid> </VTKFile>
