<?xml version="1.0"?>
<VTKFile type="UnstructuredGrid" version="0.1">
<UnstructuredGrid>
<Piece NumberOfPoints="      1156" NumberOfCells="      1024">
<Points>
<DataArray type="Float64"                                    Name="coordinates"                                                      NumberOfComponents=" 3" format="ascii">
              0.133000000               0.000000000               0.000000000               0.155937500               0.000000000               0.000000000               0.178875000               0.000000000               0.000000000               0.201812500               0.000000000               0.000000000               0.224750000               0.000000000               0.000000000               0.247687500               0.000000000               0.000000000               0.270625000               0.000000000               0.000000000               0.293562500               0.000000000               0.000000000               0.316500000               0.000000000               0.000000000               0.339437500               0.000000000               0.000000000               0.362375000               0.000000000               0.000000000               0.385312500               0.000000000               0.000000000               0.408250000               0.000000000               0.000000000               0.431187500               0.000000000               0.000000000               0.454125000               0.000000000               0.000000000               0.477062500               0.000000000               0.000000000               0.500000000               0.000000000               0.000000000               0.132359569               0.013036280               0.000000000               0.155337096               0.016127762               0.000000000               0.178314623               0.019219245               0.000000000               0.201292150               0.022310727               0.000000000               0.224269676               0.025402210               0.000000000               0.247247203               0.028493692               0.000000000               0.270224730               0.031585175               0.000000000               0.293202257               0.034676657               0.000000000               0.316179784               0.037768140               0.000000000               0.339157311               0.040859622               0.000000000               0.362134838               0.043951105               0.000000000               0.385112365               0.047042587               0.000000000               0.408089892               0.050134070               0.000000000               0.431067419               0.053225552               0.000000000               0.454044946               0.056317035               0.000000000               0.477022473               0.059408517               0.000000000               0.500000000               0.062500000               0.000000000               0.130444442               0.025947013               0.000000000               0.153541665               0.032137825               0.000000000               0.176638887               0.038328636               0.000000000               0.199736109               0.044519448               0.000000000               0.222833332               0.050710260               0.000000000               0.245930554               0.056901071               0.000000000               0.269027776               0.063091883               0.000000000               0.292124999               0.069282695               0.000000000               0.315222221               0.075473506               0.000000000               0.338319444               0.081664318               0.000000000               0.361416666               0.087855130               0.000000000               0.384513888               0.094045942               0.000000000               0.407611111               0.100236753               0.000000000               0.430708333               0.106427565               0.000000000               0.453805555               0.112618377               0.000000000               0.476902778               0.118809188               0.000000000               0.500000000               0.125000000               0.000000000               0.127273065               0.038607862               0.000000000               0.150568498               0.047913621               0.000000000               0.173863932               0.057219379               0.000000000               0.197159365               0.066525138               0.000000000               0.220454798               0.075830897               0.000000000               0.243750232               0.085136655               0.000000000               0.267045665               0.094442414               0.000000000               0.290341099               0.103748172               0.000000000               0.313636532               0.113053931               0.000000000               0.336931966               0.122359690               0.000000000               0.360227399               0.131665448               0.000000000               0.383522833               0.140971207               0.000000000               0.406818266               0.150276966               0.000000000               0.430113700               0.159582724               0.000000000               0.453409133               0.168888483               0.000000000               0.476704567               0.178194241               0.000000000               0.500000000               0.187500000               0.000000000               0.122875978               0.050896897               0.000000000               0.146446229               0.063340840               0.000000000               0.170016481               0.075784784               0.000000000               0.193586732               0.088228728               0.000000000               0.217156983               0.100672672               0.000000000               0.240727235               0.113116616               0.000000000               0.264297486               0.125560560               0.000000000               0.287867738               0.138004504               0.000000000               0.311437989               0.150448448               0.000000000               0.335008240               0.162892392               0.000000000               0.358578492               0.175336336               0.000000000               0.382148743               0.187780280               0.000000000               0.405718994               0.200224224               0.000000000               0.429289246               0.212668168               0.000000000               0.452859497               0.225112112               0.000000000               0.476429749               0.237556056               0.000000000               0.500000000               0.250000000               0.000000000               0.117295528               0.062695766               0.000000000               0.141214558               0.078308531               0.000000000               0.165133587               0.093921295               0.000000000               0.189052617               0.109534060               0.000000000               0.212971646               0.125146824               0.000000000               0.236890676               0.140759589               0.000000000               0.260809705               0.156372354               0.000000000               0.284728735               0.171985118               0.000000000               0.308647764               0.187597883               0.000000000               0.332566794               0.203210648               0.000000000               0.356485823               0.218823412               0.000000000               0.380404853               0.234436177               0.000000000               0.404323882               0.250048941               0.000000000               0.428242912               0.265661706               0.000000000               0.452161941               0.281274471               0.000000000               0.476080971               0.296887235               0.000000000               0.500000000               0.312500000               0.000000000               0.110585458               0.073890841               0.000000000               0.134923867               0.092710163               0.000000000               0.159262276               0.111529486               0.000000000               0.183600685               0.130348808               0.000000000               0.207939094               0.149168131               0.000000000               0.232277503               0.167987453               0.000000000               0.256615912               0.186806776               0.000000000               0.280954320               0.205626098               0.000000000               0.305292729               0.224445420               0.000000000               0.329631138               0.243264743               0.000000000               0.353969547               0.262084065               0.000000000               0.378307956               0.280903388               0.000000000               0.402646365               0.299722710               0.000000000               0.426984773               0.318542033               0.000000000               0.451323182               0.337361355               0.000000000               0.475661591               0.356180678               0.000000000               0.500000000               0.375000000               0.000000000               0.102810390               0.084374307               0.000000000               0.127634741               0.106444663               0.000000000               0.152459092               0.128515018               0.000000000               0.177283442               0.150585374               0.000000000               0.202107793               0.172655730               0.000000000               0.226932143               0.194726086               0.000000000               0.251756494               0.216796442               0.000000000               0.276580845               0.238866798               0.000000000               0.301405195               0.260937153               0.000000000               0.326229546               0.283007509               0.000000000               0.351053896               0.305077865               0.000000000               0.375878247               0.327148221               0.000000000               0.400702598               0.349218577               0.000000000               0.425526948               0.371288933               0.000000000               0.450351299               0.393359288               0.000000000               0.475175649               0.415429644               0.000000000               0.500000000               0.437500000               0.000000000               0.094045202               0.094045202               0.000000000               0.119417377               0.119417377               0.000000000               0.144789552               0.144789552               0.000000000               0.170161727               0.170161727               0.000000000               0.195533901               0.195533901               0.000000000               0.220906076               0.220906076               0.000000000               0.246278251               0.246278251               0.000000000               0.271650426               0.271650426               0.000000000               0.297022601               0.297022601               0.000000000               0.322394776               0.322394776               0.000000000               0.347766951               0.347766951               0.000000000               0.373139126               0.373139126               0.000000000               0.398511300               0.398511300               0.000000000               0.423883475               0.423883475               0.000000000               0.449255650               0.449255650               0.000000000               0.474627825               0.474627825               0.000000000               0.500000000               0.500000000               0.000000000               0.084374307               0.102810390               0.000000000               0.106444663               0.127634741               0.000000000               0.128515018               0.152459092               0.000000000               0.150585374               0.177283442               0.000000000               0.172655730               0.202107793               0.000000000               0.194726086               0.226932143               0.000000000               0.216796442               0.251756494               0.000000000               0.238866798               0.276580845               0.000000000               0.260937153               0.301405195               0.000000000               0.283007509               0.326229546               0.000000000               0.305077865               0.351053896               0.000000000               0.327148221               0.375878247               0.000000000               0.349218577               0.400702598               0.000000000               0.371288933               0.425526948               0.000000000               0.393359288               0.450351299               0.000000000               0.415429644               0.475175649               0.000000000               0.437500000               0.500000000               0.000000000               0.073890841               0.110585458               0.000000000               0.092710163               0.134923867               0.000000000               0.111529486               0.159262276               0.000000000               0.130348808               0.183600685               0.000000000               0.149168131               0.207939094               0.000000000               0.167987453               0.232277503               0.000000000               0.186806776               0.256615912               0.000000000               0.205626098               0.280954320               0.000000000               0.224445420               0.305292729               0.000000000               0.243264743               0.329631138               0.000000000               0.262084065               0.353969547               0.000000000               0.280903388               0.378307956               0.000000000               0.299722710               0.402646365               0.000000000               0.318542033               0.426984773               0.000000000               0.337361355               0.451323182               0.000000000               0.356180678               0.475661591               0.000000000               0.375000000               0.500000000               0.000000000               0.062695766               0.117295528               0.000000000               0.078308531               0.141214558               0.000000000               0.093921295               0.165133587               0.000000000               0.109534060               0.189052617               0.000000000               0.125146824               0.212971646               0.000000000               0.140759589               0.236890676               0.000000000               0.156372354               0.260809705               0.000000000               0.171985118               0.284728735               0.000000000               0.187597883               0.308647764               0.000000000               0.203210648               0.332566794               0.000000000               0.218823412               0.356485823               0.000000000               0.234436177               0.380404853               0.000000000               0.250048941               0.404323882               0.000000000               0.265661706               0.428242912               0.000000000               0.281274471               0.452161941               0.000000000               0.296887235               0.476080971               0.000000000               0.312500000               0.500000000               0.000000000               0.050896897               0.122875978               0.000000000               0.063340840               0.146446229               0.000000000               0.075784784               0.170016481               0.000000000               0.088228728               0.193586732               0.000000000               0.100672672               0.217156983               0.000000000               0.113116616               0.240727235               0.000000000               0.125560560               0.264297486               0.000000000               0.138004504               0.287867738               0.000000000               0.150448448               0.311437989               0.000000000               0.162892392               0.335008240               0.000000000               0.175336336               0.358578492               0.000000000               0.187780280               0.382148743               0.000000000               0.200224224               0.405718994               0.000000000               0.212668168               0.429289246               0.000000000               0.225112112               0.452859497               0.000000000               0.237556056               0.476429749               0.000000000               0.250000000               0.500000000               0.000000000               0.038607862               0.127273065               0.000000000               0.047913621               0.150568498               0.000000000               0.057219379               0.173863932               0.000000000               0.066525138               0.197159365               0.000000000               0.075830897               0.220454798               0.000000000               0.085136655               0.243750232               0.000000000               0.094442414               0.267045665               0.000000000               0.103748172               0.290341099               0.000000000               0.113053931               0.313636532               0.000000000               0.122359690               0.336931966               0.000000000               0.131665448               0.360227399               0.000000000               0.140971207               0.383522833               0.000000000               0.150276966               0.406818266               0.000000000               0.159582724               0.430113700               0.000000000               0.168888483               0.453409133               0.000000000               0.178194241               0.476704567               0.000000000               0.187500000               0.500000000               0.000000000               0.025947013               0.130444442               0.000000000               0.032137825               0.153541665               0.000000000               0.038328636               0.176638887               0.000000000               0.044519448               0.199736109               0.000000000               0.050710260               0.222833332               0.000000000               0.056901071               0.245930554               0.000000000               0.063091883               0.269027776               0.000000000               0.069282695               0.292124999               0.000000000               0.075473506               0.315222221               0.000000000               0.081664318               0.338319444               0.000000000               0.087855130               0.361416666               0.000000000               0.094045942               0.384513888               0.000000000               0.100236753               0.407611111               0.000000000               0.106427565               0.430708333               0.000000000               0.112618377               0.453805555               0.000000000               0.118809188               0.476902778               0.000000000               0.125000000               0.500000000               0.000000000               0.013036280               0.132359569               0.000000000               0.016127762               0.155337096               0.000000000               0.019219245               0.178314623               0.000000000               0.022310727               0.201292150               0.000000000               0.025402210               0.224269676               0.000000000               0.028493692               0.247247203               0.000000000               0.031585175               0.270224730               0.000000000               0.034676657               0.293202257               0.000000000               0.037768140               0.316179784               0.000000000               0.040859622               0.339157311               0.000000000               0.043951105               0.362134838               0.000000000               0.047042587               0.385112365               0.000000000               0.050134070               0.408089892               0.000000000               0.053225552               0.431067419               0.000000000               0.056317035               0.454044946               0.000000000               0.059408517               0.477022473               0.000000000               0.062500000               0.500000000               0.000000000               0.000000000               0.133000000               0.000000000               0.000000000               0.155937500               0.000000000               0.000000000               0.178875000               0.000000000               0.000000000               0.201812500               0.000000000               0.000000000               0.224750000               0.000000000               0.000000000               0.247687500               0.000000000               0.000000000               0.270625000               0.000000000               0.000000000               0.293562500               0.000000000               0.000000000               0.316500000               0.000000000               0.000000000               0.339437500               0.000000000               0.000000000               0.362375000               0.000000000               0.000000000               0.385312500               0.000000000               0.000000000               0.408250000               0.000000000               0.000000000               0.431187500               0.000000000               0.000000000               0.454125000               0.000000000               0.000000000               0.477062500               0.000000000               0.000000000               0.500000000               0.000000000               0.133000000               0.000000000               0.000000000               0.155937500               0.000000000               0.000000000               0.178875000               0.000000000               0.000000000               0.201812500               0.000000000               0.000000000               0.224750000               0.000000000               0.000000000               0.247687500               0.000000000               0.000000000               0.270625000               0.000000000               0.000000000               0.293562500               0.000000000               0.000000000               0.316500000               0.000000000               0.000000000               0.339437500               0.000000000               0.000000000               0.362375000               0.000000000               0.000000000               0.385312500               0.000000000               0.000000000               0.408250000               0.000000000               0.000000000               0.431187500               0.000000000               0.000000000               0.454125000               0.000000000               0.000000000               0.477062500               0.000000000               0.000000000               0.500000000               0.000000000               0.000000000               0.132359569              -0.013036280               0.000000000               0.155337096              -0.016127762               0.000000000               0.178314623              -0.019219245               0.000000000               0.201292150              -0.022310727               0.000000000               0.224269676              -0.025402210               0.000000000               0.247247203              -0.028493692               0.000000000               0.270224730              -0.031585175               0.000000000               0.293202257              -0.034676657               0.000000000               0.316179784              -0.037768140               0.000000000               0.339157311              -0.040859622               0.000000000               0.362134838              -0.043951105               0.000000000               0.385112365              -0.047042587               0.000000000               0.408089892              -0.050134070               0.000000000               0.431067419              -0.053225552               0.000000000               0.454044946              -0.056317035               0.000000000               0.477022473              -0.059408517               0.000000000               0.500000000              -0.062500000               0.000000000               0.130444442              -0.025947013               0.000000000               0.153541665              -0.032137825               0.000000000               0.176638887              -0.038328636               0.000000000               0.199736109              -0.044519448               0.000000000               0.222833332              -0.050710260               0.000000000               0.245930554              -0.056901071               0.000000000               0.269027776              -0.063091883               0.000000000               0.292124999              -0.069282695               0.000000000               0.315222221              -0.075473506               0.000000000               0.338319444              -0.081664318               0.000000000               0.361416666              -0.087855130               0.000000000               0.384513888              -0.094045942               0.000000000               0.407611111              -0.100236753               0.000000000               0.430708333              -0.106427565               0.000000000               0.453805555              -0.112618377               0.000000000               0.476902778              -0.118809188               0.000000000               0.500000000              -0.125000000               0.000000000               0.127273065              -0.038607862               0.000000000               0.150568498              -0.047913621               0.000000000               0.173863932              -0.057219379               0.000000000               0.197159365              -0.066525138               0.000000000               0.220454798              -0.075830897               0.000000000               0.243750232              -0.085136655               0.000000000               0.267045665              -0.094442414               0.000000000               0.290341099              -0.103748172               0.000000000               0.313636532              -0.113053931               0.000000000               0.336931966              -0.122359690               0.000000000               0.360227399              -0.131665448               0.000000000               0.383522833              -0.140971207               0.000000000               0.406818266              -0.150276966               0.000000000               0.430113700              -0.159582724               0.000000000               0.453409133              -0.168888483               0.000000000               0.476704567              -0.178194241               0.000000000               0.500000000              -0.187500000               0.000000000               0.122875978              -0.050896897               0.000000000               0.146446229              -0.063340840               0.000000000               0.170016481              -0.075784784               0.000000000               0.193586732              -0.088228728               0.000000000               0.217156983              -0.100672672               0.000000000               0.240727235              -0.113116616               0.000000000               0.264297486              -0.125560560               0.000000000               0.287867738              -0.138004504               0.000000000               0.311437989              -0.150448448               0.000000000               0.335008240              -0.162892392               0.000000000               0.358578492              -0.175336336               0.000000000               0.382148743              -0.187780280               0.000000000               0.405718994              -0.200224224               0.000000000               0.429289246              -0.212668168               0.000000000               0.452859497              -0.225112112               0.000000000               0.476429749              -0.237556056               0.000000000               0.500000000              -0.250000000               0.000000000               0.117295528              -0.062695766               0.000000000               0.141214558              -0.078308531               0.000000000               0.165133587              -0.093921295               0.000000000               0.189052617              -0.109534060               0.000000000               0.212971646              -0.125146824               0.000000000               0.236890676              -0.140759589               0.000000000               0.260809705              -0.156372354               0.000000000               0.284728735              -0.171985118               0.000000000               0.308647764              -0.187597883               0.000000000               0.332566794              -0.203210648               0.000000000               0.356485823              -0.218823412               0.000000000               0.380404853              -0.234436177               0.000000000               0.404323882              -0.250048941               0.000000000               0.428242912              -0.265661706               0.000000000               0.452161941              -0.281274471               0.000000000               0.476080971              -0.296887235               0.000000000               0.500000000              -0.312500000               0.000000000               0.110585458              -0.073890841               0.000000000               0.134923867              -0.092710163               0.000000000               0.159262276              -0.111529486               0.000000000               0.183600685              -0.130348808               0.000000000               0.207939094              -0.149168131               0.000000000               0.232277503              -0.167987453               0.000000000               0.256615912              -0.186806776               0.000000000               0.280954320              -0.205626098               0.000000000               0.305292729              -0.224445420               0.000000000               0.329631138              -0.243264743               0.000000000               0.353969547              -0.262084065               0.000000000               0.378307956              -0.280903388               0.000000000               0.402646365              -0.299722710               0.000000000               0.426984773              -0.318542033               0.000000000               0.451323182              -0.337361355               0.000000000               0.475661591              -0.356180678               0.000000000               0.500000000              -0.375000000               0.000000000               0.102810390              -0.084374307               0.000000000               0.127634741              -0.106444663               0.000000000               0.152459092              -0.128515018               0.000000000               0.177283442              -0.150585374               0.000000000               0.202107793              -0.172655730               0.000000000               0.226932143              -0.194726086               0.000000000               0.251756494              -0.216796442               0.000000000               0.276580845              -0.238866798               0.000000000               0.301405195              -0.260937153               0.000000000               0.326229546              -0.283007509               0.000000000               0.351053896              -0.305077865               0.000000000               0.375878247              -0.327148221               0.000000000               0.400702598              -0.349218577               0.000000000               0.425526948              -0.371288933               0.000000000               0.450351299              -0.393359288               0.000000000               0.475175649              -0.415429644               0.000000000               0.500000000              -0.437500000               0.000000000               0.094045202              -0.094045202               0.000000000               0.119417377              -0.119417377               0.000000000               0.144789552              -0.144789552               0.000000000               0.170161727              -0.170161727               0.000000000               0.195533901              -0.195533901               0.000000000               0.220906076              -0.220906076               0.000000000               0.246278251              -0.246278251               0.000000000               0.271650426              -0.271650426               0.000000000               0.297022601              -0.297022601               0.000000000               0.322394776              -0.322394776               0.000000000               0.347766951              -0.347766951               0.000000000               0.373139126              -0.373139126               0.000000000               0.398511300              -0.398511300               0.000000000               0.423883475              -0.423883475               0.000000000               0.449255650              -0.449255650               0.000000000               0.474627825              -0.474627825               0.000000000               0.500000000              -0.500000000               0.000000000               0.084374307              -0.102810390               0.000000000               0.106444663              -0.127634741               0.000000000               0.128515018              -0.152459092               0.000000000               0.150585374              -0.177283442               0.000000000               0.172655730              -0.202107793               0.000000000               0.194726086              -0.226932143               0.000000000               0.216796442              -0.251756494               0.000000000               0.238866798              -0.276580845               0.000000000               0.260937153              -0.301405195               0.000000000               0.283007509              -0.326229546               0.000000000               0.305077865              -0.351053896               0.000000000               0.327148221              -0.375878247               0.000000000               0.349218577              -0.400702598               0.000000000               0.371288933              -0.425526948               0.000000000               0.393359288              -0.450351299               0.000000000               0.415429644              -0.475175649               0.000000000               0.437500000              -0.500000000               0.000000000               0.073890841              -0.110585458               0.000000000               0.092710163              -0.134923867               0.000000000               0.111529486              -0.159262276               0.000000000               0.130348808              -0.183600685               0.000000000               0.149168131              -0.207939094               0.000000000               0.167987453              -0.232277503               0.000000000               0.186806776              -0.256615912               0.000000000               0.205626098              -0.280954320               0.000000000               0.224445420              -0.305292729               0.000000000               0.243264743              -0.329631138               0.000000000               0.262084065              -0.353969547               0.000000000               0.280903388              -0.378307956               0.000000000               0.299722710              -0.402646365               0.000000000               0.318542033              -0.426984773               0.000000000               0.337361355              -0.451323182               0.000000000               0.356180678              -0.475661591               0.000000000               0.375000000              -0.500000000               0.000000000               0.062695766              -0.117295528               0.000000000               0.078308531              -0.141214558               0.000000000               0.093921295              -0.165133587               0.000000000               0.109534060              -0.189052617               0.000000000               0.125146824              -0.212971646               0.000000000               0.140759589              -0.236890676               0.000000000               0.156372354              -0.260809705               0.000000000               0.171985118              -0.284728735               0.000000000               0.187597883              -0.308647764               0.000000000               0.203210648              -0.332566794               0.000000000               0.218823412              -0.356485823               0.000000000               0.234436177              -0.380404853               0.000000000               0.250048941              -0.404323882               0.000000000               0.265661706              -0.428242912               0.000000000               0.281274471              -0.452161941               0.000000000               0.296887235              -0.476080971               0.000000000               0.312500000              -0.500000000               0.000000000               0.050896897              -0.122875978               0.000000000               0.063340840              -0.146446229               0.000000000               0.075784784              -0.170016481               0.000000000               0.088228728              -0.193586732               0.000000000               0.100672672              -0.217156983               0.000000000               0.113116616              -0.240727235               0.000000000               0.125560560              -0.264297486               0.000000000               0.138004504              -0.287867738               0.000000000               0.150448448              -0.311437989               0.000000000               0.162892392              -0.335008240               0.000000000               0.175336336              -0.358578492               0.000000000               0.187780280              -0.382148743               0.000000000               0.200224224              -0.405718994               0.000000000               0.212668168              -0.429289246               0.000000000               0.225112112              -0.452859497               0.000000000               0.237556056              -0.476429749               0.000000000               0.250000000              -0.500000000               0.000000000               0.038607862              -0.127273065               0.000000000               0.047913621              -0.150568498               0.000000000               0.057219379              -0.173863932               0.000000000               0.066525138              -0.197159365               0.000000000               0.075830897              -0.220454798               0.000000000               0.085136655              -0.243750232               0.000000000               0.094442414              -0.267045665               0.000000000               0.103748172              -0.290341099               0.000000000               0.113053931              -0.313636532               0.000000000               0.122359690              -0.336931966               0.000000000               0.131665448              -0.360227399               0.000000000               0.140971207              -0.383522833               0.000000000               0.150276966              -0.406818266               0.000000000               0.159582724              -0.430113700               0.000000000               0.168888483              -0.453409133               0.000000000               0.178194241              -0.476704567               0.000000000               0.187500000              -0.500000000               0.000000000               0.025947013              -0.130444442               0.000000000               0.032137825              -0.153541665               0.000000000               0.038328636              -0.176638887               0.000000000               0.044519448              -0.199736109               0.000000000               0.050710260              -0.222833332               0.000000000               0.056901071              -0.245930554               0.000000000               0.063091883              -0.269027776               0.000000000               0.069282695              -0.292124999               0.000000000               0.075473506              -0.315222221               0.000000000               0.081664318              -0.338319444               0.000000000               0.087855130              -0.361416666               0.000000000               0.094045942              -0.384513888               0.000000000               0.100236753              -0.407611111               0.000000000               0.106427565              -0.430708333               0.000000000               0.112618377              -0.453805555               0.000000000               0.118809188              -0.476902778               0.000000000               0.125000000              -0.500000000               0.000000000               0.013036280              -0.132359569               0.000000000               0.016127762              -0.155337096               0.000000000               0.019219245              -0.178314623               0.000000000               0.022310727              -0.201292150               0.000000000               0.025402210              -0.224269676               0.000000000               0.028493692              -0.247247203               0.000000000               0.031585175              -0.270224730               0.000000000               0.034676657              -0.293202257               0.000000000               0.037768140              -0.316179784               0.000000000               0.040859622              -0.339157311               0.000000000               0.043951105              -0.362134838               0.000000000               0.047042587              -0.385112365               0.000000000               0.050134070              -0.408089892               0.000000000               0.053225552              -0.431067419               0.000000000               0.056317035              -0.454044946               0.000000000               0.059408517              -0.477022473               0.000000000               0.062500000              -0.500000000               0.000000000               0.000000000              -0.133000000               0.000000000               0.000000000              -0.155937500               0.000000000               0.000000000              -0.178875000               0.000000000               0.000000000              -0.201812500               0.000000000               0.000000000              -0.224750000               0.000000000               0.000000000              -0.247687500               0.000000000               0.000000000              -0.270625000               0.000000000               0.000000000              -0.293562500               0.000000000               0.000000000              -0.316500000               0.000000000               0.000000000              -0.339437500               0.000000000               0.000000000              -0.362375000               0.000000000               0.000000000              -0.385312500               0.000000000               0.000000000              -0.408250000               0.000000000               0.000000000              -0.431187500               0.000000000               0.000000000              -0.454125000               0.000000000               0.000000000              -0.477062500               0.000000000               0.000000000              -0.500000000               0.000000000              -0.133000000               0.000000000               0.000000000              -0.155937500               0.000000000               0.000000000              -0.178875000               0.000000000               0.000000000              -0.201812500               0.000000000               0.000000000              -0.224750000               0.000000000               0.000000000              -0.247687500               0.000000000               0.000000000              -0.270625000               0.000000000               0.000000000              -0.293562500               0.000000000               0.000000000              -0.316500000               0.000000000               0.000000000              -0.339437500               0.000000000               0.000000000              -0.362375000               0.000000000               0.000000000              -0.385312500               0.000000000               0.000000000              -0.408250000               0.000000000               0.000000000              -0.431187500               0.000000000               0.000000000              -0.454125000               0.000000000               0.000000000              -0.477062500               0.000000000               0.000000000              -0.500000000               0.000000000               0.000000000              -0.132359569              -0.013036280               0.000000000              -0.155337096              -0.016127762               0.000000000              -0.178314623              -0.019219245               0.000000000              -0.201292150              -0.022310727               0.000000000              -0.224269676              -0.025402210               0.000000000              -0.247247203              -0.028493692               0.000000000              -0.270224730              -0.031585175               0.000000000              -0.293202257              -0.034676657               0.000000000              -0.316179784              -0.037768140               0.000000000              -0.339157311              -0.040859622               0.000000000              -0.362134838              -0.043951105               0.000000000              -0.385112365              -0.047042587               0.000000000              -0.408089892              -0.050134070               0.000000000              -0.431067419              -0.053225552               0.000000000              -0.454044946              -0.056317035               0.000000000              -0.477022473              -0.059408517               0.000000000              -0.500000000              -0.062500000               0.000000000              -0.130444442              -0.025947013               0.000000000              -0.153541665              -0.032137825               0.000000000              -0.176638887              -0.038328636               0.000000000              -0.199736109              -0.044519448               0.000000000              -0.222833332              -0.050710260               0.000000000              -0.245930554              -0.056901071               0.000000000              -0.269027776              -0.063091883               0.000000000              -0.292124999              -0.069282695               0.000000000              -0.315222221              -0.075473506               0.000000000              -0.338319444              -0.081664318               0.000000000              -0.361416666              -0.087855130               0.000000000              -0.384513888              -0.094045942               0.000000000              -0.407611111              -0.100236753               0.000000000              -0.430708333              -0.106427565               0.000000000              -0.453805555              -0.112618377               0.000000000              -0.476902778              -0.118809188               0.000000000              -0.500000000              -0.125000000               0.000000000              -0.127273065              -0.038607862               0.000000000              -0.150568498              -0.047913621               0.000000000              -0.173863932              -0.057219379               0.000000000              -0.197159365              -0.066525138               0.000000000              -0.220454798              -0.075830897               0.000000000              -0.243750232              -0.085136655               0.000000000              -0.267045665              -0.094442414               0.000000000              -0.290341099              -0.103748172               0.000000000              -0.313636532              -0.113053931               0.000000000              -0.336931966              -0.122359690               0.000000000              -0.360227399              -0.131665448               0.000000000              -0.383522833              -0.140971207               0.000000000              -0.406818266              -0.150276966               0.000000000              -0.430113700              -0.159582724               0.000000000              -0.453409133              -0.168888483               0.000000000              -0.476704567              -0.178194241               0.000000000              -0.500000000              -0.187500000               0.000000000              -0.122875978              -0.050896897               0.000000000              -0.146446229              -0.063340840               0.000000000              -0.170016481              -0.075784784               0.000000000              -0.193586732              -0.088228728               0.000000000              -0.217156983              -0.100672672               0.000000000              -0.240727235              -0.113116616               0.000000000              -0.264297486              -0.125560560               0.000000000              -0.287867738              -0.138004504               0.000000000              -0.311437989              -0.150448448               0.000000000              -0.335008240              -0.162892392               0.000000000              -0.358578492              -0.175336336               0.000000000              -0.382148743              -0.187780280               0.000000000              -0.405718994              -0.200224224               0.000000000              -0.429289246              -0.212668168               0.000000000              -0.452859497              -0.225112112               0.000000000              -0.476429749              -0.237556056               0.000000000              -0.500000000              -0.250000000               0.000000000              -0.117295528              -0.062695766               0.000000000              -0.141214558              -0.078308531               0.000000000              -0.165133587              -0.093921295               0.000000000              -0.189052617              -0.109534060               0.000000000              -0.212971646              -0.125146824               0.000000000              -0.236890676              -0.140759589               0.000000000              -0.260809705              -0.156372354               0.000000000              -0.284728735              -0.171985118               0.000000000              -0.308647764              -0.187597883               0.000000000              -0.332566794              -0.203210648               0.000000000              -0.356485823              -0.218823412               0.000000000              -0.380404853              -0.234436177               0.000000000              -0.404323882              -0.250048941               0.000000000              -0.428242912              -0.265661706               0.000000000              -0.452161941              -0.281274471               0.000000000              -0.476080971              -0.296887235               0.000000000              -0.500000000              -0.312500000               0.000000000              -0.110585458              -0.073890841               0.000000000              -0.134923867              -0.092710163               0.000000000              -0.159262276              -0.111529486               0.000000000              -0.183600685              -0.130348808               0.000000000              -0.207939094              -0.149168131               0.000000000              -0.232277503              -0.167987453               0.000000000              -0.256615912              -0.186806776               0.000000000              -0.280954320              -0.205626098               0.000000000              -0.305292729              -0.224445420               0.000000000              -0.329631138              -0.243264743               0.000000000              -0.353969547              -0.262084065               0.000000000              -0.378307956              -0.280903388               0.000000000              -0.402646365              -0.299722710               0.000000000              -0.426984773              -0.318542033               0.000000000              -0.451323182              -0.337361355               0.000000000              -0.475661591              -0.356180678               0.000000000              -0.500000000              -0.375000000               0.000000000              -0.102810390              -0.084374307               0.000000000              -0.127634741              -0.106444663               0.000000000              -0.152459092              -0.128515018               0.000000000              -0.177283442              -0.150585374               0.000000000              -0.202107793              -0.172655730               0.000000000              -0.226932143              -0.194726086               0.000000000              -0.251756494              -0.216796442               0.000000000              -0.276580845              -0.238866798               0.000000000              -0.301405195              -0.260937153               0.000000000              -0.326229546              -0.283007509               0.000000000              -0.351053896              -0.305077865               0.000000000              -0.375878247              -0.327148221               0.000000000              -0.400702598              -0.349218577               0.000000000              -0.425526948              -0.371288933               0.000000000              -0.450351299              -0.393359288               0.000000000              -0.475175649              -0.415429644               0.000000000              -0.500000000              -0.437500000               0.000000000              -0.094045202              -0.094045202               0.000000000              -0.119417377              -0.119417377               0.000000000              -0.144789552              -0.144789552               0.000000000              -0.170161727              -0.170161727               0.000000000              -0.195533901              -0.195533901               0.000000000              -0.220906076              -0.220906076               0.000000000              -0.246278251              -0.246278251               0.000000000              -0.271650426              -0.271650426               0.000000000              -0.297022601              -0.297022601               0.000000000              -0.322394776              -0.322394776               0.000000000              -0.347766951              -0.347766951               0.000000000              -0.373139126              -0.373139126               0.000000000              -0.398511300              -0.398511300               0.000000000              -0.423883475              -0.423883475               0.000000000              -0.449255650              -0.449255650               0.000000000              -0.474627825              -0.474627825               0.000000000              -0.500000000              -0.500000000               0.000000000              -0.084374307              -0.102810390               0.000000000              -0.106444663              -0.127634741               0.000000000              -0.128515018              -0.152459092               0.000000000              -0.150585374              -0.177283442               0.000000000              -0.172655730              -0.202107793               0.000000000              -0.194726086              -0.226932143               0.000000000              -0.216796442              -0.251756494               0.000000000              -0.238866798              -0.276580845               0.000000000              -0.260937153              -0.301405195               0.000000000              -0.283007509              -0.326229546               0.000000000              -0.305077865              -0.351053896               0.000000000              -0.327148221              -0.375878247               0.000000000              -0.349218577              -0.400702598               0.000000000              -0.371288933              -0.425526948               0.000000000              -0.393359288              -0.450351299               0.000000000              -0.415429644              -0.475175649               0.000000000              -0.437500000              -0.500000000               0.000000000              -0.073890841              -0.110585458               0.000000000              -0.092710163              -0.134923867               0.000000000              -0.111529486              -0.159262276               0.000000000              -0.130348808              -0.183600685               0.000000000              -0.149168131              -0.207939094               0.000000000              -0.167987453              -0.232277503               0.000000000              -0.186806776              -0.256615912               0.000000000              -0.205626098              -0.280954320               0.000000000              -0.224445420              -0.305292729               0.000000000              -0.243264743              -0.329631138               0.000000000              -0.262084065              -0.353969547               0.000000000              -0.280903388              -0.378307956               0.000000000              -0.299722710              -0.402646365               0.000000000              -0.318542033              -0.426984773               0.000000000              -0.337361355              -0.451323182               0.000000000              -0.356180678              -0.475661591               0.000000000              -0.375000000              -0.500000000               0.000000000              -0.062695766              -0.117295528               0.000000000              -0.078308531              -0.141214558               0.000000000              -0.093921295              -0.165133587               0.000000000              -0.109534060              -0.189052617               0.000000000              -0.125146824              -0.212971646               0.000000000              -0.140759589              -0.236890676               0.000000000              -0.156372354              -0.260809705               0.000000000              -0.171985118              -0.284728735               0.000000000              -0.187597883              -0.308647764               0.000000000              -0.203210648              -0.332566794               0.000000000              -0.218823412              -0.356485823               0.000000000              -0.234436177              -0.380404853               0.000000000              -0.250048941              -0.404323882               0.000000000              -0.265661706              -0.428242912               0.000000000              -0.281274471              -0.452161941               0.000000000              -0.296887235              -0.476080971               0.000000000              -0.312500000              -0.500000000               0.000000000              -0.050896897              -0.122875978               0.000000000              -0.063340840              -0.146446229               0.000000000              -0.075784784              -0.170016481               0.000000000              -0.088228728              -0.193586732               0.000000000              -0.100672672              -0.217156983               0.000000000              -0.113116616              -0.240727235               0.000000000              -0.125560560              -0.264297486               0.000000000              -0.138004504              -0.287867738               0.000000000              -0.150448448              -0.311437989               0.000000000              -0.162892392              -0.335008240               0.000000000              -0.175336336              -0.358578492               0.000000000              -0.187780280              -0.382148743               0.000000000              -0.200224224              -0.405718994               0.000000000              -0.212668168              -0.429289246               0.000000000              -0.225112112              -0.452859497               0.000000000              -0.237556056              -0.476429749               0.000000000              -0.250000000              -0.500000000               0.000000000              -0.038607862              -0.127273065               0.000000000              -0.047913621              -0.150568498               0.000000000              -0.057219379              -0.173863932               0.000000000              -0.066525138              -0.197159365               0.000000000              -0.075830897              -0.220454798               0.000000000              -0.085136655              -0.243750232               0.000000000              -0.094442414              -0.267045665               0.000000000              -0.103748172              -0.290341099               0.000000000              -0.113053931              -0.313636532               0.000000000              -0.122359690              -0.336931966               0.000000000              -0.131665448              -0.360227399               0.000000000              -0.140971207              -0.383522833               0.000000000              -0.150276966              -0.406818266               0.000000000              -0.159582724              -0.430113700               0.000000000              -0.168888483              -0.453409133               0.000000000              -0.178194241              -0.476704567               0.000000000              -0.187500000              -0.500000000               0.000000000              -0.025947013              -0.130444442               0.000000000              -0.032137825              -0.153541665               0.000000000              -0.038328636              -0.176638887               0.000000000              -0.044519448              -0.199736109               0.000000000              -0.050710260              -0.222833332               0.000000000              -0.056901071              -0.245930554               0.000000000              -0.063091883              -0.269027776               0.000000000              -0.069282695              -0.292124999               0.000000000              -0.075473506              -0.315222221               0.000000000              -0.081664318              -0.338319444               0.000000000              -0.087855130              -0.361416666               0.000000000              -0.094045942              -0.384513888               0.000000000              -0.100236753              -0.407611111               0.000000000              -0.106427565              -0.430708333               0.000000000              -0.112618377              -0.453805555               0.000000000              -0.118809188              -0.476902778               0.000000000              -0.125000000              -0.500000000               0.000000000              -0.013036280              -0.132359569               0.000000000              -0.016127762              -0.155337096               0.000000000              -0.019219245              -0.178314623               0.000000000              -0.022310727              -0.201292150               0.000000000              -0.025402210              -0.224269676               0.000000000              -0.028493692              -0.247247203               0.000000000              -0.031585175              -0.270224730               0.000000000              -0.034676657              -0.293202257               0.000000000              -0.037768140              -0.316179784               0.000000000              -0.040859622              -0.339157311               0.000000000              -0.043951105              -0.362134838               0.000000000              -0.047042587              -0.385112365               0.000000000              -0.050134070              -0.408089892               0.000000000              -0.053225552              -0.431067419               0.000000000              -0.056317035              -0.454044946               0.000000000              -0.059408517              -0.477022473               0.000000000              -0.062500000              -0.500000000               0.000000000               0.000000000              -0.133000000               0.000000000               0.000000000              -0.155937500               0.000000000               0.000000000              -0.178875000               0.000000000               0.000000000              -0.201812500               0.000000000               0.000000000              -0.224750000               0.000000000               0.000000000              -0.247687500               0.000000000               0.000000000              -0.270625000               0.000000000               0.000000000              -0.293562500               0.000000000               0.000000000              -0.316500000               0.000000000               0.000000000              -0.339437500               0.000000000               0.000000000              -0.362375000               0.000000000               0.000000000              -0.385312500               0.000000000               0.000000000              -0.408250000               0.000000000               0.000000000              -0.431187500               0.000000000               0.000000000              -0.454125000               0.000000000               0.000000000              -0.477062500               0.000000000               0.000000000              -0.500000000               0.000000000              -0.133000000               0.000000000               0.000000000              -0.155937500               0.000000000               0.000000000              -0.178875000               0.000000000               0.000000000              -0.201812500               0.000000000               0.000000000              -0.224750000               0.000000000               0.000000000              -0.247687500               0.000000000               0.000000000              -0.270625000               0.000000000               0.000000000              -0.293562500               0.000000000               0.000000000              -0.316500000               0.000000000               0.000000000              -0.339437500               0.000000000               0.000000000              -0.362375000               0.000000000               0.000000000              -0.385312500               0.000000000               0.000000000              -0.408250000               0.000000000               0.000000000              -0.431187500               0.000000000               0.000000000              -0.454125000               0.000000000               0.000000000              -0.477062500               0.000000000               0.000000000              -0.500000000               0.000000000               0.000000000              -0.132359569               0.013036280               0.000000000              -0.155337096               0.016127762               0.000000000              -0.178314623               0.019219245               0.000000000              -0.201292150               0.022310727               0.000000000              -0.224269676               0.025402210               0.000000000              -0.247247203               0.028493692               0.000000000              -0.270224730               0.031585175               0.000000000              -0.293202257               0.034676657               0.000000000              -0.316179784               0.037768140               0.000000000              -0.339157311               0.040859622               0.000000000              -0.362134838               0.043951105               0.000000000              -0.385112365               0.047042587               0.000000000              -0.408089892               0.050134070               0.000000000              -0.431067419               0.053225552               0.000000000              -0.454044946               0.056317035               0.000000000              -0.477022473               0.059408517               0.000000000              -0.500000000               0.062500000               0.000000000              -0.130444442               0.025947013               0.000000000              -0.153541665               0.032137825               0.000000000              -0.176638887               0.038328636               0.000000000              -0.199736109               0.044519448               0.000000000              -0.222833332               0.050710260               0.000000000              -0.245930554               0.056901071               0.000000000              -0.269027776               0.063091883               0.000000000              -0.292124999               0.069282695               0.000000000              -0.315222221               0.075473506               0.000000000              -0.338319444               0.081664318               0.000000000              -0.361416666               0.087855130               0.000000000              -0.384513888               0.094045942               0.000000000              -0.407611111               0.100236753               0.000000000              -0.430708333               0.106427565               0.000000000              -0.453805555               0.112618377               0.000000000              -0.476902778               0.118809188               0.000000000              -0.500000000               0.125000000               0.000000000              -0.127273065               0.038607862               0.000000000              -0.150568498               0.047913621               0.000000000              -0.173863932               0.057219379               0.000000000              -0.197159365               0.066525138               0.000000000              -0.220454798               0.075830897               0.000000000              -0.243750232               0.085136655               0.000000000              -0.267045665               0.094442414               0.000000000              -0.290341099               0.103748172               0.000000000              -0.313636532               0.113053931               0.000000000              -0.336931966               0.122359690               0.000000000              -0.360227399               0.131665448               0.000000000              -0.383522833               0.140971207               0.000000000              -0.406818266               0.150276966               0.000000000              -0.430113700               0.159582724               0.000000000              -0.453409133               0.168888483               0.000000000              -0.476704567               0.178194241               0.000000000              -0.500000000               0.187500000               0.000000000              -0.122875978               0.050896897               0.000000000              -0.146446229               0.063340840               0.000000000              -0.170016481               0.075784784               0.000000000              -0.193586732               0.088228728               0.000000000              -0.217156983               0.100672672               0.000000000              -0.240727235               0.113116616               0.000000000              -0.264297486               0.125560560               0.000000000              -0.287867738               0.138004504               0.000000000              -0.311437989               0.150448448               0.000000000              -0.335008240               0.162892392               0.000000000              -0.358578492               0.175336336               0.000000000              -0.382148743               0.187780280               0.000000000              -0.405718994               0.200224224               0.000000000              -0.429289246               0.212668168               0.000000000              -0.452859497               0.225112112               0.000000000              -0.476429749               0.237556056               0.000000000              -0.500000000               0.250000000               0.000000000              -0.117295528               0.062695766               0.000000000              -0.141214558               0.078308531               0.000000000              -0.165133587               0.093921295               0.000000000              -0.189052617               0.109534060               0.000000000              -0.212971646               0.125146824               0.000000000              -0.236890676               0.140759589               0.000000000              -0.260809705               0.156372354               0.000000000              -0.284728735               0.171985118               0.000000000              -0.308647764               0.187597883               0.000000000              -0.332566794               0.203210648               0.000000000              -0.356485823               0.218823412               0.000000000              -0.380404853               0.234436177               0.000000000              -0.404323882               0.250048941               0.000000000              -0.428242912               0.265661706               0.000000000              -0.452161941               0.281274471               0.000000000              -0.476080971               0.296887235               0.000000000              -0.500000000               0.312500000               0.000000000              -0.110585458               0.073890841               0.000000000              -0.134923867               0.092710163               0.000000000              -0.159262276               0.111529486               0.000000000              -0.183600685               0.130348808               0.000000000              -0.207939094               0.149168131               0.000000000              -0.232277503               0.167987453               0.000000000              -0.256615912               0.186806776               0.000000000              -0.280954320               0.205626098               0.000000000              -0.305292729               0.224445420               0.000000000              -0.329631138               0.243264743               0.000000000              -0.353969547               0.262084065               0.000000000              -0.378307956               0.280903388               0.000000000              -0.402646365               0.299722710               0.000000000              -0.426984773               0.318542033               0.000000000              -0.451323182               0.337361355               0.000000000              -0.475661591               0.356180678               0.000000000              -0.500000000               0.375000000               0.000000000              -0.102810390               0.084374307               0.000000000              -0.127634741               0.106444663               0.000000000              -0.152459092               0.128515018               0.000000000              -0.177283442               0.150585374               0.000000000              -0.202107793               0.172655730               0.000000000              -0.226932143               0.194726086               0.000000000              -0.251756494               0.216796442               0.000000000              -0.276580845               0.238866798               0.000000000              -0.301405195               0.260937153               0.000000000              -0.326229546               0.283007509               0.000000000              -0.351053896               0.305077865               0.000000000              -0.375878247               0.327148221               0.000000000              -0.400702598               0.349218577               0.000000000              -0.425526948               0.371288933               0.000000000              -0.450351299               0.393359288               0.000000000              -0.475175649               0.415429644               0.000000000              -0.500000000               0.437500000               0.000000000              -0.094045202               0.094045202               0.000000000              -0.119417377               0.119417377               0.000000000              -0.144789552               0.144789552               0.000000000              -0.170161727               0.170161727               0.000000000              -0.195533901               0.195533901               0.000000000              -0.220906076               0.220906076               0.000000000              -0.246278251               0.246278251               0.000000000              -0.271650426               0.271650426               0.000000000              -0.297022601               0.297022601               0.000000000              -0.322394776               0.322394776               0.000000000              -0.347766951               0.347766951               0.000000000              -0.373139126               0.373139126               0.000000000              -0.398511300               0.398511300               0.000000000              -0.423883475               0.423883475               0.000000000              -0.449255650               0.449255650               0.000000000              -0.474627825               0.474627825               0.000000000              -0.500000000               0.500000000               0.000000000              -0.084374307               0.102810390               0.000000000              -0.106444663               0.127634741               0.000000000              -0.128515018               0.152459092               0.000000000              -0.150585374               0.177283442               0.000000000              -0.172655730               0.202107793               0.000000000              -0.194726086               0.226932143               0.000000000              -0.216796442               0.251756494               0.000000000              -0.238866798               0.276580845               0.000000000              -0.260937153               0.301405195               0.000000000              -0.283007509               0.326229546               0.000000000              -0.305077865               0.351053896               0.000000000              -0.327148221               0.375878247               0.000000000              -0.349218577               0.400702598               0.000000000              -0.371288933               0.425526948               0.000000000              -0.393359288               0.450351299               0.000000000              -0.415429644               0.475175649               0.000000000              -0.437500000               0.500000000               0.000000000              -0.073890841               0.110585458               0.000000000              -0.092710163               0.134923867               0.000000000              -0.111529486               0.159262276               0.000000000              -0.130348808               0.183600685               0.000000000              -0.149168131               0.207939094               0.000000000              -0.167987453               0.232277503               0.000000000              -0.186806776               0.256615912               0.000000000              -0.205626098               0.280954320               0.000000000              -0.224445420               0.305292729               0.000000000              -0.243264743               0.329631138               0.000000000              -0.262084065               0.353969547               0.000000000              -0.280903388               0.378307956               0.000000000              -0.299722710               0.402646365               0.000000000              -0.318542033               0.426984773               0.000000000              -0.337361355               0.451323182               0.000000000              -0.356180678               0.475661591               0.000000000              -0.375000000               0.500000000               0.000000000              -0.062695766               0.117295528               0.000000000              -0.078308531               0.141214558               0.000000000              -0.093921295               0.165133587               0.000000000              -0.109534060               0.189052617               0.000000000              -0.125146824               0.212971646               0.000000000              -0.140759589               0.236890676               0.000000000              -0.156372354               0.260809705               0.000000000              -0.171985118               0.284728735               0.000000000              -0.187597883               0.308647764               0.000000000              -0.203210648               0.332566794               0.000000000              -0.218823412               0.356485823               0.000000000              -0.234436177               0.380404853               0.000000000              -0.250048941               0.404323882               0.000000000              -0.265661706               0.428242912               0.000000000              -0.281274471               0.452161941               0.000000000              -0.296887235               0.476080971               0.000000000              -0.312500000               0.500000000               0.000000000              -0.050896897               0.122875978               0.000000000              -0.063340840               0.146446229               0.000000000              -0.075784784               0.170016481               0.000000000              -0.088228728               0.193586732               0.000000000              -0.100672672               0.217156983               0.000000000              -0.113116616               0.240727235               0.000000000              -0.125560560               0.264297486               0.000000000              -0.138004504               0.287867738               0.000000000              -0.150448448               0.311437989               0.000000000              -0.162892392               0.335008240               0.000000000              -0.175336336               0.358578492               0.000000000              -0.187780280               0.382148743               0.000000000              -0.200224224               0.405718994               0.000000000              -0.212668168               0.429289246               0.000000000              -0.225112112               0.452859497               0.000000000              -0.237556056               0.476429749               0.000000000              -0.250000000               0.500000000               0.000000000              -0.038607862               0.127273065               0.000000000              -0.047913621               0.150568498               0.000000000              -0.057219379               0.173863932               0.000000000              -0.066525138               0.197159365               0.000000000              -0.075830897               0.220454798               0.000000000              -0.085136655               0.243750232               0.000000000              -0.094442414               0.267045665               0.000000000              -0.103748172               0.290341099               0.000000000              -0.113053931               0.313636532               0.000000000              -0.122359690               0.336931966               0.000000000              -0.131665448               0.360227399               0.000000000              -0.140971207               0.383522833               0.000000000              -0.150276966               0.406818266               0.000000000              -0.159582724               0.430113700               0.000000000              -0.168888483               0.453409133               0.000000000              -0.178194241               0.476704567               0.000000000              -0.187500000               0.500000000               0.000000000              -0.025947013               0.130444442               0.000000000              -0.032137825               0.153541665               0.000000000              -0.038328636               0.176638887               0.000000000              -0.044519448               0.199736109               0.000000000              -0.050710260               0.222833332               0.000000000              -0.056901071               0.245930554               0.000000000              -0.063091883               0.269027776               0.000000000              -0.069282695               0.292124999               0.000000000              -0.075473506               0.315222221               0.000000000              -0.081664318               0.338319444               0.000000000              -0.087855130               0.361416666               0.000000000              -0.094045942               0.384513888               0.000000000              -0.100236753               0.407611111               0.000000000              -0.106427565               0.430708333               0.000000000              -0.112618377               0.453805555               0.000000000              -0.118809188               0.476902778               0.000000000              -0.125000000               0.500000000               0.000000000              -0.013036280               0.132359569               0.000000000              -0.016127762               0.155337096               0.000000000              -0.019219245               0.178314623               0.000000000              -0.022310727               0.201292150               0.000000000              -0.025402210               0.224269676               0.000000000              -0.028493692               0.247247203               0.000000000              -0.031585175               0.270224730               0.000000000              -0.034676657               0.293202257               0.000000000              -0.037768140               0.316179784               0.000000000              -0.040859622               0.339157311               0.000000000              -0.043951105               0.362134838               0.000000000              -0.047042587               0.385112365               0.000000000              -0.050134070               0.408089892               0.000000000              -0.053225552               0.431067419               0.000000000              -0.056317035               0.454044946               0.000000000              -0.059408517               0.477022473               0.000000000              -0.062500000               0.500000000               0.000000000               0.000000000               0.133000000               0.000000000               0.000000000               0.155937500               0.000000000               0.000000000               0.178875000               0.000000000               0.000000000               0.201812500               0.000000000               0.000000000               0.224750000               0.000000000               0.000000000               0.247687500               0.000000000               0.000000000               0.270625000               0.000000000               0.000000000               0.293562500               0.000000000               0.000000000               0.316500000               0.000000000               0.000000000               0.339437500               0.000000000               0.000000000               0.362375000               0.000000000               0.000000000               0.385312500               0.000000000               0.000000000               0.408250000               0.000000000               0.000000000               0.431187500               0.000000000               0.000000000               0.454125000               0.000000000               0.000000000               0.477062500               0.000000000               0.000000000               0.500000000               0.000000000 </DataArray>
</Points>
<Cells>
<DataArray type="Int32"                                    Name="connectivity"                                                      NumberOfComponents=" 1" format="ascii">
         0          1         18         17          1          2         19         18          2          3         20         19          3          4         21         20          4          5         22         21          5          6         23         22          6          7         24         23          7          8         25         24          8          9         26         25          9         10         27         26         10         11         28         27         11         12         29         28         12         13         30         29         13         14         31         30         14         15         32         31         15         16         33         32         17         18         35         34         18         19         36         35         19         20         37         36         20         21         38         37         21         22         39         38         22         23         40         39         23         24         41         40         24         25         42         41         25         26         43         42         26         27         44         43         27         28         45         44         28         29         46         45         29         30         47         46         30         31         48         47         31         32         49         48         32         33         50         49         34         35         52         51         35         36         53         52         36         37         54         53         37         38         55         54         38         39         56         55         39         40         57         56         40         41         58         57         41         42         59         58         42         43         60         59         43         44         61         60         44         45         62         61         45         46         63         62         46         47         64         63         47         48         65         64         48         49         66         65         49         50         67         66         51         52         69         68         52         53         70         69         53         54         71         70         54         55         72         71         55         56         73         72         56         57         74         73         57         58         75         74         58         59         76         75         59         60         77         76         60         61         78         77         61         62         79         78         62         63         80         79         63         64         81         80         64         65         82         81         65         66         83         82         66         67         84         83         68         69         86         85         69         70         87         86         70         71         88         87         71         72         89         88         72         73         90         89         73         74         91         90         74         75         92         91         75         76         93         92         76         77         94         93         77         78         95         94         78         79         96         95         79         80         97         96         80         81         98         97         81         82         99         98         82         83        100         99         83         84        101        100         85         86        103        102         86         87        104        103         87         88        105        104         88         89        106        105         89         90        107        106         90         91        108        107         91         92        109        108         92         93        110        109         93         94        111        110         94         95        112        111         95         96        113        112         96         97        114        113         97         98        115        114         98         99        116        115         99        100        117        116        100        101        118        117        102        103        120        119        103        104        121        120        104        105        122        121        105        106        123        122        106        107        124        123        107        108        125        124        108        109        126        125        109        110        127        126        110        111        128        127        111        112        129        128        112        113        130        129        113        114        131        130        114        115        132        131        115        116        133        132        116        117        134        133        117        118        135        134        119        120        137        136        120        121        138        137        121        122        139        138        122        123        140        139        123        124        141        140        124        125        142        141        125        126        143        142        126        127        144        143        127        128        145        144        128        129        146        145        129        130        147        146        130        131        148        147        131        132        149        148        132        133        150        149        133        134        151        150        134        135        152        151        136        137        154        153        137        138        155        154        138        139        156        155        139        140        157        156        140        141        158        157        141        142        159        158        142        143        160        159        143        144        161        160        144        145        162        161        145        146        163        162        146        147        164        163        147        148        165        164        148        149        166        165        149        150        167        166        150        151        168        167        151        152        169        168        153        154        171        170        154        155        172        171        155        156        173        172        156        157        174        173        157        158        175        174        158        159        176        175        159        160        177        176        160        161        178        177        161        162        179        178        162        163        180        179        163        164        181        180        164        165        182        181        165        166        183        182        166        167        184        183        167        168        185        184        168        169        186        185        170        171        188        187        171        172        189        188        172        173        190        189        173        174        191        190        174        175        192        191        175        176        193        192        176        177        194        193        177        178        195        194        178        179        196        195        179        180        197        196        180        181        198        197        181        182        199        198        182        183        200        199        183        184        201        200        184        185        202        201        185        186        203        202        187        188        205        204        188        189        206        205        189        190        207        206        190        191        208        207        191        192        209        208        192        193        210        209        193        194        211        210        194        195        212        211        195        196        213        212        196        197        214        213        197        198        215        214        198        199        216        215        199        200        217        216        200        201        218        217        201        202        219        218        202        203        220        219        204        205        222        221        205        206        223        222        206        207        224        223        207        208        225        224        208        209        226        225        209        210        227        226        210        211        228        227        211        212        229        228        212        213        230        229        213        214        231        230        214        215        232        231        215        216        233        232        216        217        234        233        217        218        235        234        218        219        236        235        219        220        237        236        221        222        239        238        222        223        240        239        223        224        241        240        224        225        242        241        225        226        243        242        226        227        244        243        227        228        245        244        228        229        246        245        229        230        247        246        230        231        248        247        231        232        249        248        232        233        250        249        233        234        251        250        234        235        252        251        235        236        253        252        236        237        254        253        238        239        256        255        239        240        257        256        240        241        258        257        241        242        259        258        242        243        260        259        243        244        261        260        244        245        262        261        245        246        263        262        246        247        264        263        247        248        265        264        248        249        266        265        249        250        267        266        250        251        268        267        251        252        269        268        252        253        270        269        253        254        271        270        255        256        273        272        256        257        274        273        257        258        275        274        258        259        276        275        259        260        277        276        260        261        278        277        261        262        279        278        262        263        280        279        263        264        281        280        264        265        282        281        265        266        283        282        266        267        284        283        267        268        285        284        268        269        286        285        269        270        287        286        270        271        288        287        306        307          1          0        307        308          2          1        308        309          3          2        309        310          4          3        310        311          5          4        311        312          6          5        312        313          7          6        313        314          8          7        314        315          9          8        315        316         10          9        316        317         11         10        317        318         12         11        318        319         13         12        319        320         14         13        320        321         15         14        321        322         16         15        323        324        307        306        324        325        308        307        325        326        309        308        326        327        310        309        327        328        311        310        328        329        312        311        329        330        313        312        330        331        314        313        331        332        315        314        332        333        316        315        333        334        317        316        334        335        318        317        335        336        319        318        336        337        320        319        337        338        321        320        338        339        322        321        340        341        324        323        341        342        325        324        342        343        326        325        343        344        327        326        344        345        328        327        345        346        329        328        346        347        330        329        347        348        331        330        348        349        332        331        349        350        333        332        350        351        334        333        351        352        335        334        352        353        336        335        353        354        337        336        354        355        338        337        355        356        339        338        357        358        341        340        358        359        342        341        359        360        343        342        360        361        344        343        361        362        345        344        362        363        346        345        363        364        347        346        364        365        348        347        365        366        349        348        366        367        350        349        367        368        351        350        368        369        352        351        369        370        353        352        370        371        354        353        371        372        355        354        372        373        356        355        374        375        358        357        375        376        359        358        376        377        360        359        377        378        361        360        378        379        362        361        379        380        363        362        380        381        364        363        381        382        365        364        382        383        366        365        383        384        367        366        384        385        368        367        385        386        369        368        386        387        370        369        387        388        371        370        388        389        372        371        389        390        373        372        391        392        375        374        392        393        376        375        393        394        377        376        394        395        378        377        395        396        379        378        396        397        380        379        397        398        381        380        398        399        382        381        399        400        383        382        400        401        384        383        401        402        385        384        402        403        386        385        403        404        387        386        404        405        388        387        405        406        389        388        406        407        390        389        408        409        392        391        409        410        393        392        410        411        394        393        411        412        395        394        412        413        396        395        413        414        397        396        414        415        398        397        415        416        399        398        416        417        400        399        417        418        401        400        418        419        402        401        419        420        403        402        420        421        404        403        421        422        405        404        422        423        406        405        423        424        407        406        425        426        409        408        426        427        410        409        427        428        411        410        428        429        412        411        429        430        413        412        430        431        414        413        431        432        415        414        432        433        416        415        433        434        417        416        434        435        418        417        435        436        419        418        436        437        420        419        437        438        421        420        438        439        422        421        439        440        423        422        440        441        424        423        442        443        426        425        443        444        427        426        444        445        428        427        445        446        429        428        446        447        430        429        447        448        431        430        448        449        432        431        449        450        433        432        450        451        434        433        451        452        435        434        452        453        436        435        453        454        437        436        454        455        438        437        455        456        439        438        456        457        440        439        457        458        441        440        459        460        443        442        460        461        444        443        461        462        445        444        462        463        446        445        463        464        447        446        464        465        448        447        465        466        449        448        466        467        450        449        467        468        451        450        468        469        452        451        469        470        453        452        470        471        454        453        471        472        455        454        472        473        456        455        473        474        457        456        474        475        458        457        476        477        460        459        477        478        461        460        478        479        462        461        479        480        463        462        480        481        464        463        481        482        465        464        482        483        466        465        483        484        467        466        484        485        468        467        485        486        469        468        486        487        470        469        487        488        471        470        488        489        472        471        489        490        473        472        490        491        474        473        491        492        475        474        493        494        477        476        494        495        478        477        495        496        479        478        496        497        480        479        497        498        481        480        498        499        482        481        499        500        483        482        500        501        484        483        501        502        485        484        502        503        486        485        503        504        487        486        504        505        488        487        505        506        489        488        506        507        490        489        507        508        491        490        508        509        492        491        510        511        494        493        511        512        495        494        512        513        496        495        513        514        497        496        514        515        498        497        515        516        499        498        516        517        500        499        517        518        501        500        518        519        502        501        519        520        503        502        520        521        504        503        521        522        505        504        522        523        506        505        523        524        507        506        524        525        508        507        525        526        509        508        527        528        511        510        528        529        512        511        529        530        513        512        530        531        514        513        531        532        515        514        532        533        516        515        533        534        517        516        534        535        518        517        535        536        519        518        536        537        520        519        537        538        521        520        538        539        522        521        539        540        523        522        540        541        524        523        541        542        525        524        542        543        526        525        544        545        528        527        545        546        529        528        546        547        530        529        547        548        531        530        548        549        532        531        549        550        533        532        550        551        534        533        551        552        535        534        552        553        536        535        553        554        537        536        554        555        538        537        555        556        539        538        556        557        540        539        557        558        541        540        558        559        542        541        559        560        543        542        561        562        545        544        562        563        546        545        563        564        547        546        564        565        548        547        565        566        549        548        566        567        550        549        567        568        551        550        568        569        552        551        569        570        553        552        570        571        554        553        571        572        555        554        572        573        556        555        573        574        557        556        574        575        558        557        575        576        559        558        576        577        560        559        578        579        596        595        579        580        597        596        580        581        598        597        581        582        599        598        582        583        600        599        583        584        601        600        584        585        602        601        585        586        603        602        586        587        604        603        587        588        605        604        588        589        606        605        589        590        607        606        590        591        608        607        591        592        609        608        592        593        610        609        593        594        611        610        595        596        613        612        596        597        614        613        597        598        615        614        598        599        616        615        599        600        617        616        600        601        618        617        601        602        619        618        602        603        620        619        603        604        621        620        604        605        622        621        605        606        623        622        606        607        624        623        607        608        625        624        608        609        626        625        609        610        627        626        610        611        628        627        612        613        630        629        613        614        631        630        614        615        632        631        615        616        633        632        616        617        634        633        617        618        635        634        618        619        636        635        619        620        637        636        620        621        638        637        621        622        639        638        622        623        640        639        623        624        641        640        624        625        642        641        625        626        643        642        626        627        644        643        627        628        645        644        629        630        647        646        630        631        648        647        631        632        649        648        632        633        650        649        633        634        651        650        634        635        652        651        635        636        653        652        636        637        654        653        637        638        655        654        638        639        656        655        639        640        657        656        640        641        658        657        641        642        659        658        642        643        660        659        643        644        661        660        644        645        662        661        646        647        664        663        647        648        665        664        648        649        666        665        649        650        667        666        650        651        668        667        651        652        669        668        652        653        670        669        653        654        671        670        654        655        672        671        655        656        673        672        656        657        674        673        657        658        675        674        658        659        676        675        659        660        677        676        660        661        678        677        661        662        679        678        663        664        681        680        664        665        682        681        665        666        683        682        666        667        684        683        667        668        685        684        668        669        686        685        669        670        687        686        670        671        688        687        671        672        689        688        672        673        690        689        673        674        691        690        674        675        692        691        675        676        693        692        676        677        694        693        677        678        695        694        678        679        696        695        680        681        698        697        681        682        699        698        682        683        700        699        683        684        701        700        684        685        702        701        685        686        703        702        686        687        704        703        687        688        705        704        688        689        706        705        689        690        707        706        690        691        708        707        691        692        709        708        692        693        710        709        693        694        711        710        694        695        712        711        695        696        713        712        697        698        715        714        698        699        716        715        699        700        717        716        700        701        718        717        701        702        719        718        702        703        720        719        703        704        721        720        704        705        722        721        705        706        723        722        706        707        724        723        707        708        725        724        708        709        726        725        709        710        727        726        710        711        728        727        711        712        729        728        712        713        730        729        714        715        732        731        715        716        733        732        716        717        734        733        717        718        735        734        718        719        736        735        719        720        737        736        720        721        738        737        721        722        739        738        722        723        740        739        723        724        741        740        724        725        742        741        725        726        743        742        726        727        744        743        727        728        745        744        728        729        746        745        729        730        747        746        731        732        749        748        732        733        750        749        733        734        751        750        734        735        752        751        735        736        753        752        736        737        754        753        737        738        755        754        738        739        756        755        739        740        757        756        740        741        758        757        741        742        759        758        742        743        760        759        743        744        761        760        744        745        762        761        745        746        763        762        746        747        764        763        748        749        766        765        749        750        767        766        750        751        768        767        751        752        769        768        752        753        770        769        753        754        771        770        754        755        772        771        755        756        773        772        756        757        774        773        757        758        775        774        758        759        776        775        759        760        777        776        760        761        778        777        761        762        779        778        762        763        780        779        763        764        781        780        765        766        783        782        766        767        784        783        767        768        785        784        768        769        786        785        769        770        787        786        770        771        788        787        771        772        789        788        772        773        790        789        773        774        791        790        774        775        792        791        775        776        793        792        776        777        794        793        777        778        795        794        778        779        796        795        779        780        797        796        780        781        798        797        782        783        800        799        783        784        801        800        784        785        802        801        785        786        803        802        786        787        804        803        787        788        805        804        788        789        806        805        789        790        807        806        790        791        808        807        791        792        809        808        792        793        810        809        793        794        811        810        794        795        812        811        795        796        813        812        796        797        814        813        797        798        815        814        799        800        817        816        800        801        818        817        801        802        819        818        802        803        820        819        803        804        821        820        804        805        822        821        805        806        823        822        806        807        824        823        807        808        825        824        808        809        826        825        809        810        827        826        810        811        828        827        811        812        829        828        812        813        830        829        813        814        831        830        814        815        832        831        816        817        834        833        817        818        835        834        818        819        836        835        819        820        837        836        820        821        838        837        821        822        839        838        822        823        840        839        823        824        841        840        824        825        842        841        825        826        843        842        826        827        844        843        827        828        845        844        828        829        846        845        829        830        847        846        830        831        848        847        831        832        849        848        833        834        562        561        834        835        563        562        835        836        564        563        836        837        565        564        837        838        566        565        838        839        567        566        839        840        568        567        840        841        569        568        841        842        570        569        842        843        571        570        843        844        572        571        844        845        573        572        845        846        574        573        846        847        575        574        847        848        576        575        848        849        577        576        884        885        579        578        885        886        580        579        886        887        581        580        887        888        582        581        888        889        583        582        889        890        584        583        890        891        585        584        891        892        586        585        892        893        587        586        893        894        588        587        894        895        589        588        895        896        590        589        896        897        591        590        897        898        592        591        898        899        593        592        899        900        594        593        901        902        885        884        902        903        886        885        903        904        887        886        904        905        888        887        905        906        889        888        906        907        890        889        907        908        891        890        908        909        892        891        909        910        893        892        910        911        894        893        911        912        895        894        912        913        896        895        913        914        897        896        914        915        898        897        915        916        899        898        916        917        900        899        918        919        902        901        919        920        903        902        920        921        904        903        921        922        905        904        922        923        906        905        923        924        907        906        924        925        908        907        925        926        909        908        926        927        910        909        927        928        911        910        928        929        912        911        929        930        913        912        930        931        914        913        931        932        915        914        932        933        916        915        933        934        917        916        935        936        919        918        936        937        920        919        937        938        921        920        938        939        922        921        939        940        923        922        940        941        924        923        941        942        925        924        942        943        926        925        943        944        927        926        944        945        928        927        945        946        929        928        946        947        930        929        947        948        931        930        948        949        932        931        949        950        933        932        950        951        934        933        952        953        936        935        953        954        937        936        954        955        938        937        955        956        939        938        956        957        940        939        957        958        941        940        958        959        942        941        959        960        943        942        960        961        944        943        961        962        945        944        962        963        946        945        963        964        947        946        964        965        948        947        965        966        949        948        966        967        950        949        967        968        951        950        969        970        953        952        970        971        954        953        971        972        955        954        972        973        956        955        973        974        957        956        974        975        958        957        975        976        959        958        976        977        960        959        977        978        961        960        978        979        962        961        979        980        963        962        980        981        964        963        981        982        965        964        982        983        966        965        983        984        967        966        984        985        968        967        986        987        970        969        987        988        971        970        988        989        972        971        989        990        973        972        990        991        974        973        991        992        975        974        992        993        976        975        993        994        977        976        994        995        978        977        995        996        979        978        996        997        980        979        997        998        981        980        998        999        982        981        999       1000        983        982       1000       1001        984        983       1001       1002        985        984       1003       1004        987        986       1004       1005        988        987       1005       1006        989        988       1006       1007        990        989       1007       1008        991        990       1008       1009        992        991       1009       1010        993        992       1010       1011        994        993       1011       1012        995        994       1012       1013        996        995       1013       1014        997        996       1014       1015        998        997       1015       1016        999        998       1016       1017       1000        999       1017       1018       1001       1000       1018       1019       1002       1001       1020       1021       1004       1003       1021       1022       1005       1004       1022       1023       1006       1005       1023       1024       1007       1006       1024       1025       1008       1007       1025       1026       1009       1008       1026       1027       1010       1009       1027       1028       1011       1010       1028       1029       1012       1011       1029       1030       1013       1012       1030       1031       1014       1013       1031       1032       1015       1014       1032       1033       1016       1015       1033       1034       1017       1016       1034       1035       1018       1017       1035       1036       1019       1018       1037       1038       1021       1020       1038       1039       1022       1021       1039       1040       1023       1022       1040       1041       1024       1023       1041       1042       1025       1024       1042       1043       1026       1025       1043       1044       1027       1026       1044       1045       1028       1027       1045       1046       1029       1028       1046       1047       1030       1029       1047       1048       1031       1030       1048       1049       1032       1031       1049       1050       1033       1032       1050       1051       1034       1033       1051       1052       1035       1034       1052       1053       1036       1035       1054       1055       1038       1037       1055       1056       1039       1038       1056       1057       1040       1039       1057       1058       1041       1040       1058       1059       1042       1041       1059       1060       1043       1042       1060       1061       1044       1043       1061       1062       1045       1044       1062       1063       1046       1045       1063       1064       1047       1046       1064       1065       1048       1047       1065       1066       1049       1048       1066       1067       1050       1049       1067       1068       1051       1050       1068       1069       1052       1051       1069       1070       1053       1052       1071       1072       1055       1054       1072       1073       1056       1055       1073       1074       1057       1056       1074       1075       1058       1057       1075       1076       1059       1058       1076       1077       1060       1059       1077       1078       1061       1060       1078       1079       1062       1061       1079       1080       1063       1062       1080       1081       1064       1063       1081       1082       1065       1064       1082       1083       1066       1065       1083       1084       1067       1066       1084       1085       1068       1067       1085       1086       1069       1068       1086       1087       1070       1069       1088       1089       1072       1071       1089       1090       1073       1072       1090       1091       1074       1073       1091       1092       1075       1074       1092       1093       1076       1075       1093       1094       1077       1076       1094       1095       1078       1077       1095       1096       1079       1078       1096       1097       1080       1079       1097       1098       1081       1080       1098       1099       1082       1081       1099       1100       1083       1082       1100       1101       1084       1083       1101       1102       1085       1084       1102       1103       1086       1085       1103       1104       1087       1086       1105       1106       1089       1088       1106       1107       1090       1089       1107       1108       1091       1090       1108       1109       1092       1091       1109       1110       1093       1092       1110       1111       1094       1093       1111       1112       1095       1094       1112       1113       1096       1095       1113       1114       1097       1096       1114       1115       1098       1097       1115       1116       1099       1098       1116       1117       1100       1099       1117       1118       1101       1100       1118       1119       1102       1101       1119       1120       1103       1102       1120       1121       1104       1103       1122       1123       1106       1105       1123       1124       1107       1106       1124       1125       1108       1107       1125       1126       1109       1108       1126       1127       1110       1109       1127       1128       1111       1110       1128       1129       1112       1111       1129       1130       1113       1112       1130       1131       1114       1113       1131       1132       1115       1114       1132       1133       1116       1115       1133       1134       1117       1116       1134       1135       1118       1117       1135       1136       1119       1118       1136       1137       1120       1119       1137       1138       1121       1120        272        273       1123       1122        273        274       1124       1123        274        275       1125       1124        275        276       1126       1125        276        277       1127       1126        277        278       1128       1127        278        279       1129       1128        279        280       1130       1129        280        281       1131       1130        281        282       1132       1131        282        283       1133       1132        283        284       1134       1133        284        285       1135       1134        285        286       1136       1135        286        287       1137       1136        287        288       1138       1137 </DataArray>
<DataArray type="Int32"                                    Name="offsets"                                                      NumberOfComponents=" 1" format="ascii">
         4          8         12         16         20         24         28         32         36         40         44         48         52         56         60         64         68         72         76         80         84         88         92         96        100        104        108        112        116        120        124        128        132        136        140        144        148        152        156        160        164        168        172        176        180        184        188        192        196        200        204        208        212        216        220        224        228        232        236        240        244        248        252        256        260        264        268        272        276        280        284        288        292        296        300        304        308        312        316        320        324        328        332        336        340        344        348        352        356        360        364        368        372        376        380        384        388        392        396        400        404        408        412        416        420        424        428        432        436        440        444        448        452        456        460        464        468        472        476        480        484        488        492        496        500        504        508        512        516        520        524        528        532        536        540        544        548        552        556        560        564        568        572        576        580        584        588        592        596        600        604        608        612        616        620        624        628        632        636        640        644        648        652        656        660        664        668        672        676        680        684        688        692        696        700        704        708        712        716        720        724        728        732        736        740        744        748        752        756        760        764        768        772        776        780        784        788        792        796        800        804        808        812        816        820        824        828        832        836        840        844        848        852        856        860        864        868        872        876        880        884        888        892        896        900        904        908        912        916        920        924        928        932        936        940        944        948        952        956        960        964        968        972        976        980        984        988        992        996       1000       1004       1008       1012       1016       1020       1024       1028       1032       1036       1040       1044       1048       1052       1056       1060       1064       1068       1072       1076       1080       1084       1088       1092       1096       1100       1104       1108       1112       1116       1120       1124       1128       1132       1136       1140       1144       1148       1152       1156       1160       1164       1168       1172       1176       1180       1184       1188       1192       1196       1200       1204       1208       1212       1216       1220       1224       1228       1232       1236       1240       1244       1248       1252       1256       1260       1264       1268       1272       1276       1280       1284       1288       1292       1296       1300       1304       1308       1312       1316       1320       1324       1328       1332       1336       1340       1344       1348       1352       1356       1360       1364       1368       1372       1376       1380       1384       1388       1392       1396       1400       1404       1408       1412       1416       1420       1424       1428       1432       1436       1440       1444       1448       1452       1456       1460       1464       1468       1472       1476       1480       1484       1488       1492       1496       1500       1504       1508       1512       1516       1520       1524       1528       1532       1536       1540       1544       1548       1552       1556       1560       1564       1568       1572       1576       1580       1584       1588       1592       1596       1600       1604       1608       1612       1616       1620       1624       1628       1632       1636       1640       1644       1648       1652       1656       1660       1664       1668       1672       1676       1680       1684       1688       1692       1696       1700       1704       1708       1712       1716       1720       1724       1728       1732       1736       1740       1744       1748       1752       1756       1760       1764       1768       1772       1776       1780       1784       1788       1792       1796       1800       1804       1808       1812       1816       1820       1824       1828       1832       1836       1840       1844       1848       1852       1856       1860       1864       1868       1872       1876       1880       1884       1888       1892       1896       1900       1904       1908       1912       1916       1920       1924       1928       1932       1936       1940       1944       1948       1952       1956       1960       1964       1968       1972       1976       1980       1984       1988       1992       1996       2000       2004       2008       2012       2016       2020       2024       2028       2032       2036       2040       2044       2048       2052       2056       2060       2064       2068       2072       2076       2080       2084       2088       2092       2096       2100       2104       2108       2112       2116       2120       2124       2128       2132       2136       2140       2144       2148       2152       2156       2160       2164       2168       2172       2176       2180       2184       2188       2192       2196       2200       2204       2208       2212       2216       2220       2224       2228       2232       2236       2240       2244       2248       2252       2256       2260       2264       2268       2272       2276       2280       2284       2288       2292       2296       2300       2304       2308       2312       2316       2320       2324       2328       2332       2336       2340       2344       2348       2352       2356       2360       2364       2368       2372       2376       2380       2384       2388       2392       2396       2400       2404       2408       2412       2416       2420       2424       2428       2432       2436       2440       2444       2448       2452       2456       2460       2464       2468       2472       2476       2480       2484       2488       2492       2496       2500       2504       2508       2512       2516       2520       2524       2528       2532       2536       2540       2544       2548       2552       2556       2560       2564       2568       2572       2576       2580       2584       2588       2592       2596       2600       2604       2608       2612       2616       2620       2624       2628       2632       2636       2640       2644       2648       2652       2656       2660       2664       2668       2672       2676       2680       2684       2688       2692       2696       2700       2704       2708       2712       2716       2720       2724       2728       2732       2736       2740       2744       2748       2752       2756       2760       2764       2768       2772       2776       2780       2784       2788       2792       2796       2800       2804       2808       2812       2816       2820       2824       2828       2832       2836       2840       2844       2848       2852       2856       2860       2864       2868       2872       2876       2880       2884       2888       2892       2896       2900       2904       2908       2912       2916       2920       2924       2928       2932       2936       2940       2944       2948       2952       2956       2960       2964       2968       2972       2976       2980       2984       2988       2992       2996       3000       3004       3008       3012       3016       3020       3024       3028       3032       3036       3040       3044       3048       3052       3056       3060       3064       3068       3072       3076       3080       3084       3088       3092       3096       3100       3104       3108       3112       3116       3120       3124       3128       3132       3136       3140       3144       3148       3152       3156       3160       3164       3168       3172       3176       3180       3184       3188       3192       3196       3200       3204       3208       3212       3216       3220       3224       3228       3232       3236       3240       3244       3248       3252       3256       3260       3264       3268       3272       3276       3280       3284       3288       3292       3296       3300       3304       3308       3312       3316       3320       3324       3328       3332       3336       3340       3344       3348       3352       3356       3360       3364       3368       3372       3376       3380       3384       3388       3392       3396       3400       3404       3408       3412       3416       3420       3424       3428       3432       3436       3440       3444       3448       3452       3456       3460       3464       3468       3472       3476       3480       3484       3488       3492       3496       3500       3504       3508       3512       3516       3520       3524       3528       3532       3536       3540       3544       3548       3552       3556       3560       3564       3568       3572       3576       3580       3584       3588       3592       3596       3600       3604       3608       3612       3616       3620       3624       3628       3632       3636       3640       3644       3648       3652       3656       3660       3664       3668       3672       3676       3680       3684       3688       3692       3696       3700       3704       3708       3712       3716       3720       3724       3728       3732       3736       3740       3744       3748       3752       3756       3760       3764       3768       3772       3776       3780       3784       3788       3792       3796       3800       3804       3808       3812       3816       3820       3824       3828       3832       3836       3840       3844       3848       3852       3856       3860       3864       3868       3872       3876       3880       3884       3888       3892       3896       3900       3904       3908       3912       3916       3920       3924       3928       3932       3936       3940       3944       3948       3952       3956       3960       3964       3968       3972       3976       3980       3984       3988       3992       3996       4000       4004       4008       4012       4016       4020       4024       4028       4032       4036       4040       4044       4048       4052       4056       4060       4064       4068       4072       4076       4080       4084       4088       4092       4096 </DataArray>
<DataArray type="UInt8"                                    Name="types"                                                      NumberOfComponents=" 1" format="ascii">
         9          9          9          9          9          9          9          9          9          9          9          9          9          9          9          9          9          9          9          9          9          9          9          9          9          9          9          9          9          9          9          9          9          9          9          9          9          9          9          9          9          9          9          9          9          9          9          9          9          9          9          9          9          9          9          9          9          9          9          9          9          9          9          9          9          9          9          9          9          9          9          9          9          9          9          9          9          9          9          9          9          9          9          9          9          9          9          9          9          9          9          9          9          9          9          9          9          9          9          9          9          9          9          9          9          9          9          9          9          9          9          9          9          9          9          9          9          9          9          9          9          9          9          9          9          9          9          9          9          9          9          9          9          9          9          9          9          9          9          9          9          9          9          9          9          9          9          9          9          9          9          9          9          9          9          9          9          9          9          9          9          9          9          9          9          9          9          9          9          9          9          9          9          9          9          9          9          9          9          9          9          9          9          9          9          9          9          9          9          9          9          9          9          9          9          9          9          9          9          9          9          9          9          9          9          9          9          9          9          9          9          9          9          9          9          9          9          9          9          9          9          9          9          9          9          9          9          9          9          9          9          9          9          9          9          9          9          9          9          9          9          9          9          9          9          9          9          9          9          9          9          9          9          9          9          9          9          9          9          9          9          9          9          9          9          9          9          9          9          9          9          9          9          9          9          9          9          9          9          9          9          9          9          9          9          9          9          9          9          9          9          9          9          9          9          9          9          9          9          9          9          9          9          9          9          9          9          9          9          9          9          9          9          9          9          9          9          9          9          9          9          9          9          9          9          9          9          9          9          9          9          9          9          9          9          9          9          9          9          9          9          9          9          9          9          9          9          9          9          9          9          9          9          9          9          9          9          9          9          9          9          9          9          9          9          9          9          9          9          9          9          9          9          9          9          9          9          9          9          9          9          9          9          9          9          9          9          9          9          9          9          9          9          9          9          9          9          9          9          9          9          9          9          9          9          9          9          9          9          9          9          9          9          9          9          9          9          9          9          9          9          9          9          9          9          9          9          9          9          9          9          9          9          9          9          9          9          9          9          9          9          9          9          9          9          9          9          9          9          9          9          9          9          9          9          9          9          9          9          9          9          9          9          9          9          9          9          9          9          9          9          9          9          9          9          9          9          9          9          9          9          9          9          9          9          9          9          9          9          9          9          9          9          9          9          9          9          9          9          9          9          9          9          9          9          9          9          9          9          9          9          9          9          9          9          9          9          9          9          9          9          9          9          9          9          9          9          9          9          9          9          9          9          9          9          9          9          9          9          9          9          9          9          9          9          9          9          9          9          9          9          9          9          9          9          9          9          9          9          9          9          9          9          9          9          9          9          9          9          9          9          9          9          9          9          9          9          9          9          9          9          9          9          9          9          9          9          9          9          9          9          9          9          9          9          9          9          9          9          9          9          9          9          9          9          9          9          9          9          9          9          9          9          9          9          9          9          9          9          9          9          9          9          9          9          9          9          9          9          9          9          9          9          9          9          9          9          9          9          9          9          9          9          9          9          9          9          9          9          9          9          9          9          9          9          9          9          9          9          9          9          9          9          9          9          9          9          9          9          9          9          9          9          9          9          9          9          9          9          9          9          9          9          9          9          9          9          9          9          9          9          9          9          9          9          9          9          9          9          9          9          9          9          9          9          9          9          9          9          9          9          9          9          9          9          9          9          9          9          9          9          9          9          9          9          9          9          9          9          9          9          9          9          9          9          9          9          9          9          9          9          9          9          9          9          9          9          9          9          9          9          9          9          9          9          9          9          9          9          9          9          9          9          9          9          9          9          9          9          9          9          9          9          9          9          9          9          9          9          9          9          9          9          9          9          9          9          9          9          9          9          9          9          9          9          9          9          9          9          9          9          9          9          9          9          9          9          9          9          9          9          9          9          9          9          9          9          9          9          9          9          9          9          9          9          9          9          9          9          9          9          9          9          9          9          9          9          9          9          9          9          9          9          9          9          9          9          9          9          9          9          9          9          9          9          9          9          9          9          9          9          9          9          9          9          9          9          9          9          9          9          9          9          9          9          9          9          9          9          9          9          9          9          9          9          9          9          9          9          9          9          9          9          9          9          9          9          9          9          9          9          9          9          9          9          9          9          9          9          9          9          9          9          9          9          9          9          9          9          9          9          9          9          9          9          9          9          9          9          9          9          9          9          9          9          9          9          9          9          9          9          9          9          9          9          9          9          9          9          9          9          9          9          9          9          9          9          9          9          9          9          9          9          9          9          9          9          9          9          9          9          9          9          9          9          9          9          9          9          9          9          9          9          9          9          9          9          9          9          9          9          9          9          9          9          9          9          9          9          9          9          9          9          9          9          9          9          9          9          9          9          9          9          9          9          9          9          9          9          9          9          9          9          9 </DataArray>
</Cells>
<CellData>
<DataArray type="Int32"                                    Name="material"                                                      NumberOfComponents=" 1" format="ascii">
         1          1          1          1          1          1          1          1          1          1          1          1          1          1          1          1          1          1          1          1          1          1          1          1          1          1          1          1          1          1          1          1          1          1          1          1          1          1          1          1          1          1          1          1          1          1          1          1          1          1          1          1          1          1          1          1          1          1          1          1          1          1          1          1          1          1          1          1          1          1          1          1          1          1          1          1          1          1          1          1          1          1          1          1          1          1          1          1          1          1          1          1          1          1          1          1          1          1          1          1          1          1          1          1          1          1          1          1          1          1          1          1          1          1          1          1          1          1          1          1          1          1          1          1          1          1          1          1          1          1          1          1          1          1          1          1          1          1          1          1          1          1          1          1          1          1          1          1          1          1          1          1          1          1          1          1          1          1          1          1          1          1          1          1          1          1          1          1          1          1          1          1          1          1          1          1          1          1          1          1          1          1          1          1          1          1          1          1          1          1          1          1          1          1          1          1          1          1          1          1          1          1          1          1          1          1          1          1          1          1          1          1          1          1          1          1          1          1          1          1          1          1          1          1          1          1          1          1          1          1          1          1          1          1          1          1          1          1          1          1          1          1          1          1          1          1          1          1          1          1          1          1          1          1          1          1          1          1          1          1          1          1          1          1          1          1          1          1          1          1          1          1          1          1          1          1          1          1          1          1          1          1          1          1          1          1          1          1          1          1          1          1          1          1          1          1          1          1          1          1          1          1          1          1          1          1          1          1          1          1          1          1          1          1          1          1          1          1          1          1          1          1          1          1          1          1          1          1          1          1          1          1          1          1          1          1          1          1          1          1          1          1          1          1          1          1          1          1          1          1          1          1          1          1          1          1          1          1          1          1          1          1          1          1          1          1          1          1          1          1          1          1          1          1          1          1          1          1          1          1          1          1          1          1          1          1          1          1          1          1          1          1          1          1          1          1          1          1          1          1          1          1          1          1          1          1          1          1          1          1          1          1          1          1          1          1          1          1          1          1          1          1          1          1          1          1          1          1          1          1          1          1          1          1          1          1          1          1          1          1          1          1          1          1          1          1          1          1          1          1          1          1          1          1          1          1          1          1          1          1          1          1          1          1          1          1          1          1          1          1          1          1          1          1          1          1          1          1          1          1          1          1          1          1          1          1          1          1          1          1          1          1          1          1          1          1          1          1          1          1          1          1          1          1          1          1          1          1          1          1          1          1          1          1          1          1          1          1          1          1          1          1          1          1          1          1          1          1          1          1          1          1          1          1          1          1          1          1          1          1          1          1          1          1          1          1          1          1          1          1          1          1          1          1          1          1          1          1          1          1          1          1          1          1          1          1          1          1          1          1          1          1          1          1          1          1          1          1          1          1          1          1          1          1          1          1          1          1          1          1          1          1          1          1          1          1          1          1          1          1          1          1          1          1          1          1          1          1          1          1          1          1          1          1          1          1          1          1          1          1          1          1          1          1          1          1          1          1          1          1          1          1          1          1          1          1          1          1          1          1          1          1          1          1          1          1          1          1          1          1          1          1          1          1          1          1          1          1          1          1          1          1          1          1          1          1          1          1          1          1          1          1          1          1          1          1          1          1          1          1          1          1          1          1          1          1          1          1          1          1          1          1          1          1          1          1          1          1          1          1          1          1          1          1          1          1          1          1          1          1          1          1          1          1          1          1          1          1          1          1          1          1          1          1          1          1          1          1          1          1          1          1          1          1          1          1          1          1          1          1          1          1          1          1          1          1          1          1          1          1          1          1          1          1          1          1          1          1          1          1          1          1          1          1          1          1          1          1          1          1          1          1          1          1          1          1          1          1          1          1          1          1          1          1          1          1          1          1          1          1          1          1          1          1          1          1          1          1          1          1          1          1          1          1          1          1          1          1          1          1          1          1          1          1          1          1          1          1          1          1          1          1          1          1          1          1          1          1          1          1          1          1          1          1          1          1          1          1          1          1          1          1          1          1          1          1          1          1          1          1          1          1          1          1          1          1          1          1          1          1          1          1          1          1          1          1          1          1          1          1          1          1          1          1          1          1          1          1          1          1          1          1          1          1          1          1          1          1          1          1          1          1          1          1          1          1          1          1          1          1          1          1          1          1          1          1          1          1          1          1          1          1          1          1          1          1          1          1          1          1          1          1          1          1          1          1          1          1          1          1          1          1          1          1          1          1          1          1          1          1          1          1          1          1          1          1          1          1          1          1          1          1          1          1          1          1          1          1          1          1          1          1          1          1          1          1          1          1          1          1          1          1          1          1          1          1          1          1          1          1          1          1          1          1          1          1          1          1          1          1          1          1          1          1          1          1          1          1          1          1          1          1          1          1          1          1          1          1          1          1          1          1          1          1          1          1          1          1          1          1          1          1          1          1 </DataArray>
</CellData>
<PointData>
<DataArray type="Float64"                                    Name="u"                                                      NumberOfComponents=" 3" format="ascii">
             -0.000920165              -0.000000000               0.999999987              -0.000968142               0.000000000               0.999999987              -0.000987755               0.000000000               0.999999987              -0.000997964               0.000000000               0.999999987              -0.001005683               0.000000000               0.999999987              -0.001013495               0.000000000               0.999999987              -0.001022301               0.000000000               0.999999987              -0.001032255               0.000000000               0.999999987              -0.001042949               0.000000000               0.999999987              -0.001054001              -0.000000000               0.999999987              -0.001065100               0.000000000               0.999999987              -0.001076059               0.000000000               0.999999987              -0.001086401               0.000000000               0.999999987              -0.001095686              -0.000000000               0.999999987              -0.001103269              -0.000000000               0.999999987              -0.001108358              -0.000000000               0.999999987              -0.001110150              -0.000000000               0.999999987              -0.000914978               0.000126576               0.999999987              -0.000958717               0.000099631               0.999999987              -0.000975580               0.000087017               0.999999987              -0.000984072               0.000081425               0.999999987              -0.000990618               0.000079279               0.999999987              -0.000997524               0.000078692               0.999999987              -0.001005465               0.000078790               0.999999987              -0.001014379               0.000078689               0.999999987              -0.001023962               0.000077639               0.999999987              -0.001033789               0.000075540               0.999999987              -0.001043472               0.000072167               0.999999987              -0.001052678               0.000067304               0.999999987              -0.001061013               0.000060465               0.999999987              -0.001067967               0.000050830               0.999999987              -0.001072948               0.000037734               0.999999987              -0.001075429               0.000020507               0.999999987              -0.001074687              -0.000001949               0.999999987              -0.000899474               0.000252078               0.999999987              -0.000930842               0.000198945               0.999999987              -0.000940027               0.000175140               0.999999987              -0.000943804               0.000165202               0.999999987              -0.000947243               0.000161749               0.999999987              -0.000951718               0.000161224               0.999999987              -0.000957355               0.000161582               0.999999987              -0.000963768               0.000161354               0.999999987              -0.000970374               0.000159502               0.999999987              -0.000976552               0.000155411               0.999999987              -0.000981987               0.000148857               0.999999987              -0.000986252               0.000139173               0.999999987              -0.000988835               0.000125822               0.999999987              -0.000989387               0.000107488               0.999999987              -0.000987488               0.000083133               0.999999987              -0.000982907               0.000051786               0.999999987              -0.000975467               0.000012266               0.999999987              -0.000874010               0.000375296               0.999999987              -0.000885898               0.000297818               0.999999987              -0.000884076               0.000265290               0.999999987              -0.000881443               0.000252944               0.999999987              -0.000880740               0.000249579               0.999999987              -0.000882080               0.000249921               0.999999987              -0.000884522               0.000251031               0.999999987              -0.000887208               0.000250859               0.999999987              -0.000889283               0.000248135               0.999999987              -0.000890098               0.000242136               0.999999987              -0.000889189               0.000232485               0.999999987              -0.000886054               0.000218439               0.999999987              -0.000880242               0.000199132               0.999999987              -0.000871569               0.000173601               0.999999987              -0.000860072               0.000140962               0.999999987              -0.000845906               0.000100639               0.999999987              -0.000829566               0.000052192               0.999999987              -0.000839167               0.000494989               0.999999987              -0.000826243               0.000396265               0.999999987              -0.000812214               0.000358086               0.999999987              -0.000803297               0.000345393               0.999999987              -0.000798696               0.000343494               0.999999987              -0.000796657               0.000345490               0.999999987              -0.000795391               0.000347610               0.999999987              -0.000793580               0.000347586               0.999999987              -0.000790128               0.000344011               0.999999987              -0.000784330               0.000336102               0.999999987              -0.000775543               0.000323376               0.999999987              -0.000763381               0.000305173               0.999999987              -0.000747708               0.000280926               0.999999987              -0.000728719               0.000250235               0.999999987              -0.000706860               0.000212704               0.999999987              -0.000682833               0.000168726               0.999999987              -0.000657641               0.000119355               0.999999987              -0.000795562               0.000610059               0.999999987              -0.000755041               0.000494387               0.999999987              -0.000729842               0.000453619               0.999999987              -0.000716016               0.000442399               0.999999987              -0.000708503               0.000442828               0.999999987              -0.000703544               0.000446719               0.999999987              -0.000698593               0.000449854               0.999999987              -0.000691872               0.000449895               0.999999987              -0.000682245               0.000445336               0.999999987              -0.000668902               0.000435394               0.999999987              -0.000651422               0.000419761               0.999999987              -0.000629737               0.000397982               0.999999987              -0.000603982               0.000370010               0.999999987              -0.000574807               0.000336091               0.999999987              -0.000543095               0.000296863               0.999999987              -0.000509849               0.000253451               0.999999987              -0.000476134               0.000207586               0.999999987              -0.000744184               0.000719376               0.999999987              -0.000675970               0.000592205               0.999999987              -0.000642295               0.000551475               0.999999987              -0.000625961               0.000542679               0.999999987              -0.000616988               0.000545599               0.999999987              -0.000609734               0.000551276               0.999999987              -0.000601104               0.000555204               0.999999987              -0.000589122               0.000555105               0.999999987              -0.000572627               0.000549507               0.999999987              -0.000551105               0.000537695               0.999999987              -0.000524345               0.000519466               0.999999987              -0.000492606               0.000494865               0.999999987              -0.000456687               0.000464217               0.999999987              -0.000417425               0.000429088               0.999999987              -0.000375996               0.000390303               0.999999987              -0.000333373               0.000349341               0.999999987              -0.000290305               0.000307457               0.999999987              -0.000686260               0.000821768               0.999999987              -0.000592816               0.000689443               0.999999987              -0.000554447               0.000650605               0.999999987              -0.000538276               0.000644393               0.999999987              -0.000529018               0.000649499               0.999999987              -0.000519806               0.000656624               0.999999987              -0.000507267               0.000661077               0.999999987              -0.000489459               0.000660704               0.999999987              -0.000465516               0.000654053               0.999999987              -0.000435100               0.000640349               0.999999987              -0.000398228               0.000619866               0.999999987              -0.000355737               0.000593150               0.999999987              -0.000308621               0.000561571               0.999999987              -0.000258304               0.000526751               0.999999987              -0.000206099               0.000489971               0.999999987              -0.000152883               0.000452384               0.999999987              -0.000099317               0.000414538               0.999999987              -0.000623586               0.000915460               0.999999987              -0.000508382               0.000786014               0.999999987              -0.000470746               0.000749349               0.999999987              -0.000456599               0.000745227               0.999999987              -0.000447704               0.000752090               0.999999987              -0.000436590               0.000760243               0.999999987              -0.000419665               0.000765085               0.999999987              -0.000395391               0.000764377               0.999999987              -0.000362980               0.000756597               0.999999987              -0.000322248               0.000741169               0.999999987              -0.000273863               0.000718899               0.999999987              -0.000218880               0.000691179               0.999999987              -0.000159258               0.000659832               0.999999987              -0.000096730               0.000626717               0.999999987              -0.000032706               0.000593392               0.999999987               0.000031748               0.000560474               0.999999987               0.000096001               0.000527933               0.999999987              -0.000558791               0.001004207               0.999999987              -0.000437463               0.000894641               0.999999987              -0.000397530               0.000854942               0.999999987              -0.000383324               0.000846774               0.999999987              -0.000375701               0.000851526               0.999999987              -0.000366939               0.000860352               0.999999987              -0.000353551               0.000868475               0.999999987              -0.000333844               0.000873477               0.999999987              -0.000306717               0.000873839               0.999999987              -0.000271716               0.000868395               0.999999987              -0.000229027               0.000857010               0.999999987              -0.000179011               0.000840157               0.999999987              -0.000122675               0.000819201               0.999999987              -0.000061521               0.000795642               0.999999987               0.000002735               0.000771138               0.999999987               0.000068230               0.000746906               0.999999987               0.000133571               0.000723616               0.999999987              -0.000488370               0.001085158               0.999999987              -0.000369025               0.000999837               0.999999987              -0.000327047               0.000963300               0.999999987              -0.000311792               0.000953340               0.999999987              -0.000304709               0.000956849               0.999999987              -0.000297672               0.000966188               0.999999987              -0.000287251               0.000977139               0.999999987              -0.000271432               0.000987143               0.999999987              -0.000249124               0.000994612               0.999999987              -0.000219682               0.000998126               0.999999987              -0.000182872               0.000997101               0.999999987              -0.000138644               0.000991202               0.999999987              -0.000087263               0.000980840               0.999999987              -0.000029364               0.000967096               0.999999987               0.000033691               0.000951417               0.999999987               0.000100075               0.000935184               0.999999987               0.000167635               0.000919718               0.999999987              -0.000413616               0.001156313               0.999999987              -0.000303011               0.001098419               0.999999987              -0.000260831               0.001069582               0.999999987              -0.000244433               0.001060874               0.999999987              -0.000237127               0.001064598               0.999999987              -0.000231213               0.001075119               0.999999987              -0.000222910               0.001088747               0.999999987              -0.000210402               0.001103118               0.999999987              -0.000192390               0.001116795               0.999999987              -0.000168230               0.001128392               0.999999987              -0.000137400               0.001136780               0.999999987              -0.000099586               0.001141430               0.999999987              -0.000054338               0.001142114               0.999999987              -0.000001603               0.001139077               0.999999987               0.000058105               0.001133307               0.999999987               0.000123658               0.001125918               0.999999987               0.000193580               0.001118370               0.999999987              -0.000335188               0.001216335               0.999999987              -0.000239415               0.001186247               0.999999987              -0.000199799               0.001168282               0.999999987              -0.000183071               0.001163813               0.999999987              -0.000175487               0.001169451               0.999999987              -0.000170101               0.001181957               0.999999987              -0.000163389               0.001198497               0.999999987              -0.000153492               0.001217081               0.999999987              -0.000139346               0.001236234               0.999999987              -0.000120100               0.001254831               0.999999987              -0.000095267               0.001271816               0.999999987              -0.000064332               0.001286317               0.999999987              -0.000026371               0.001297737               0.999999987               0.000019371               0.001305878               0.999999987               0.000073078               0.001311011               0.999999987               0.000134631               0.001313752               0.999999987               0.000203620               0.001315178               0.999999987              -0.000253866               0.001264068               0.999999987              -0.000177848               0.001259301               0.999999987              -0.000144090               0.001253491               0.999999987              -0.000128774               0.001254939               0.999999987              -0.000121377               0.001264143               0.999999987              -0.000116407               0.001279483               0.999999987              -0.000111008               0.001299266               0.999999987              -0.000103436               0.001321821               0.999999987              -0.000092811               0.001345919               0.999999987              -0.000078328               0.001370653               0.999999987              -0.000059514               0.001395033               0.999999987              -0.000035630               0.001418201               0.999999987              -0.000006000               0.001439354               0.999999987               0.000030562               0.001458137               0.999999987               0.000074953               0.001474128               0.999999987               0.000127932               0.001487426               0.999999987               0.000190671               0.001498613               0.999999987              -0.000170387               0.001298796               0.999999987              -0.000117823               0.001313992               0.999999987              -0.000093159               0.001319258               0.999999987              -0.000081263               0.001326980               0.999999987              -0.000075152               0.001340139               0.999999987              -0.000071148               0.001358638               0.999999987              -0.000067173               0.001381544               0.999999987              -0.000061889               0.001407648               0.999999987              -0.000054741               0.001435926               0.999999987              -0.000045143               0.001465485               0.999999987              -0.000032514               0.001495594               0.999999987              -0.000016214               0.001525574               0.999999987               0.000004202               0.001554607               0.999999987               0.000029615               0.001582064               0.999999987               0.000061374               0.001607557               0.999999987               0.000100869               0.001630719               0.999999987               0.000149751               0.001651211               0.999999987              -0.000085523               0.001319814               0.999999987              -0.000058755               0.001347754               0.999999987              -0.000045698               0.001360673               0.999999987              -0.000039142               0.001373250               0.999999987              -0.000035648               0.001389603               0.999999987              -0.000033296               0.001410473               0.999999987              -0.000031147               0.001435624               0.999999987              -0.000028417               0.001464110               0.999999987              -0.000024852               0.001495193               0.999999987              -0.000020059               0.001528108               0.999999987              -0.000013706               0.001562181               0.999999987              -0.000005402               0.001596794               0.999999987               0.000004952               0.001631300               0.999999987               0.000017863               0.001664983               0.999999987               0.000034663               0.001697236               0.999999987               0.000056013               0.001727396               0.999999987               0.000083137               0.001754697               0.999999987               0.000000000               0.001326735               0.999999987              -0.000000000               0.001359135               0.999999987              -0.000000000               0.001374864               0.999999987               0.000000000               0.001389155               0.999999987               0.000000000               0.001406714               0.999999987               0.000000000               0.001428438               0.999999987              -0.000000000               0.001454405               0.999999987              -0.000000000               0.001483826               0.999999987              -0.000000000               0.001515800               0.999999987              -0.000000000               0.001549768               0.999999987               0.000000000               0.001585327               0.999999987              -0.000000000               0.001621713               0.999999987              -0.000000000               0.001658267               0.999999987              -0.000000000               0.001694422               0.999999987               0.000000000               0.001729286               0.999999987              -0.000000000               0.001762132               0.999999987               0.000000000               0.001792074               0.999999987              -0.000920165              -0.000000000               0.999999987              -0.000968142               0.000000000               0.999999987              -0.000987755               0.000000000               0.999999987              -0.000997964               0.000000000               0.999999987              -0.001005683               0.000000000               0.999999987              -0.001013495               0.000000000               0.999999987              -0.001022301               0.000000000               0.999999987              -0.001032255               0.000000000               0.999999987              -0.001042949               0.000000000               0.999999987              -0.001054001              -0.000000000               0.999999987              -0.001065100               0.000000000               0.999999987              -0.001076059               0.000000000               0.999999987              -0.001086401               0.000000000               0.999999987              -0.001095686              -0.000000000               0.999999987              -0.001103269              -0.000000000               0.999999987              -0.001108358              -0.000000000               0.999999987              -0.001110150              -0.000000000               0.999999987              -0.000914978              -0.000126576               0.999999987              -0.000958717              -0.000099631               0.999999987              -0.000975580              -0.000087017               0.999999987              -0.000984072              -0.000081425               0.999999987              -0.000990618              -0.000079279               0.999999987              -0.000997524              -0.000078692               0.999999987              -0.001005465              -0.000078790               0.999999987              -0.001014379              -0.000078689               0.999999987              -0.001023962              -0.000077639               0.999999987              -0.001033789              -0.000075540               0.999999987              -0.001043472              -0.000072167               0.999999987              -0.001052678              -0.000067304               0.999999987              -0.001061013              -0.000060465               0.999999987              -0.001067967              -0.000050830               0.999999987              -0.001072948              -0.000037734               0.999999987              -0.001075429              -0.000020507               0.999999987              -0.001074687               0.000001949               0.999999987              -0.000899474              -0.000252078               0.999999987              -0.000930842              -0.000198945               0.999999987              -0.000940027              -0.000175140               0.999999987              -0.000943804              -0.000165202               0.999999987              -0.000947243              -0.000161749               0.999999987              -0.000951718              -0.000161224               0.999999987              -0.000957355              -0.000161582               0.999999987              -0.000963768              -0.000161354               0.999999987              -0.000970374              -0.000159502               0.999999987              -0.000976552              -0.000155411               0.999999987              -0.000981987              -0.000148857               0.999999987              -0.000986252              -0.000139173               0.999999987              -0.000988835              -0.000125822               0.999999987              -0.000989387              -0.000107488               0.999999987              -0.000987488              -0.000083133               0.999999987              -0.000982907              -0.000051786               0.999999987              -0.000975467              -0.000012266               0.999999987              -0.000874010              -0.000375296               0.999999987              -0.000885898              -0.000297818               0.999999987              -0.000884076              -0.000265290               0.999999987              -0.000881443              -0.000252944               0.999999987              -0.000880740              -0.000249579               0.999999987              -0.000882080              -0.000249921               0.999999987              -0.000884522              -0.000251031               0.999999987              -0.000887208              -0.000250859               0.999999987              -0.000889283              -0.000248135               0.999999987              -0.000890098              -0.000242136               0.999999987              -0.000889189              -0.000232485               0.999999987              -0.000886054              -0.000218439               0.999999987              -0.000880242              -0.000199132               0.999999987              -0.000871569              -0.000173601               0.999999987              -0.000860072              -0.000140962               0.999999987              -0.000845906              -0.000100639               0.999999987              -0.000829566              -0.000052192               0.999999987              -0.000839167              -0.000494989               0.999999987              -0.000826243              -0.000396265               0.999999987              -0.000812214              -0.000358086               0.999999987              -0.000803297              -0.000345393               0.999999987              -0.000798696              -0.000343494               0.999999987              -0.000796657              -0.000345490               0.999999987              -0.000795391              -0.000347610               0.999999987              -0.000793580              -0.000347586               0.999999987              -0.000790128              -0.000344011               0.999999987              -0.000784330              -0.000336102               0.999999987              -0.000775543              -0.000323376               0.999999987              -0.000763381              -0.000305173               0.999999987              -0.000747708              -0.000280926               0.999999987              -0.000728719              -0.000250235               0.999999987              -0.000706860              -0.000212704               0.999999987              -0.000682833              -0.000168726               0.999999987              -0.000657641              -0.000119355               0.999999987              -0.000795562              -0.000610059               0.999999987              -0.000755041              -0.000494387               0.999999987              -0.000729842              -0.000453619               0.999999987              -0.000716016              -0.000442399               0.999999987              -0.000708503              -0.000442828               0.999999987              -0.000703544              -0.000446719               0.999999987              -0.000698593              -0.000449854               0.999999987              -0.000691872              -0.000449895               0.999999987              -0.000682245              -0.000445336               0.999999987              -0.000668902              -0.000435394               0.999999987              -0.000651422              -0.000419761               0.999999987              -0.000629737              -0.000397982               0.999999987              -0.000603982              -0.000370010               0.999999987              -0.000574807              -0.000336091               0.999999987              -0.000543095              -0.000296863               0.999999987              -0.000509849              -0.000253451               0.999999987              -0.000476134              -0.000207586               0.999999987              -0.000744184              -0.000719376               0.999999987              -0.000675970              -0.000592205               0.999999987              -0.000642295              -0.000551475               0.999999987              -0.000625961              -0.000542679               0.999999987              -0.000616988              -0.000545599               0.999999987              -0.000609734              -0.000551276               0.999999987              -0.000601104              -0.000555204               0.999999987              -0.000589122              -0.000555105               0.999999987              -0.000572627              -0.000549507               0.999999987              -0.000551105              -0.000537695               0.999999987              -0.000524345              -0.000519466               0.999999987              -0.000492606              -0.000494865               0.999999987              -0.000456687              -0.000464217               0.999999987              -0.000417425              -0.000429088               0.999999987              -0.000375996              -0.000390303               0.999999987              -0.000333373              -0.000349341               0.999999987              -0.000290305              -0.000307457               0.999999987              -0.000686260              -0.000821768               0.999999987              -0.000592816              -0.000689443               0.999999987              -0.000554447              -0.000650605               0.999999987              -0.000538276              -0.000644393               0.999999987              -0.000529018              -0.000649499               0.999999987              -0.000519806              -0.000656624               0.999999987              -0.000507267              -0.000661077               0.999999987              -0.000489459              -0.000660704               0.999999987              -0.000465516              -0.000654053               0.999999987              -0.000435100              -0.000640349               0.999999987              -0.000398228              -0.000619866               0.999999987              -0.000355737              -0.000593150               0.999999987              -0.000308621              -0.000561571               0.999999987              -0.000258304              -0.000526751               0.999999987              -0.000206099              -0.000489971               0.999999987              -0.000152883              -0.000452384               0.999999987              -0.000099317              -0.000414538               0.999999987              -0.000623586              -0.000915460               0.999999987              -0.000508382              -0.000786014               0.999999987              -0.000470746              -0.000749349               0.999999987              -0.000456599              -0.000745227               0.999999987              -0.000447704              -0.000752090               0.999999987              -0.000436590              -0.000760243               0.999999987              -0.000419665              -0.000765085               0.999999987              -0.000395391              -0.000764377               0.999999987              -0.000362980              -0.000756597               0.999999987              -0.000322248              -0.000741169               0.999999987              -0.000273863              -0.000718899               0.999999987              -0.000218880              -0.000691179               0.999999987              -0.000159258              -0.000659832               0.999999987              -0.000096730              -0.000626717               0.999999987              -0.000032706              -0.000593392               0.999999987               0.000031748              -0.000560474               0.999999987               0.000096001              -0.000527933               0.999999987              -0.000558791              -0.001004207               0.999999987              -0.000437463              -0.000894641               0.999999987              -0.000397530              -0.000854942               0.999999987              -0.000383324              -0.000846774               0.999999987              -0.000375701              -0.000851526               0.999999987              -0.000366939              -0.000860352               0.999999987              -0.000353551              -0.000868475               0.999999987              -0.000333844              -0.000873477               0.999999987              -0.000306717              -0.000873839               0.999999987              -0.000271716              -0.000868395               0.999999987              -0.000229027              -0.000857010               0.999999987              -0.000179011              -0.000840157               0.999999987              -0.000122675              -0.000819201               0.999999987              -0.000061521              -0.000795642               0.999999987               0.000002735              -0.000771138               0.999999987               0.000068230              -0.000746906               0.999999987               0.000133571              -0.000723616               0.999999987              -0.000488370              -0.001085158               0.999999987              -0.000369025              -0.000999837               0.999999987              -0.000327047              -0.000963300               0.999999987              -0.000311792              -0.000953340               0.999999987              -0.000304709              -0.000956849               0.999999987              -0.000297672              -0.000966188               0.999999987              -0.000287251              -0.000977139               0.999999987              -0.000271432              -0.000987143               0.999999987              -0.000249124              -0.000994612               0.999999987              -0.000219682              -0.000998126               0.999999987              -0.000182872              -0.000997101               0.999999987              -0.000138644              -0.000991202               0.999999987              -0.000087263              -0.000980840               0.999999987              -0.000029364              -0.000967096               0.999999987               0.000033691              -0.000951417               0.999999987               0.000100075              -0.000935184               0.999999987               0.000167635              -0.000919718               0.999999987              -0.000413616              -0.001156313               0.999999987              -0.000303011              -0.001098419               0.999999987              -0.000260831              -0.001069582               0.999999987              -0.000244433              -0.001060874               0.999999987              -0.000237127              -0.001064598               0.999999987              -0.000231213              -0.001075119               0.999999987              -0.000222910              -0.001088747               0.999999987              -0.000210402              -0.001103118               0.999999987              -0.000192390              -0.001116795               0.999999987              -0.000168230              -0.001128392               0.999999987              -0.000137400              -0.001136780               0.999999987              -0.000099586              -0.001141430               0.999999987              -0.000054338              -0.001142114               0.999999987              -0.000001603              -0.001139077               0.999999987               0.000058105              -0.001133307               0.999999987               0.000123658              -0.001125918               0.999999987               0.000193580              -0.001118370               0.999999987              -0.000335188              -0.001216335               0.999999987              -0.000239415              -0.001186247               0.999999987              -0.000199799              -0.001168282               0.999999987              -0.000183071              -0.001163813               0.999999987              -0.000175487              -0.001169451               0.999999987              -0.000170101              -0.001181957               0.999999987              -0.000163389              -0.001198497               0.999999987              -0.000153492              -0.001217081               0.999999987              -0.000139346              -0.001236234               0.999999987              -0.000120100              -0.001254831               0.999999987              -0.000095267              -0.001271816               0.999999987              -0.000064332              -0.001286317               0.999999987              -0.000026371              -0.001297737               0.999999987               0.000019371              -0.001305878               0.999999987               0.000073078              -0.001311011               0.999999987               0.000134631              -0.001313752               0.999999987               0.000203620              -0.001315178               0.999999987              -0.000253866              -0.001264068               0.999999987              -0.000177848              -0.001259301               0.999999987              -0.000144090              -0.001253491               0.999999987              -0.000128774              -0.001254939               0.999999987              -0.000121377              -0.001264143               0.999999987              -0.000116407              -0.001279483               0.999999987              -0.000111008              -0.001299266               0.999999987              -0.000103436              -0.001321821               0.999999987              -0.000092811              -0.001345919               0.999999987              -0.000078328              -0.001370653               0.999999987              -0.000059514              -0.001395033               0.999999987              -0.000035630              -0.001418201               0.999999987              -0.000006000              -0.001439354               0.999999987               0.000030562              -0.001458137               0.999999987               0.000074953              -0.001474128               0.999999987               0.000127932              -0.001487426               0.999999987               0.000190671              -0.001498613               0.999999987              -0.000170387              -0.001298796               0.999999987              -0.000117823              -0.001313992               0.999999987              -0.000093159              -0.001319258               0.999999987              -0.000081263              -0.001326980               0.999999987              -0.000075152              -0.001340139               0.999999987              -0.000071148              -0.001358638               0.999999987              -0.000067173              -0.001381544               0.999999987              -0.000061889              -0.001407648               0.999999987              -0.000054741              -0.001435926               0.999999987              -0.000045143              -0.001465485               0.999999987              -0.000032514              -0.001495594               0.999999987              -0.000016214              -0.001525574               0.999999987               0.000004202              -0.001554607               0.999999987               0.000029615              -0.001582064               0.999999987               0.000061374              -0.001607557               0.999999987               0.000100869              -0.001630719               0.999999987               0.000149751              -0.001651211               0.999999987              -0.000085523              -0.001319814               0.999999987              -0.000058755              -0.001347754               0.999999987              -0.000045698              -0.001360673               0.999999987              -0.000039142              -0.001373250               0.999999987              -0.000035648              -0.001389603               0.999999987              -0.000033296              -0.001410473               0.999999987              -0.000031147              -0.001435624               0.999999987              -0.000028417              -0.001464110               0.999999987              -0.000024852              -0.001495193               0.999999987              -0.000020059              -0.001528108               0.999999987              -0.000013706              -0.001562181               0.999999987              -0.000005402              -0.001596794               0.999999987               0.000004952              -0.001631300               0.999999987               0.000017863              -0.001664983               0.999999987               0.000034663              -0.001697236               0.999999987               0.000056013              -0.001727396               0.999999987               0.000083137              -0.001754697               0.999999987              -0.000000000              -0.001326735               0.999999987               0.000000000              -0.001359135               0.999999987              -0.000000000              -0.001374864               0.999999987              -0.000000000              -0.001389155               0.999999987               0.000000000              -0.001406714               0.999999987              -0.000000000              -0.001428438               0.999999987              -0.000000000              -0.001454405               0.999999987              -0.000000000              -0.001483826               0.999999987              -0.000000000              -0.001515800               0.999999987              -0.000000000              -0.001549768               0.999999987               0.000000000              -0.001585327               0.999999987               0.000000000              -0.001621713               0.999999987               0.000000000              -0.001658267               0.999999987               0.000000000              -0.001694422               0.999999987              -0.000000000              -0.001729286               0.999999987              -0.000000000              -0.001762132               0.999999987              -0.000000000              -0.001792074               0.999999987               0.000920165               0.000000000               0.999999987               0.000968142               0.000000000               0.999999987               0.000987755               0.000000000               0.999999987               0.000997964               0.000000000               0.999999987               0.001005683              -0.000000000               0.999999987               0.001013495               0.000000000               0.999999987               0.001022301               0.000000000               0.999999987               0.001032255               0.000000000               0.999999987               0.001042949               0.000000000               0.999999987               0.001054001              -0.000000000               0.999999987               0.001065100               0.000000000               0.999999987               0.001076059              -0.000000000               0.999999987               0.001086401               0.000000000               0.999999987               0.001095686               0.000000000               0.999999987               0.001103269               0.000000000               0.999999987               0.001108358               0.000000000               0.999999987               0.001110150              -0.000000000               0.999999987               0.000914978              -0.000126576               0.999999987               0.000958717              -0.000099631               0.999999987               0.000975580              -0.000087017               0.999999987               0.000984072              -0.000081425               0.999999987               0.000990618              -0.000079279               0.999999987               0.000997524              -0.000078692               0.999999987               0.001005465              -0.000078790               0.999999987               0.001014379              -0.000078689               0.999999987               0.001023962              -0.000077639               0.999999987               0.001033789              -0.000075540               0.999999987               0.001043472              -0.000072167               0.999999987               0.001052678              -0.000067304               0.999999987               0.001061013              -0.000060465               0.999999987               0.001067967              -0.000050830               0.999999987               0.001072948              -0.000037734               0.999999987               0.001075429              -0.000020507               0.999999987               0.001074687               0.000001949               0.999999987               0.000899474              -0.000252078               0.999999987               0.000930842              -0.000198945               0.999999987               0.000940027              -0.000175140               0.999999987               0.000943804              -0.000165202               0.999999987               0.000947243              -0.000161749               0.999999987               0.000951718              -0.000161224               0.999999987               0.000957355              -0.000161582               0.999999987               0.000963768              -0.000161354               0.999999987               0.000970374              -0.000159502               0.999999987               0.000976552              -0.000155411               0.999999987               0.000981987              -0.000148857               0.999999987               0.000986252              -0.000139173               0.999999987               0.000988835              -0.000125822               0.999999987               0.000989387              -0.000107488               0.999999987               0.000987488              -0.000083133               0.999999987               0.000982907              -0.000051786               0.999999987               0.000975467              -0.000012266               0.999999987               0.000874010              -0.000375296               0.999999987               0.000885898              -0.000297818               0.999999987               0.000884076              -0.000265290               0.999999987               0.000881443              -0.000252944               0.999999987               0.000880740              -0.000249579               0.999999987               0.000882080              -0.000249921               0.999999987               0.000884522              -0.000251031               0.999999987               0.000887208              -0.000250859               0.999999987               0.000889283              -0.000248135               0.999999987               0.000890098              -0.000242136               0.999999987               0.000889189              -0.000232485               0.999999987               0.000886054              -0.000218439               0.999999987               0.000880242              -0.000199132               0.999999987               0.000871569              -0.000173601               0.999999987               0.000860072              -0.000140962               0.999999987               0.000845906              -0.000100639               0.999999987               0.000829566              -0.000052192               0.999999987               0.000839167              -0.000494989               0.999999987               0.000826243              -0.000396265               0.999999987               0.000812214              -0.000358086               0.999999987               0.000803297              -0.000345393               0.999999987               0.000798696              -0.000343494               0.999999987               0.000796657              -0.000345490               0.999999987               0.000795391              -0.000347610               0.999999987               0.000793580              -0.000347586               0.999999987               0.000790128              -0.000344011               0.999999987               0.000784330              -0.000336102               0.999999987               0.000775543              -0.000323376               0.999999987               0.000763381              -0.000305173               0.999999987               0.000747708              -0.000280926               0.999999987               0.000728719              -0.000250235               0.999999987               0.000706860              -0.000212704               0.999999987               0.000682833              -0.000168726               0.999999987               0.000657641              -0.000119355               0.999999987               0.000795562              -0.000610059               0.999999987               0.000755041              -0.000494387               0.999999987               0.000729842              -0.000453619               0.999999987               0.000716016              -0.000442399               0.999999987               0.000708503              -0.000442828               0.999999987               0.000703544              -0.000446719               0.999999987               0.000698593              -0.000449854               0.999999987               0.000691872              -0.000449895               0.999999987               0.000682245              -0.000445336               0.999999987               0.000668902              -0.000435394               0.999999987               0.000651422              -0.000419761               0.999999987               0.000629737              -0.000397982               0.999999987               0.000603982              -0.000370010               0.999999987               0.000574807              -0.000336091               0.999999987               0.000543095              -0.000296863               0.999999987               0.000509849              -0.000253451               0.999999987               0.000476134              -0.000207586               0.999999987               0.000744184              -0.000719376               0.999999987               0.000675970              -0.000592205               0.999999987               0.000642295              -0.000551475               0.999999987               0.000625961              -0.000542679               0.999999987               0.000616988              -0.000545599               0.999999987               0.000609734              -0.000551276               0.999999987               0.000601104              -0.000555204               0.999999987               0.000589122              -0.000555105               0.999999987               0.000572627              -0.000549507               0.999999987               0.000551105              -0.000537695               0.999999987               0.000524345              -0.000519466               0.999999987               0.000492606              -0.000494865               0.999999987               0.000456687              -0.000464217               0.999999987               0.000417425              -0.000429088               0.999999987               0.000375996              -0.000390303               0.999999987               0.000333373              -0.000349341               0.999999987               0.000290305              -0.000307457               0.999999987               0.000686260              -0.000821768               0.999999987               0.000592816              -0.000689443               0.999999987               0.000554447              -0.000650605               0.999999987               0.000538276              -0.000644393               0.999999987               0.000529018              -0.000649499               0.999999987               0.000519806              -0.000656624               0.999999987               0.000507267              -0.000661077               0.999999987               0.000489459              -0.000660704               0.999999987               0.000465516              -0.000654053               0.999999987               0.000435100              -0.000640349               0.999999987               0.000398228              -0.000619866               0.999999987               0.000355737              -0.000593150               0.999999987               0.000308621              -0.000561571               0.999999987               0.000258304              -0.000526751               0.999999987               0.000206099              -0.000489971               0.999999987               0.000152883              -0.000452384               0.999999987               0.000099317              -0.000414538               0.999999987               0.000623586              -0.000915460               0.999999987               0.000508382              -0.000786014               0.999999987               0.000470746              -0.000749349               0.999999987               0.000456599              -0.000745227               0.999999987               0.000447704              -0.000752090               0.999999987               0.000436590              -0.000760243               0.999999987               0.000419665              -0.000765085               0.999999987               0.000395391              -0.000764377               0.999999987               0.000362980              -0.000756597               0.999999987               0.000322248              -0.000741169               0.999999987               0.000273863              -0.000718899               0.999999987               0.000218880              -0.000691179               0.999999987               0.000159258              -0.000659832               0.999999987               0.000096730              -0.000626717               0.999999987               0.000032706              -0.000593392               0.999999987              -0.000031748              -0.000560474               0.999999987              -0.000096001              -0.000527933               0.999999987               0.000558791              -0.001004207               0.999999987               0.000437463              -0.000894641               0.999999987               0.000397530              -0.000854942               0.999999987               0.000383324              -0.000846774               0.999999987               0.000375701              -0.000851526               0.999999987               0.000366939              -0.000860352               0.999999987               0.000353551              -0.000868475               0.999999987               0.000333844              -0.000873477               0.999999987               0.000306717              -0.000873839               0.999999987               0.000271716              -0.000868395               0.999999987               0.000229027              -0.000857010               0.999999987               0.000179011              -0.000840157               0.999999987               0.000122675              -0.000819201               0.999999987               0.000061521              -0.000795642               0.999999987              -0.000002735              -0.000771138               0.999999987              -0.000068230              -0.000746906               0.999999987              -0.000133571              -0.000723616               0.999999987               0.000488370              -0.001085158               0.999999987               0.000369025              -0.000999837               0.999999987               0.000327047              -0.000963300               0.999999987               0.000311792              -0.000953340               0.999999987               0.000304709              -0.000956849               0.999999987               0.000297672              -0.000966188               0.999999987               0.000287251              -0.000977139               0.999999987               0.000271432              -0.000987143               0.999999987               0.000249124              -0.000994612               0.999999987               0.000219682              -0.000998126               0.999999987               0.000182872              -0.000997101               0.999999987               0.000138644              -0.000991202               0.999999987               0.000087263              -0.000980840               0.999999987               0.000029364              -0.000967096               0.999999987              -0.000033691              -0.000951417               0.999999987              -0.000100075              -0.000935184               0.999999987              -0.000167635              -0.000919718               0.999999987               0.000413616              -0.001156313               0.999999987               0.000303011              -0.001098419               0.999999987               0.000260831              -0.001069582               0.999999987               0.000244433              -0.001060874               0.999999987               0.000237127              -0.001064598               0.999999987               0.000231213              -0.001075119               0.999999987               0.000222910              -0.001088747               0.999999987               0.000210402              -0.001103118               0.999999987               0.000192390              -0.001116795               0.999999987               0.000168230              -0.001128392               0.999999987               0.000137400              -0.001136780               0.999999987               0.000099586              -0.001141430               0.999999987               0.000054338              -0.001142114               0.999999987               0.000001603              -0.001139077               0.999999987              -0.000058105              -0.001133307               0.999999987              -0.000123658              -0.001125918               0.999999987              -0.000193580              -0.001118370               0.999999987               0.000335188              -0.001216335               0.999999987               0.000239415              -0.001186247               0.999999987               0.000199799              -0.001168282               0.999999987               0.000183071              -0.001163813               0.999999987               0.000175487              -0.001169451               0.999999987               0.000170101              -0.001181957               0.999999987               0.000163389              -0.001198497               0.999999987               0.000153492              -0.001217081               0.999999987               0.000139346              -0.001236234               0.999999987               0.000120100              -0.001254831               0.999999987               0.000095267              -0.001271816               0.999999987               0.000064332              -0.001286317               0.999999987               0.000026371              -0.001297737               0.999999987              -0.000019371              -0.001305878               0.999999987              -0.000073078              -0.001311011               0.999999987              -0.000134631              -0.001313752               0.999999987              -0.000203620              -0.001315178               0.999999987               0.000253866              -0.001264068               0.999999987               0.000177848              -0.001259301               0.999999987               0.000144090              -0.001253491               0.999999987               0.000128774              -0.001254939               0.999999987               0.000121377              -0.001264143               0.999999987               0.000116407              -0.001279483               0.999999987               0.000111008              -0.001299266               0.999999987               0.000103436              -0.001321821               0.999999987               0.000092811              -0.001345919               0.999999987               0.000078328              -0.001370653               0.999999987               0.000059514              -0.001395033               0.999999987               0.000035630              -0.001418201               0.999999987               0.000006000              -0.001439354               0.999999987              -0.000030562              -0.001458137               0.999999987              -0.000074953              -0.001474128               0.999999987              -0.000127932              -0.001487426               0.999999987              -0.000190671              -0.001498613               0.999999987               0.000170387              -0.001298796               0.999999987               0.000117823              -0.001313992               0.999999987               0.000093159              -0.001319258               0.999999987               0.000081263              -0.001326980               0.999999987               0.000075152              -0.001340139               0.999999987               0.000071148              -0.001358638               0.999999987               0.000067173              -0.001381544               0.999999987               0.000061889              -0.001407648               0.999999987               0.000054741              -0.001435926               0.999999987               0.000045143              -0.001465485               0.999999987               0.000032514              -0.001495594               0.999999987               0.000016214              -0.001525574               0.999999987              -0.000004202              -0.001554607               0.999999987              -0.000029615              -0.001582064               0.999999987              -0.000061374              -0.001607557               0.999999987              -0.000100869              -0.001630719               0.999999987              -0.000149751              -0.001651211               0.999999987               0.000085523              -0.001319814               0.999999987               0.000058755              -0.001347754               0.999999987               0.000045698              -0.001360673               0.999999987               0.000039142              -0.001373250               0.999999987               0.000035648              -0.001389603               0.999999987               0.000033296              -0.001410473               0.999999987               0.000031147              -0.001435624               0.999999987               0.000028417              -0.001464110               0.999999987               0.000024852              -0.001495193               0.999999987               0.000020059              -0.001528108               0.999999987               0.000013706              -0.001562181               0.999999987               0.000005402              -0.001596794               0.999999987              -0.000004952              -0.001631300               0.999999987              -0.000017863              -0.001664983               0.999999987              -0.000034663              -0.001697236               0.999999987              -0.000056013              -0.001727396               0.999999987              -0.000083137              -0.001754697               0.999999987              -0.000000000              -0.001326735               0.999999987               0.000000000              -0.001359135               0.999999987              -0.000000000              -0.001374864               0.999999987              -0.000000000              -0.001389155               0.999999987               0.000000000              -0.001406714               0.999999987              -0.000000000              -0.001428438               0.999999987              -0.000000000              -0.001454405               0.999999987              -0.000000000              -0.001483826               0.999999987              -0.000000000              -0.001515800               0.999999987              -0.000000000              -0.001549768               0.999999987               0.000000000              -0.001585327               0.999999987               0.000000000              -0.001621713               0.999999987               0.000000000              -0.001658267               0.999999987               0.000000000              -0.001694422               0.999999987              -0.000000000              -0.001729286               0.999999987              -0.000000000              -0.001762132               0.999999987              -0.000000000              -0.001792074               0.999999987               0.000920165               0.000000000               0.999999987               0.000968142               0.000000000               0.999999987               0.000987755               0.000000000               0.999999987               0.000997964               0.000000000               0.999999987               0.001005683              -0.000000000               0.999999987               0.001013495               0.000000000               0.999999987               0.001022301               0.000000000               0.999999987               0.001032255               0.000000000               0.999999987               0.001042949               0.000000000               0.999999987               0.001054001              -0.000000000               0.999999987               0.001065100               0.000000000               0.999999987               0.001076059              -0.000000000               0.999999987               0.001086401               0.000000000               0.999999987               0.001095686               0.000000000               0.999999987               0.001103269               0.000000000               0.999999987               0.001108358               0.000000000               0.999999987               0.001110150              -0.000000000               0.999999987               0.000914978               0.000126576               0.999999987               0.000958717               0.000099631               0.999999987               0.000975580               0.000087017               0.999999987               0.000984072               0.000081425               0.999999987               0.000990618               0.000079279               0.999999987               0.000997524               0.000078692               0.999999987               0.001005465               0.000078790               0.999999987               0.001014379               0.000078689               0.999999987               0.001023962               0.000077639               0.999999987               0.001033789               0.000075540               0.999999987               0.001043472               0.000072167               0.999999987               0.001052678               0.000067304               0.999999987               0.001061013               0.000060465               0.999999987               0.001067967               0.000050830               0.999999987               0.001072948               0.000037734               0.999999987               0.001075429               0.000020507               0.999999987               0.001074687              -0.000001949               0.999999987               0.000899474               0.000252078               0.999999987               0.000930842               0.000198945               0.999999987               0.000940027               0.000175140               0.999999987               0.000943804               0.000165202               0.999999987               0.000947243               0.000161749               0.999999987               0.000951718               0.000161224               0.999999987               0.000957355               0.000161582               0.999999987               0.000963768               0.000161354               0.999999987               0.000970374               0.000159502               0.999999987               0.000976552               0.000155411               0.999999987               0.000981987               0.000148857               0.999999987               0.000986252               0.000139173               0.999999987               0.000988835               0.000125822               0.999999987               0.000989387               0.000107488               0.999999987               0.000987488               0.000083133               0.999999987               0.000982907               0.000051786               0.999999987               0.000975467               0.000012266               0.999999987               0.000874010               0.000375296               0.999999987               0.000885898               0.000297818               0.999999987               0.000884076               0.000265290               0.999999987               0.000881443               0.000252944               0.999999987               0.000880740               0.000249579               0.999999987               0.000882080               0.000249921               0.999999987               0.000884522               0.000251031               0.999999987               0.000887208               0.000250859               0.999999987               0.000889283               0.000248135               0.999999987               0.000890098               0.000242136               0.999999987               0.000889189               0.000232485               0.999999987               0.000886054               0.000218439               0.999999987               0.000880242               0.000199132               0.999999987               0.000871569               0.000173601               0.999999987               0.000860072               0.000140962               0.999999987               0.000845906               0.000100639               0.999999987               0.000829566               0.000052192               0.999999987               0.000839167               0.000494989               0.999999987               0.000826243               0.000396265               0.999999987               0.000812214               0.000358086               0.999999987               0.000803297               0.000345393               0.999999987               0.000798696               0.000343494               0.999999987               0.000796657               0.000345490               0.999999987               0.000795391               0.000347610               0.999999987               0.000793580               0.000347586               0.999999987               0.000790128               0.000344011               0.999999987               0.000784330               0.000336102               0.999999987               0.000775543               0.000323376               0.999999987               0.000763381               0.000305173               0.999999987               0.000747708               0.000280926               0.999999987               0.000728719               0.000250235               0.999999987               0.000706860               0.000212704               0.999999987               0.000682833               0.000168726               0.999999987               0.000657641               0.000119355               0.999999987               0.000795562               0.000610059               0.999999987               0.000755041               0.000494387               0.999999987               0.000729842               0.000453619               0.999999987               0.000716016               0.000442399               0.999999987               0.000708503               0.000442828               0.999999987               0.000703544               0.000446719               0.999999987               0.000698593               0.000449854               0.999999987               0.000691872               0.000449895               0.999999987               0.000682245               0.000445336               0.999999987               0.000668902               0.000435394               0.999999987               0.000651422               0.000419761               0.999999987               0.000629737               0.000397982               0.999999987               0.000603982               0.000370010               0.999999987               0.000574807               0.000336091               0.999999987               0.000543095               0.000296863               0.999999987               0.000509849               0.000253451               0.999999987               0.000476134               0.000207586               0.999999987               0.000744184               0.000719376               0.999999987               0.000675970               0.000592205               0.999999987               0.000642295               0.000551475               0.999999987               0.000625961               0.000542679               0.999999987               0.000616988               0.000545599               0.999999987               0.000609734               0.000551276               0.999999987               0.000601104               0.000555204               0.999999987               0.000589122               0.000555105               0.999999987               0.000572627               0.000549507               0.999999987               0.000551105               0.000537695               0.999999987               0.000524345               0.000519466               0.999999987               0.000492606               0.000494865               0.999999987               0.000456687               0.000464217               0.999999987               0.000417425               0.000429088               0.999999987               0.000375996               0.000390303               0.999999987               0.000333373               0.000349341               0.999999987               0.000290305               0.000307457               0.999999987               0.000686260               0.000821768               0.999999987               0.000592816               0.000689443               0.999999987               0.000554447               0.000650605               0.999999987               0.000538276               0.000644393               0.999999987               0.000529018               0.000649499               0.999999987               0.000519806               0.000656624               0.999999987               0.000507267               0.000661077               0.999999987               0.000489459               0.000660704               0.999999987               0.000465516               0.000654053               0.999999987               0.000435100               0.000640349               0.999999987               0.000398228               0.000619866               0.999999987               0.000355737               0.000593150               0.999999987               0.000308621               0.000561571               0.999999987               0.000258304               0.000526751               0.999999987               0.000206099               0.000489971               0.999999987               0.000152883               0.000452384               0.999999987               0.000099317               0.000414538               0.999999987               0.000623586               0.000915460               0.999999987               0.000508382               0.000786014               0.999999987               0.000470746               0.000749349               0.999999987               0.000456599               0.000745227               0.999999987               0.000447704               0.000752090               0.999999987               0.000436590               0.000760243               0.999999987               0.000419665               0.000765085               0.999999987               0.000395391               0.000764377               0.999999987               0.000362980               0.000756597               0.999999987               0.000322248               0.000741169               0.999999987               0.000273863               0.000718899               0.999999987               0.000218880               0.000691179               0.999999987               0.000159258               0.000659832               0.999999987               0.000096730               0.000626717               0.999999987               0.000032706               0.000593392               0.999999987              -0.000031748               0.000560474               0.999999987              -0.000096001               0.000527933               0.999999987               0.000558791               0.001004207               0.999999987               0.000437463               0.000894641               0.999999987               0.000397530               0.000854942               0.999999987               0.000383324               0.000846774               0.999999987               0.000375701               0.000851526               0.999999987               0.000366939               0.000860352               0.999999987               0.000353551               0.000868475               0.999999987               0.000333844               0.000873477               0.999999987               0.000306717               0.000873839               0.999999987               0.000271716               0.000868395               0.999999987               0.000229027               0.000857010               0.999999987               0.000179011               0.000840157               0.999999987               0.000122675               0.000819201               0.999999987               0.000061521               0.000795642               0.999999987              -0.000002735               0.000771138               0.999999987              -0.000068230               0.000746906               0.999999987              -0.000133571               0.000723616               0.999999987               0.000488370               0.001085158               0.999999987               0.000369025               0.000999837               0.999999987               0.000327047               0.000963300               0.999999987               0.000311792               0.000953340               0.999999987               0.000304709               0.000956849               0.999999987               0.000297672               0.000966188               0.999999987               0.000287251               0.000977139               0.999999987               0.000271432               0.000987143               0.999999987               0.000249124               0.000994612               0.999999987               0.000219682               0.000998126               0.999999987               0.000182872               0.000997101               0.999999987               0.000138644               0.000991202               0.999999987               0.000087263               0.000980840               0.999999987               0.000029364               0.000967096               0.999999987              -0.000033691               0.000951417               0.999999987              -0.000100075               0.000935184               0.999999987              -0.000167635               0.000919718               0.999999987               0.000413616               0.001156313               0.999999987               0.000303011               0.001098419               0.999999987               0.000260831               0.001069582               0.999999987               0.000244433               0.001060874               0.999999987               0.000237127               0.001064598               0.999999987               0.000231213               0.001075119               0.999999987               0.000222910               0.001088747               0.999999987               0.000210402               0.001103118               0.999999987               0.000192390               0.001116795               0.999999987               0.000168230               0.001128392               0.999999987               0.000137400               0.001136780               0.999999987               0.000099586               0.001141430               0.999999987               0.000054338               0.001142114               0.999999987               0.000001603               0.001139077               0.999999987              -0.000058105               0.001133307               0.999999987              -0.000123658               0.001125918               0.999999987              -0.000193580               0.001118370               0.999999987               0.000335188               0.001216335               0.999999987               0.000239415               0.001186247               0.999999987               0.000199799               0.001168282               0.999999987               0.000183071               0.001163813               0.999999987               0.000175487               0.001169451               0.999999987               0.000170101               0.001181957               0.999999987               0.000163389               0.001198497               0.999999987               0.000153492               0.001217081               0.999999987               0.000139346               0.001236234               0.999999987               0.000120100               0.001254831               0.999999987               0.000095267               0.001271816               0.999999987               0.000064332               0.001286317               0.999999987               0.000026371               0.001297737               0.999999987              -0.000019371               0.001305878               0.999999987              -0.000073078               0.001311011               0.999999987              -0.000134631               0.001313752               0.999999987              -0.000203620               0.001315178               0.999999987               0.000253866               0.001264068               0.999999987               0.000177848               0.001259301               0.999999987               0.000144090               0.001253491               0.999999987               0.000128774               0.001254939               0.999999987               0.000121377               0.001264143               0.999999987               0.000116407               0.001279483               0.999999987               0.000111008               0.001299266               0.999999987               0.000103436               0.001321821               0.999999987               0.000092811               0.001345919               0.999999987               0.000078328               0.001370653               0.999999987               0.000059514               0.001395033               0.999999987               0.000035630               0.001418201               0.999999987               0.000006000               0.001439354               0.999999987              -0.000030562               0.001458137               0.999999987              -0.000074953               0.001474128               0.999999987              -0.000127932               0.001487426               0.999999987              -0.000190671               0.001498613               0.999999987               0.000170387               0.001298796               0.999999987               0.000117823               0.001313992               0.999999987               0.000093159               0.001319258               0.999999987               0.000081263               0.001326980               0.999999987               0.000075152               0.001340139               0.999999987               0.000071148               0.001358638               0.999999987               0.000067173               0.001381544               0.999999987               0.000061889               0.001407648               0.999999987               0.000054741               0.001435926               0.999999987               0.000045143               0.001465485               0.999999987               0.000032514               0.001495594               0.999999987               0.000016214               0.001525574               0.999999987              -0.000004202               0.001554607               0.999999987              -0.000029615               0.001582064               0.999999987              -0.000061374               0.001607557               0.999999987              -0.000100869               0.001630719               0.999999987              -0.000149751               0.001651211               0.999999987               0.000085523               0.001319814               0.999999987               0.000058755               0.001347754               0.999999987               0.000045698               0.001360673               0.999999987               0.000039142               0.001373250               0.999999987               0.000035648               0.001389603               0.999999987               0.000033296               0.001410473               0.999999987               0.000031147               0.001435624               0.999999987               0.000028417               0.001464110               0.999999987               0.000024852               0.001495193               0.999999987               0.000020059               0.001528108               0.999999987               0.000013706               0.001562181               0.999999987               0.000005402               0.001596794               0.999999987              -0.000004952               0.001631300               0.999999987              -0.000017863               0.001664983               0.999999987              -0.000034663               0.001697236               0.999999987              -0.000056013               0.001727396               0.999999987              -0.000083137               0.001754697               0.999999987               0.000000000               0.001326735               0.999999987              -0.000000000               0.001359135               0.999999987              -0.000000000               0.001374864               0.999999987               0.000000000               0.001389155               0.999999987               0.000000000               0.001406714               0.999999987               0.000000000               0.001428438               0.999999987              -0.000000000               0.001454405               0.999999987              -0.000000000               0.001483826               0.999999987              -0.000000000               0.001515800               0.999999987              -0.000000000               0.001549768               0.999999987               0.000000000               0.001585327               0.999999987              -0.000000000               0.001621713               0.999999987              -0.000000000               0.001658267               0.999999987              -0.000000000               0.001694422               0.999999987               0.000000000               0.001729286               0.999999987              -0.000000000               0.001762132               0.999999987               0.000000000               0.001792074               0.999999987 </DataArray>
<DataArray type="Float64"                                    Name="defo"                                                      NumberOfComponents=" 3" format="ascii">
             -0.000920165              -0.000000000               0.999999987              -0.000968142               0.000000000               0.999999987              -0.000987755               0.000000000               0.999999987              -0.000997964               0.000000000               0.999999987              -0.001005683               0.000000000               0.999999987              -0.001013495               0.000000000               0.999999987              -0.001022301               0.000000000               0.999999987              -0.001032255               0.000000000               0.999999987              -0.001042949               0.000000000               0.999999987              -0.001054001              -0.000000000               0.999999987              -0.001065100               0.000000000               0.999999987              -0.001076059               0.000000000               0.999999987              -0.001086401               0.000000000               0.999999987              -0.001095686              -0.000000000               0.999999987              -0.001103269              -0.000000000               0.999999987              -0.001108358              -0.000000000               0.999999987              -0.001110150              -0.000000000               0.999999987              -0.000914978               0.000126576               0.999999987              -0.000958717               0.000099631               0.999999987              -0.000975580               0.000087017               0.999999987              -0.000984072               0.000081425               0.999999987              -0.000990618               0.000079279               0.999999987              -0.000997524               0.000078692               0.999999987              -0.001005465               0.000078790               0.999999987              -0.001014379               0.000078689               0.999999987              -0.001023962               0.000077639               0.999999987              -0.001033789               0.000075540               0.999999987              -0.001043472               0.000072167               0.999999987              -0.001052678               0.000067304               0.999999987              -0.001061013               0.000060465               0.999999987              -0.001067967               0.000050830               0.999999987              -0.001072948               0.000037734               0.999999987              -0.001075429               0.000020507               0.999999987              -0.001074687              -0.000001949               0.999999987              -0.000899474               0.000252078               0.999999987              -0.000930842               0.000198945               0.999999987              -0.000940027               0.000175140               0.999999987              -0.000943804               0.000165202               0.999999987              -0.000947243               0.000161749               0.999999987              -0.000951718               0.000161224               0.999999987              -0.000957355               0.000161582               0.999999987              -0.000963768               0.000161354               0.999999987              -0.000970374               0.000159502               0.999999987              -0.000976552               0.000155411               0.999999987              -0.000981987               0.000148857               0.999999987              -0.000986252               0.000139173               0.999999987              -0.000988835               0.000125822               0.999999987              -0.000989387               0.000107488               0.999999987              -0.000987488               0.000083133               0.999999987              -0.000982907               0.000051786               0.999999987              -0.000975467               0.000012266               0.999999987              -0.000874010               0.000375296               0.999999987              -0.000885898               0.000297818               0.999999987              -0.000884076               0.000265290               0.999999987              -0.000881443               0.000252944               0.999999987              -0.000880740               0.000249579               0.999999987              -0.000882080               0.000249921               0.999999987              -0.000884522               0.000251031               0.999999987              -0.000887208               0.000250859               0.999999987              -0.000889283               0.000248135               0.999999987              -0.000890098               0.000242136               0.999999987              -0.000889189               0.000232485               0.999999987              -0.000886054               0.000218439               0.999999987              -0.000880242               0.000199132               0.999999987              -0.000871569               0.000173601               0.999999987              -0.000860072               0.000140962               0.999999987              -0.000845906               0.000100639               0.999999987              -0.000829566               0.000052192               0.999999987              -0.000839167               0.000494989               0.999999987              -0.000826243               0.000396265               0.999999987              -0.000812214               0.000358086               0.999999987              -0.000803297               0.000345393               0.999999987              -0.000798696               0.000343494               0.999999987              -0.000796657               0.000345490               0.999999987              -0.000795391               0.000347610               0.999999987              -0.000793580               0.000347586               0.999999987              -0.000790128               0.000344011               0.999999987              -0.000784330               0.000336102               0.999999987              -0.000775543               0.000323376               0.999999987              -0.000763381               0.000305173               0.999999987              -0.000747708               0.000280926               0.999999987              -0.000728719               0.000250235               0.999999987              -0.000706860               0.000212704               0.999999987              -0.000682833               0.000168726               0.999999987              -0.000657641               0.000119355               0.999999987              -0.000795562               0.000610059               0.999999987              -0.000755041               0.000494387               0.999999987              -0.000729842               0.000453619               0.999999987              -0.000716016               0.000442399               0.999999987              -0.000708503               0.000442828               0.999999987              -0.000703544               0.000446719               0.999999987              -0.000698593               0.000449854               0.999999987              -0.000691872               0.000449895               0.999999987              -0.000682245               0.000445336               0.999999987              -0.000668902               0.000435394               0.999999987              -0.000651422               0.000419761               0.999999987              -0.000629737               0.000397982               0.999999987              -0.000603982               0.000370010               0.999999987              -0.000574807               0.000336091               0.999999987              -0.000543095               0.000296863               0.999999987              -0.000509849               0.000253451               0.999999987              -0.000476134               0.000207586               0.999999987              -0.000744184               0.000719376               0.999999987              -0.000675970               0.000592205               0.999999987              -0.000642295               0.000551475               0.999999987              -0.000625961               0.000542679               0.999999987              -0.000616988               0.000545599               0.999999987              -0.000609734               0.000551276               0.999999987              -0.000601104               0.000555204               0.999999987              -0.000589122               0.000555105               0.999999987              -0.000572627               0.000549507               0.999999987              -0.000551105               0.000537695               0.999999987              -0.000524345               0.000519466               0.999999987              -0.000492606               0.000494865               0.999999987              -0.000456687               0.000464217               0.999999987              -0.000417425               0.000429088               0.999999987              -0.000375996               0.000390303               0.999999987              -0.000333373               0.000349341               0.999999987              -0.000290305               0.000307457               0.999999987              -0.000686260               0.000821768               0.999999987              -0.000592816               0.000689443               0.999999987              -0.000554447               0.000650605               0.999999987              -0.000538276               0.000644393               0.999999987              -0.000529018               0.000649499               0.999999987              -0.000519806               0.000656624               0.999999987              -0.000507267               0.000661077               0.999999987              -0.000489459               0.000660704               0.999999987              -0.000465516               0.000654053               0.999999987              -0.000435100               0.000640349               0.999999987              -0.000398228               0.000619866               0.999999987              -0.000355737               0.000593150               0.999999987              -0.000308621               0.000561571               0.999999987              -0.000258304               0.000526751               0.999999987              -0.000206099               0.000489971               0.999999987              -0.000152883               0.000452384               0.999999987              -0.000099317               0.000414538               0.999999987              -0.000623586               0.000915460               0.999999987              -0.000508382               0.000786014               0.999999987              -0.000470746               0.000749349               0.999999987              -0.000456599               0.000745227               0.999999987              -0.000447704               0.000752090               0.999999987              -0.000436590               0.000760243               0.999999987              -0.000419665               0.000765085               0.999999987              -0.000395391               0.000764377               0.999999987              -0.000362980               0.000756597               0.999999987              -0.000322248               0.000741169               0.999999987              -0.000273863               0.000718899               0.999999987              -0.000218880               0.000691179               0.999999987              -0.000159258               0.000659832               0.999999987              -0.000096730               0.000626717               0.999999987              -0.000032706               0.000593392               0.999999987               0.000031748               0.000560474               0.999999987               0.000096001               0.000527933               0.999999987              -0.000558791               0.001004207               0.999999987              -0.000437463               0.000894641               0.999999987              -0.000397530               0.000854942               0.999999987              -0.000383324               0.000846774               0.999999987              -0.000375701               0.000851526               0.999999987              -0.000366939               0.000860352               0.999999987              -0.000353551               0.000868475               0.999999987              -0.000333844               0.000873477               0.999999987              -0.000306717               0.000873839               0.999999987              -0.000271716               0.000868395               0.999999987              -0.000229027               0.000857010               0.999999987              -0.000179011               0.000840157               0.999999987              -0.000122675               0.000819201               0.999999987              -0.000061521               0.000795642               0.999999987               0.000002735               0.000771138               0.999999987               0.000068230               0.000746906               0.999999987               0.000133571               0.000723616               0.999999987              -0.000488370               0.001085158               0.999999987              -0.000369025               0.000999837               0.999999987              -0.000327047               0.000963300               0.999999987              -0.000311792               0.000953340               0.999999987              -0.000304709               0.000956849               0.999999987              -0.000297672               0.000966188               0.999999987              -0.000287251               0.000977139               0.999999987              -0.000271432               0.000987143               0.999999987              -0.000249124               0.000994612               0.999999987              -0.000219682               0.000998126               0.999999987              -0.000182872               0.000997101               0.999999987              -0.000138644               0.000991202               0.999999987              -0.000087263               0.000980840               0.999999987              -0.000029364               0.000967096               0.999999987               0.000033691               0.000951417               0.999999987               0.000100075               0.000935184               0.999999987               0.000167635               0.000919718               0.999999987              -0.000413616               0.001156313               0.999999987              -0.000303011               0.001098419               0.999999987              -0.000260831               0.001069582               0.999999987              -0.000244433               0.001060874               0.999999987              -0.000237127               0.001064598               0.999999987              -0.000231213               0.001075119               0.999999987              -0.000222910               0.001088747               0.999999987              -0.000210402               0.001103118               0.999999987              -0.000192390               0.001116795               0.999999987              -0.000168230               0.001128392               0.999999987              -0.000137400               0.001136780               0.999999987              -0.000099586               0.001141430               0.999999987              -0.000054338               0.001142114               0.999999987              -0.000001603               0.001139077               0.999999987               0.000058105               0.001133307               0.999999987               0.000123658               0.001125918               0.999999987               0.000193580               0.001118370               0.999999987              -0.000335188               0.001216335               0.999999987              -0.000239415               0.001186247               0.999999987              -0.000199799               0.001168282               0.999999987              -0.000183071               0.001163813               0.999999987              -0.000175487               0.001169451               0.999999987              -0.000170101               0.001181957               0.999999987              -0.000163389               0.001198497               0.999999987              -0.000153492               0.001217081               0.999999987              -0.000139346               0.001236234               0.999999987              -0.000120100               0.001254831               0.999999987              -0.000095267               0.001271816               0.999999987              -0.000064332               0.001286317               0.999999987              -0.000026371               0.001297737               0.999999987               0.000019371               0.001305878               0.999999987               0.000073078               0.001311011               0.999999987               0.000134631               0.001313752               0.999999987               0.000203620               0.001315178               0.999999987              -0.000253866               0.001264068               0.999999987              -0.000177848               0.001259301               0.999999987              -0.000144090               0.001253491               0.999999987              -0.000128774               0.001254939               0.999999987              -0.000121377               0.001264143               0.999999987              -0.000116407               0.001279483               0.999999987              -0.000111008               0.001299266               0.999999987              -0.000103436               0.001321821               0.999999987              -0.000092811               0.001345919               0.999999987              -0.000078328               0.001370653               0.999999987              -0.000059514               0.001395033               0.999999987              -0.000035630               0.001418201               0.999999987              -0.000006000               0.001439354               0.999999987               0.000030562               0.001458137               0.999999987               0.000074953               0.001474128               0.999999987               0.000127932               0.001487426               0.999999987               0.000190671               0.001498613               0.999999987              -0.000170387               0.001298796               0.999999987              -0.000117823               0.001313992               0.999999987              -0.000093159               0.001319258               0.999999987              -0.000081263               0.001326980               0.999999987              -0.000075152               0.001340139               0.999999987              -0.000071148               0.001358638               0.999999987              -0.000067173               0.001381544               0.999999987              -0.000061889               0.001407648               0.999999987              -0.000054741               0.001435926               0.999999987              -0.000045143               0.001465485               0.999999987              -0.000032514               0.001495594               0.999999987              -0.000016214               0.001525574               0.999999987               0.000004202               0.001554607               0.999999987               0.000029615               0.001582064               0.999999987               0.000061374               0.001607557               0.999999987               0.000100869               0.001630719               0.999999987               0.000149751               0.001651211               0.999999987              -0.000085523               0.001319814               0.999999987              -0.000058755               0.001347754               0.999999987              -0.000045698               0.001360673               0.999999987              -0.000039142               0.001373250               0.999999987              -0.000035648               0.001389603               0.999999987              -0.000033296               0.001410473               0.999999987              -0.000031147               0.001435624               0.999999987              -0.000028417               0.001464110               0.999999987              -0.000024852               0.001495193               0.999999987              -0.000020059               0.001528108               0.999999987              -0.000013706               0.001562181               0.999999987              -0.000005402               0.001596794               0.999999987               0.000004952               0.001631300               0.999999987               0.000017863               0.001664983               0.999999987               0.000034663               0.001697236               0.999999987               0.000056013               0.001727396               0.999999987               0.000083137               0.001754697               0.999999987               0.000000000               0.001326735               0.999999987              -0.000000000               0.001359135               0.999999987              -0.000000000               0.001374864               0.999999987               0.000000000               0.001389155               0.999999987               0.000000000               0.001406714               0.999999987               0.000000000               0.001428438               0.999999987              -0.000000000               0.001454405               0.999999987              -0.000000000               0.001483826               0.999999987              -0.000000000               0.001515800               0.999999987              -0.000000000               0.001549768               0.999999987               0.000000000               0.001585327               0.999999987              -0.000000000               0.001621713               0.999999987              -0.000000000               0.001658267               0.999999987              -0.000000000               0.001694422               0.999999987               0.000000000               0.001729286               0.999999987              -0.000000000               0.001762132               0.999999987               0.000000000               0.001792074               0.999999987              -0.000920165              -0.000000000               0.999999987              -0.000968142               0.000000000               0.999999987              -0.000987755               0.000000000               0.999999987              -0.000997964               0.000000000               0.999999987              -0.001005683               0.000000000               0.999999987              -0.001013495               0.000000000               0.999999987              -0.001022301               0.000000000               0.999999987              -0.001032255               0.000000000               0.999999987              -0.001042949               0.000000000               0.999999987              -0.001054001              -0.000000000               0.999999987              -0.001065100               0.000000000               0.999999987              -0.001076059               0.000000000               0.999999987              -0.001086401               0.000000000               0.999999987              -0.001095686              -0.000000000               0.999999987              -0.001103269              -0.000000000               0.999999987              -0.001108358              -0.000000000               0.999999987              -0.001110150              -0.000000000               0.999999987              -0.000914978              -0.000126576               0.999999987              -0.000958717              -0.000099631               0.999999987              -0.000975580              -0.000087017               0.999999987              -0.000984072              -0.000081425               0.999999987              -0.000990618              -0.000079279               0.999999987              -0.000997524              -0.000078692               0.999999987              -0.001005465              -0.000078790               0.999999987              -0.001014379              -0.000078689               0.999999987              -0.001023962              -0.000077639               0.999999987              -0.001033789              -0.000075540               0.999999987              -0.001043472              -0.000072167               0.999999987              -0.001052678              -0.000067304               0.999999987              -0.001061013              -0.000060465               0.999999987              -0.001067967              -0.000050830               0.999999987              -0.001072948              -0.000037734               0.999999987              -0.001075429              -0.000020507               0.999999987              -0.001074687               0.000001949               0.999999987              -0.000899474              -0.000252078               0.999999987              -0.000930842              -0.000198945               0.999999987              -0.000940027              -0.000175140               0.999999987              -0.000943804              -0.000165202               0.999999987              -0.000947243              -0.000161749               0.999999987              -0.000951718              -0.000161224               0.999999987              -0.000957355              -0.000161582               0.999999987              -0.000963768              -0.000161354               0.999999987              -0.000970374              -0.000159502               0.999999987              -0.000976552              -0.000155411               0.999999987              -0.000981987              -0.000148857               0.999999987              -0.000986252              -0.000139173               0.999999987              -0.000988835              -0.000125822               0.999999987              -0.000989387              -0.000107488               0.999999987              -0.000987488              -0.000083133               0.999999987              -0.000982907              -0.000051786               0.999999987              -0.000975467              -0.000012266               0.999999987              -0.000874010              -0.000375296               0.999999987              -0.000885898              -0.000297818               0.999999987              -0.000884076              -0.000265290               0.999999987              -0.000881443              -0.000252944               0.999999987              -0.000880740              -0.000249579               0.999999987              -0.000882080              -0.000249921               0.999999987              -0.000884522              -0.000251031               0.999999987              -0.000887208              -0.000250859               0.999999987              -0.000889283              -0.000248135               0.999999987              -0.000890098              -0.000242136               0.999999987              -0.000889189              -0.000232485               0.999999987              -0.000886054              -0.000218439               0.999999987              -0.000880242              -0.000199132               0.999999987              -0.000871569              -0.000173601               0.999999987              -0.000860072              -0.000140962               0.999999987              -0.000845906              -0.000100639               0.999999987              -0.000829566              -0.000052192               0.999999987              -0.000839167              -0.000494989               0.999999987              -0.000826243              -0.000396265               0.999999987              -0.000812214              -0.000358086               0.999999987              -0.000803297              -0.000345393               0.999999987              -0.000798696              -0.000343494               0.999999987              -0.000796657              -0.000345490               0.999999987              -0.000795391              -0.000347610               0.999999987              -0.000793580              -0.000347586               0.999999987              -0.000790128              -0.000344011               0.999999987              -0.000784330              -0.000336102               0.999999987              -0.000775543              -0.000323376               0.999999987              -0.000763381              -0.000305173               0.999999987              -0.000747708              -0.000280926               0.999999987              -0.000728719              -0.000250235               0.999999987              -0.000706860              -0.000212704               0.999999987              -0.000682833              -0.000168726               0.999999987              -0.000657641              -0.000119355               0.999999987              -0.000795562              -0.000610059               0.999999987              -0.000755041              -0.000494387               0.999999987              -0.000729842              -0.000453619               0.999999987              -0.000716016              -0.000442399               0.999999987              -0.000708503              -0.000442828               0.999999987              -0.000703544              -0.000446719               0.999999987              -0.000698593              -0.000449854               0.999999987              -0.000691872              -0.000449895               0.999999987              -0.000682245              -0.000445336               0.999999987              -0.000668902              -0.000435394               0.999999987              -0.000651422              -0.000419761               0.999999987              -0.000629737              -0.000397982               0.999999987              -0.000603982              -0.000370010               0.999999987              -0.000574807              -0.000336091               0.999999987              -0.000543095              -0.000296863               0.999999987              -0.000509849              -0.000253451               0.999999987              -0.000476134              -0.000207586               0.999999987              -0.000744184              -0.000719376               0.999999987              -0.000675970              -0.000592205               0.999999987              -0.000642295              -0.000551475               0.999999987              -0.000625961              -0.000542679               0.999999987              -0.000616988              -0.000545599               0.999999987              -0.000609734              -0.000551276               0.999999987              -0.000601104              -0.000555204               0.999999987              -0.000589122              -0.000555105               0.999999987              -0.000572627              -0.000549507               0.999999987              -0.000551105              -0.000537695               0.999999987              -0.000524345              -0.000519466               0.999999987              -0.000492606              -0.000494865               0.999999987              -0.000456687              -0.000464217               0.999999987              -0.000417425              -0.000429088               0.999999987              -0.000375996              -0.000390303               0.999999987              -0.000333373              -0.000349341               0.999999987              -0.000290305              -0.000307457               0.999999987              -0.000686260              -0.000821768               0.999999987              -0.000592816              -0.000689443               0.999999987              -0.000554447              -0.000650605               0.999999987              -0.000538276              -0.000644393               0.999999987              -0.000529018              -0.000649499               0.999999987              -0.000519806              -0.000656624               0.999999987              -0.000507267              -0.000661077               0.999999987              -0.000489459              -0.000660704               0.999999987              -0.000465516              -0.000654053               0.999999987              -0.000435100              -0.000640349               0.999999987              -0.000398228              -0.000619866               0.999999987              -0.000355737              -0.000593150               0.999999987              -0.000308621              -0.000561571               0.999999987              -0.000258304              -0.000526751               0.999999987              -0.000206099              -0.000489971               0.999999987              -0.000152883              -0.000452384               0.999999987              -0.000099317              -0.000414538               0.999999987              -0.000623586              -0.000915460               0.999999987              -0.000508382              -0.000786014               0.999999987              -0.000470746              -0.000749349               0.999999987              -0.000456599              -0.000745227               0.999999987              -0.000447704              -0.000752090               0.999999987              -0.000436590              -0.000760243               0.999999987              -0.000419665              -0.000765085               0.999999987              -0.000395391              -0.000764377               0.999999987              -0.000362980              -0.000756597               0.999999987              -0.000322248              -0.000741169               0.999999987              -0.000273863              -0.000718899               0.999999987              -0.000218880              -0.000691179               0.999999987              -0.000159258              -0.000659832               0.999999987              -0.000096730              -0.000626717               0.999999987              -0.000032706              -0.000593392               0.999999987               0.000031748              -0.000560474               0.999999987               0.000096001              -0.000527933               0.999999987              -0.000558791              -0.001004207               0.999999987              -0.000437463              -0.000894641               0.999999987              -0.000397530              -0.000854942               0.999999987              -0.000383324              -0.000846774               0.999999987              -0.000375701              -0.000851526               0.999999987              -0.000366939              -0.000860352               0.999999987              -0.000353551              -0.000868475               0.999999987              -0.000333844              -0.000873477               0.999999987              -0.000306717              -0.000873839               0.999999987              -0.000271716              -0.000868395               0.999999987              -0.000229027              -0.000857010               0.999999987              -0.000179011              -0.000840157               0.999999987              -0.000122675              -0.000819201               0.999999987              -0.000061521              -0.000795642               0.999999987               0.000002735              -0.000771138               0.999999987               0.000068230              -0.000746906               0.999999987               0.000133571              -0.000723616               0.999999987              -0.000488370              -0.001085158               0.999999987              -0.000369025              -0.000999837               0.999999987              -0.000327047              -0.000963300               0.999999987              -0.000311792              -0.000953340               0.999999987              -0.000304709              -0.000956849               0.999999987              -0.000297672              -0.000966188               0.999999987              -0.000287251              -0.000977139               0.999999987              -0.000271432              -0.000987143               0.999999987              -0.000249124              -0.000994612               0.999999987              -0.000219682              -0.000998126               0.999999987              -0.000182872              -0.000997101               0.999999987              -0.000138644              -0.000991202               0.999999987              -0.000087263              -0.000980840               0.999999987              -0.000029364              -0.000967096               0.999999987               0.000033691              -0.000951417               0.999999987               0.000100075              -0.000935184               0.999999987               0.000167635              -0.000919718               0.999999987              -0.000413616              -0.001156313               0.999999987              -0.000303011              -0.001098419               0.999999987              -0.000260831              -0.001069582               0.999999987              -0.000244433              -0.001060874               0.999999987              -0.000237127              -0.001064598               0.999999987              -0.000231213              -0.001075119               0.999999987              -0.000222910              -0.001088747               0.999999987              -0.000210402              -0.001103118               0.999999987              -0.000192390              -0.001116795               0.999999987              -0.000168230              -0.001128392               0.999999987              -0.000137400              -0.001136780               0.999999987              -0.000099586              -0.001141430               0.999999987              -0.000054338              -0.001142114               0.999999987              -0.000001603              -0.001139077               0.999999987               0.000058105              -0.001133307               0.999999987               0.000123658              -0.001125918               0.999999987               0.000193580              -0.001118370               0.999999987              -0.000335188              -0.001216335               0.999999987              -0.000239415              -0.001186247               0.999999987              -0.000199799              -0.001168282               0.999999987              -0.000183071              -0.001163813               0.999999987              -0.000175487              -0.001169451               0.999999987              -0.000170101              -0.001181957               0.999999987              -0.000163389              -0.001198497               0.999999987              -0.000153492              -0.001217081               0.999999987              -0.000139346              -0.001236234               0.999999987              -0.000120100              -0.001254831               0.999999987              -0.000095267              -0.001271816               0.999999987              -0.000064332              -0.001286317               0.999999987              -0.000026371              -0.001297737               0.999999987               0.000019371              -0.001305878               0.999999987               0.000073078              -0.001311011               0.999999987               0.000134631              -0.001313752               0.999999987               0.000203620              -0.001315178               0.999999987              -0.000253866              -0.001264068               0.999999987              -0.000177848              -0.001259301               0.999999987              -0.000144090              -0.001253491               0.999999987              -0.000128774              -0.001254939               0.999999987              -0.000121377              -0.001264143               0.999999987              -0.000116407              -0.001279483               0.999999987              -0.000111008              -0.001299266               0.999999987              -0.000103436              -0.001321821               0.999999987              -0.000092811              -0.001345919               0.999999987              -0.000078328              -0.001370653               0.999999987              -0.000059514              -0.001395033               0.999999987              -0.000035630              -0.001418201               0.999999987              -0.000006000              -0.001439354               0.999999987               0.000030562              -0.001458137               0.999999987               0.000074953              -0.001474128               0.999999987               0.000127932              -0.001487426               0.999999987               0.000190671              -0.001498613               0.999999987              -0.000170387              -0.001298796               0.999999987              -0.000117823              -0.001313992               0.999999987              -0.000093159              -0.001319258               0.999999987              -0.000081263              -0.001326980               0.999999987              -0.000075152              -0.001340139               0.999999987              -0.000071148              -0.001358638               0.999999987              -0.000067173              -0.001381544               0.999999987              -0.000061889              -0.001407648               0.999999987              -0.000054741              -0.001435926               0.999999987              -0.000045143              -0.001465485               0.999999987              -0.000032514              -0.001495594               0.999999987              -0.000016214              -0.001525574               0.999999987               0.000004202              -0.001554607               0.999999987               0.000029615              -0.001582064               0.999999987               0.000061374              -0.001607557               0.999999987               0.000100869              -0.001630719               0.999999987               0.000149751              -0.001651211               0.999999987              -0.000085523              -0.001319814               0.999999987              -0.000058755              -0.001347754               0.999999987              -0.000045698              -0.001360673               0.999999987              -0.000039142              -0.001373250               0.999999987              -0.000035648              -0.001389603               0.999999987              -0.000033296              -0.001410473               0.999999987              -0.000031147              -0.001435624               0.999999987              -0.000028417              -0.001464110               0.999999987              -0.000024852              -0.001495193               0.999999987              -0.000020059              -0.001528108               0.999999987              -0.000013706              -0.001562181               0.999999987              -0.000005402              -0.001596794               0.999999987               0.000004952              -0.001631300               0.999999987               0.000017863              -0.001664983               0.999999987               0.000034663              -0.001697236               0.999999987               0.000056013              -0.001727396               0.999999987               0.000083137              -0.001754697               0.999999987              -0.000000000              -0.001326735               0.999999987               0.000000000              -0.001359135               0.999999987              -0.000000000              -0.001374864               0.999999987              -0.000000000              -0.001389155               0.999999987               0.000000000              -0.001406714               0.999999987              -0.000000000              -0.001428438               0.999999987              -0.000000000              -0.001454405               0.999999987              -0.000000000              -0.001483826               0.999999987              -0.000000000              -0.001515800               0.999999987              -0.000000000              -0.001549768               0.999999987               0.000000000              -0.001585327               0.999999987               0.000000000              -0.001621713               0.999999987               0.000000000              -0.001658267               0.999999987               0.000000000              -0.001694422               0.999999987              -0.000000000              -0.001729286               0.999999987              -0.000000000              -0.001762132               0.999999987              -0.000000000              -0.001792074               0.999999987               0.000920165               0.000000000               0.999999987               0.000968142               0.000000000               0.999999987               0.000987755               0.000000000               0.999999987               0.000997964               0.000000000               0.999999987               0.001005683              -0.000000000               0.999999987               0.001013495               0.000000000               0.999999987               0.001022301               0.000000000               0.999999987               0.001032255               0.000000000               0.999999987               0.001042949               0.000000000               0.999999987               0.001054001              -0.000000000               0.999999987               0.001065100               0.000000000               0.999999987               0.001076059              -0.000000000               0.999999987               0.001086401               0.000000000               0.999999987               0.001095686               0.000000000               0.999999987               0.001103269               0.000000000               0.999999987               0.001108358               0.000000000               0.999999987               0.001110150              -0.000000000               0.999999987               0.000914978              -0.000126576               0.999999987               0.000958717              -0.000099631               0.999999987               0.000975580              -0.000087017               0.999999987               0.000984072              -0.000081425               0.999999987               0.000990618              -0.000079279               0.999999987               0.000997524              -0.000078692               0.999999987               0.001005465              -0.000078790               0.999999987               0.001014379              -0.000078689               0.999999987               0.001023962              -0.000077639               0.999999987               0.001033789              -0.000075540               0.999999987               0.001043472              -0.000072167               0.999999987               0.001052678              -0.000067304               0.999999987               0.001061013              -0.000060465               0.999999987               0.001067967              -0.000050830               0.999999987               0.001072948              -0.000037734               0.999999987               0.001075429              -0.000020507               0.999999987               0.001074687               0.000001949               0.999999987               0.000899474              -0.000252078               0.999999987               0.000930842              -0.000198945               0.999999987               0.000940027              -0.000175140               0.999999987               0.000943804              -0.000165202               0.999999987               0.000947243              -0.000161749               0.999999987               0.000951718              -0.000161224               0.999999987               0.000957355              -0.000161582               0.999999987               0.000963768              -0.000161354               0.999999987               0.000970374              -0.000159502               0.999999987               0.000976552              -0.000155411               0.999999987               0.000981987              -0.000148857               0.999999987               0.000986252              -0.000139173               0.999999987               0.000988835              -0.000125822               0.999999987               0.000989387              -0.000107488               0.999999987               0.000987488              -0.000083133               0.999999987               0.000982907              -0.000051786               0.999999987               0.000975467              -0.000012266               0.999999987               0.000874010              -0.000375296               0.999999987               0.000885898              -0.000297818               0.999999987               0.000884076              -0.000265290               0.999999987               0.000881443              -0.000252944               0.999999987               0.000880740              -0.000249579               0.999999987               0.000882080              -0.000249921               0.999999987               0.000884522              -0.000251031               0.999999987               0.000887208              -0.000250859               0.999999987               0.000889283              -0.000248135               0.999999987               0.000890098              -0.000242136               0.999999987               0.000889189              -0.000232485               0.999999987               0.000886054              -0.000218439               0.999999987               0.000880242              -0.000199132               0.999999987               0.000871569              -0.000173601               0.999999987               0.000860072              -0.000140962               0.999999987               0.000845906              -0.000100639               0.999999987               0.000829566              -0.000052192               0.999999987               0.000839167              -0.000494989               0.999999987               0.000826243              -0.000396265               0.999999987               0.000812214              -0.000358086               0.999999987               0.000803297              -0.000345393               0.999999987               0.000798696              -0.000343494               0.999999987               0.000796657              -0.000345490               0.999999987               0.000795391              -0.000347610               0.999999987               0.000793580              -0.000347586               0.999999987               0.000790128              -0.000344011               0.999999987               0.000784330              -0.000336102               0.999999987               0.000775543              -0.000323376               0.999999987               0.000763381              -0.000305173               0.999999987               0.000747708              -0.000280926               0.999999987               0.000728719              -0.000250235               0.999999987               0.000706860              -0.000212704               0.999999987               0.000682833              -0.000168726               0.999999987               0.000657641              -0.000119355               0.999999987               0.000795562              -0.000610059               0.999999987               0.000755041              -0.000494387               0.999999987               0.000729842              -0.000453619               0.999999987               0.000716016              -0.000442399               0.999999987               0.000708503              -0.000442828               0.999999987               0.000703544              -0.000446719               0.999999987               0.000698593              -0.000449854               0.999999987               0.000691872              -0.000449895               0.999999987               0.000682245              -0.000445336               0.999999987               0.000668902              -0.000435394               0.999999987               0.000651422              -0.000419761               0.999999987               0.000629737              -0.000397982               0.999999987               0.000603982              -0.000370010               0.999999987               0.000574807              -0.000336091               0.999999987               0.000543095              -0.000296863               0.999999987               0.000509849              -0.000253451               0.999999987               0.000476134              -0.000207586               0.999999987               0.000744184              -0.000719376               0.999999987               0.000675970              -0.000592205               0.999999987               0.000642295              -0.000551475               0.999999987               0.000625961              -0.000542679               0.999999987               0.000616988              -0.000545599               0.999999987               0.000609734              -0.000551276               0.999999987               0.000601104              -0.000555204               0.999999987               0.000589122              -0.000555105               0.999999987               0.000572627              -0.000549507               0.999999987               0.000551105              -0.000537695               0.999999987               0.000524345              -0.000519466               0.999999987               0.000492606              -0.000494865               0.999999987               0.000456687              -0.000464217               0.999999987               0.000417425              -0.000429088               0.999999987               0.000375996              -0.000390303               0.999999987               0.000333373              -0.000349341               0.999999987               0.000290305              -0.000307457               0.999999987               0.000686260              -0.000821768               0.999999987               0.000592816              -0.000689443               0.999999987               0.000554447              -0.000650605               0.999999987               0.000538276              -0.000644393               0.999999987               0.000529018              -0.000649499               0.999999987               0.000519806              -0.000656624               0.999999987               0.000507267              -0.000661077               0.999999987               0.000489459              -0.000660704               0.999999987               0.000465516              -0.000654053               0.999999987               0.000435100              -0.000640349               0.999999987               0.000398228              -0.000619866               0.999999987               0.000355737              -0.000593150               0.999999987               0.000308621              -0.000561571               0.999999987               0.000258304              -0.000526751               0.999999987               0.000206099              -0.000489971               0.999999987               0.000152883              -0.000452384               0.999999987               0.000099317              -0.000414538               0.999999987               0.000623586              -0.000915460               0.999999987               0.000508382              -0.000786014               0.999999987               0.000470746              -0.000749349               0.999999987               0.000456599              -0.000745227               0.999999987               0.000447704              -0.000752090               0.999999987               0.000436590              -0.000760243               0.999999987               0.000419665              -0.000765085               0.999999987               0.000395391              -0.000764377               0.999999987               0.000362980              -0.000756597               0.999999987               0.000322248              -0.000741169               0.999999987               0.000273863              -0.000718899               0.999999987               0.000218880              -0.000691179               0.999999987               0.000159258              -0.000659832               0.999999987               0.000096730              -0.000626717               0.999999987               0.000032706              -0.000593392               0.999999987              -0.000031748              -0.000560474               0.999999987              -0.000096001              -0.000527933               0.999999987               0.000558791              -0.001004207               0.999999987               0.000437463              -0.000894641               0.999999987               0.000397530              -0.000854942               0.999999987               0.000383324              -0.000846774               0.999999987               0.000375701              -0.000851526               0.999999987               0.000366939              -0.000860352               0.999999987               0.000353551              -0.000868475               0.999999987               0.000333844              -0.000873477               0.999999987               0.000306717              -0.000873839               0.999999987               0.000271716              -0.000868395               0.999999987               0.000229027              -0.000857010               0.999999987               0.000179011              -0.000840157               0.999999987               0.000122675              -0.000819201               0.999999987               0.000061521              -0.000795642               0.999999987              -0.000002735              -0.000771138               0.999999987              -0.000068230              -0.000746906               0.999999987              -0.000133571              -0.000723616               0.999999987               0.000488370              -0.001085158               0.999999987               0.000369025              -0.000999837               0.999999987               0.000327047              -0.000963300               0.999999987               0.000311792              -0.000953340               0.999999987               0.000304709              -0.000956849               0.999999987               0.000297672              -0.000966188               0.999999987               0.000287251              -0.000977139               0.999999987               0.000271432              -0.000987143               0.999999987               0.000249124              -0.000994612               0.999999987               0.000219682              -0.000998126               0.999999987               0.000182872              -0.000997101               0.999999987               0.000138644              -0.000991202               0.999999987               0.000087263              -0.000980840               0.999999987               0.000029364              -0.000967096               0.999999987              -0.000033691              -0.000951417               0.999999987              -0.000100075              -0.000935184               0.999999987              -0.000167635              -0.000919718               0.999999987               0.000413616              -0.001156313               0.999999987               0.000303011              -0.001098419               0.999999987               0.000260831              -0.001069582               0.999999987               0.000244433              -0.001060874               0.999999987               0.000237127              -0.001064598               0.999999987               0.000231213              -0.001075119               0.999999987               0.000222910              -0.001088747               0.999999987               0.000210402              -0.001103118               0.999999987               0.000192390              -0.001116795               0.999999987               0.000168230              -0.001128392               0.999999987               0.000137400              -0.001136780               0.999999987               0.000099586              -0.001141430               0.999999987               0.000054338              -0.001142114               0.999999987               0.000001603              -0.001139077               0.999999987              -0.000058105              -0.001133307               0.999999987              -0.000123658              -0.001125918               0.999999987              -0.000193580              -0.001118370               0.999999987               0.000335188              -0.001216335               0.999999987               0.000239415              -0.001186247               0.999999987               0.000199799              -0.001168282               0.999999987               0.000183071              -0.001163813               0.999999987               0.000175487              -0.001169451               0.999999987               0.000170101              -0.001181957               0.999999987               0.000163389              -0.001198497               0.999999987               0.000153492              -0.001217081               0.999999987               0.000139346              -0.001236234               0.999999987               0.000120100              -0.001254831               0.999999987               0.000095267              -0.001271816               0.999999987               0.000064332              -0.001286317               0.999999987               0.000026371              -0.001297737               0.999999987              -0.000019371              -0.001305878               0.999999987              -0.000073078              -0.001311011               0.999999987              -0.000134631              -0.001313752               0.999999987              -0.000203620              -0.001315178               0.999999987               0.000253866              -0.001264068               0.999999987               0.000177848              -0.001259301               0.999999987               0.000144090              -0.001253491               0.999999987               0.000128774              -0.001254939               0.999999987               0.000121377              -0.001264143               0.999999987               0.000116407              -0.001279483               0.999999987               0.000111008              -0.001299266               0.999999987               0.000103436              -0.001321821               0.999999987               0.000092811              -0.001345919               0.999999987               0.000078328              -0.001370653               0.999999987               0.000059514              -0.001395033               0.999999987               0.000035630              -0.001418201               0.999999987               0.000006000              -0.001439354               0.999999987              -0.000030562              -0.001458137               0.999999987              -0.000074953              -0.001474128               0.999999987              -0.000127932              -0.001487426               0.999999987              -0.000190671              -0.001498613               0.999999987               0.000170387              -0.001298796               0.999999987               0.000117823              -0.001313992               0.999999987               0.000093159              -0.001319258               0.999999987               0.000081263              -0.001326980               0.999999987               0.000075152              -0.001340139               0.999999987               0.000071148              -0.001358638               0.999999987               0.000067173              -0.001381544               0.999999987               0.000061889              -0.001407648               0.999999987               0.000054741              -0.001435926               0.999999987               0.000045143              -0.001465485               0.999999987               0.000032514              -0.001495594               0.999999987               0.000016214              -0.001525574               0.999999987              -0.000004202              -0.001554607               0.999999987              -0.000029615              -0.001582064               0.999999987              -0.000061374              -0.001607557               0.999999987              -0.000100869              -0.001630719               0.999999987              -0.000149751              -0.001651211               0.999999987               0.000085523              -0.001319814               0.999999987               0.000058755              -0.001347754               0.999999987               0.000045698              -0.001360673               0.999999987               0.000039142              -0.001373250               0.999999987               0.000035648              -0.001389603               0.999999987               0.000033296              -0.001410473               0.999999987               0.000031147              -0.001435624               0.999999987               0.000028417              -0.001464110               0.999999987               0.000024852              -0.001495193               0.999999987               0.000020059              -0.001528108               0.999999987               0.000013706              -0.001562181               0.999999987               0.000005402              -0.001596794               0.999999987              -0.000004952              -0.001631300               0.999999987              -0.000017863              -0.001664983               0.999999987              -0.000034663              -0.001697236               0.999999987              -0.000056013              -0.001727396               0.999999987              -0.000083137              -0.001754697               0.999999987              -0.000000000              -0.001326735               0.999999987               0.000000000              -0.001359135               0.999999987              -0.000000000              -0.001374864               0.999999987              -0.000000000              -0.001389155               0.999999987               0.000000000              -0.001406714               0.999999987              -0.000000000              -0.001428438               0.999999987              -0.000000000              -0.001454405               0.999999987              -0.000000000              -0.001483826               0.999999987              -0.000000000              -0.001515800               0.999999987              -0.000000000              -0.001549768               0.999999987               0.000000000              -0.001585327               0.999999987               0.000000000              -0.001621713               0.999999987               0.000000000              -0.001658267               0.999999987               0.000000000              -0.001694422               0.999999987              -0.000000000              -0.001729286               0.999999987              -0.000000000              -0.001762132               0.999999987              -0.000000000              -0.001792074               0.999999987               0.000920165               0.000000000               0.999999987               0.000968142               0.000000000               0.999999987               0.000987755               0.000000000               0.999999987               0.000997964               0.000000000               0.999999987               0.001005683              -0.000000000               0.999999987               0.001013495               0.000000000               0.999999987               0.001022301               0.000000000               0.999999987               0.001032255               0.000000000               0.999999987               0.001042949               0.000000000               0.999999987               0.001054001              -0.000000000               0.999999987               0.001065100               0.000000000               0.999999987               0.001076059              -0.000000000               0.999999987               0.001086401               0.000000000               0.999999987               0.001095686               0.000000000               0.999999987               0.001103269               0.000000000               0.999999987               0.001108358               0.000000000               0.999999987               0.001110150              -0.000000000               0.999999987               0.000914978               0.000126576               0.999999987               0.000958717               0.000099631               0.999999987               0.000975580               0.000087017               0.999999987               0.000984072               0.000081425               0.999999987               0.000990618               0.000079279               0.999999987               0.000997524               0.000078692               0.999999987               0.001005465               0.000078790               0.999999987               0.001014379               0.000078689               0.999999987               0.001023962               0.000077639               0.999999987               0.001033789               0.000075540               0.999999987               0.001043472               0.000072167               0.999999987               0.001052678               0.000067304               0.999999987               0.001061013               0.000060465               0.999999987               0.001067967               0.000050830               0.999999987               0.001072948               0.000037734               0.999999987               0.001075429               0.000020507               0.999999987               0.001074687              -0.000001949               0.999999987               0.000899474               0.000252078               0.999999987               0.000930842               0.000198945               0.999999987               0.000940027               0.000175140               0.999999987               0.000943804               0.000165202               0.999999987               0.000947243               0.000161749               0.999999987               0.000951718               0.000161224               0.999999987               0.000957355               0.000161582               0.999999987               0.000963768               0.000161354               0.999999987               0.000970374               0.000159502               0.999999987               0.000976552               0.000155411               0.999999987               0.000981987               0.000148857               0.999999987               0.000986252               0.000139173               0.999999987               0.000988835               0.000125822               0.999999987               0.000989387               0.000107488               0.999999987               0.000987488               0.000083133               0.999999987               0.000982907               0.000051786               0.999999987               0.000975467               0.000012266               0.999999987               0.000874010               0.000375296               0.999999987               0.000885898               0.000297818               0.999999987               0.000884076               0.000265290               0.999999987               0.000881443               0.000252944               0.999999987               0.000880740               0.000249579               0.999999987               0.000882080               0.000249921               0.999999987               0.000884522               0.000251031               0.999999987               0.000887208               0.000250859               0.999999987               0.000889283               0.000248135               0.999999987               0.000890098               0.000242136               0.999999987               0.000889189               0.000232485               0.999999987               0.000886054               0.000218439               0.999999987               0.000880242               0.000199132               0.999999987               0.000871569               0.000173601               0.999999987               0.000860072               0.000140962               0.999999987               0.000845906               0.000100639               0.999999987               0.000829566               0.000052192               0.999999987               0.000839167               0.000494989               0.999999987               0.000826243               0.000396265               0.999999987               0.000812214               0.000358086               0.999999987               0.000803297               0.000345393               0.999999987               0.000798696               0.000343494               0.999999987               0.000796657               0.000345490               0.999999987               0.000795391               0.000347610               0.999999987               0.000793580               0.000347586               0.999999987               0.000790128               0.000344011               0.999999987               0.000784330               0.000336102               0.999999987               0.000775543               0.000323376               0.999999987               0.000763381               0.000305173               0.999999987               0.000747708               0.000280926               0.999999987               0.000728719               0.000250235               0.999999987               0.000706860               0.000212704               0.999999987               0.000682833               0.000168726               0.999999987               0.000657641               0.000119355               0.999999987               0.000795562               0.000610059               0.999999987               0.000755041               0.000494387               0.999999987               0.000729842               0.000453619               0.999999987               0.000716016               0.000442399               0.999999987               0.000708503               0.000442828               0.999999987               0.000703544               0.000446719               0.999999987               0.000698593               0.000449854               0.999999987               0.000691872               0.000449895               0.999999987               0.000682245               0.000445336               0.999999987               0.000668902               0.000435394               0.999999987               0.000651422               0.000419761               0.999999987               0.000629737               0.000397982               0.999999987               0.000603982               0.000370010               0.999999987               0.000574807               0.000336091               0.999999987               0.000543095               0.000296863               0.999999987               0.000509849               0.000253451               0.999999987               0.000476134               0.000207586               0.999999987               0.000744184               0.000719376               0.999999987               0.000675970               0.000592205               0.999999987               0.000642295               0.000551475               0.999999987               0.000625961               0.000542679               0.999999987               0.000616988               0.000545599               0.999999987               0.000609734               0.000551276               0.999999987               0.000601104               0.000555204               0.999999987               0.000589122               0.000555105               0.999999987               0.000572627               0.000549507               0.999999987               0.000551105               0.000537695               0.999999987               0.000524345               0.000519466               0.999999987               0.000492606               0.000494865               0.999999987               0.000456687               0.000464217               0.999999987               0.000417425               0.000429088               0.999999987               0.000375996               0.000390303               0.999999987               0.000333373               0.000349341               0.999999987               0.000290305               0.000307457               0.999999987               0.000686260               0.000821768               0.999999987               0.000592816               0.000689443               0.999999987               0.000554447               0.000650605               0.999999987               0.000538276               0.000644393               0.999999987               0.000529018               0.000649499               0.999999987               0.000519806               0.000656624               0.999999987               0.000507267               0.000661077               0.999999987               0.000489459               0.000660704               0.999999987               0.000465516               0.000654053               0.999999987               0.000435100               0.000640349               0.999999987               0.000398228               0.000619866               0.999999987               0.000355737               0.000593150               0.999999987               0.000308621               0.000561571               0.999999987               0.000258304               0.000526751               0.999999987               0.000206099               0.000489971               0.999999987               0.000152883               0.000452384               0.999999987               0.000099317               0.000414538               0.999999987               0.000623586               0.000915460               0.999999987               0.000508382               0.000786014               0.999999987               0.000470746               0.000749349               0.999999987               0.000456599               0.000745227               0.999999987               0.000447704               0.000752090               0.999999987               0.000436590               0.000760243               0.999999987               0.000419665               0.000765085               0.999999987               0.000395391               0.000764377               0.999999987               0.000362980               0.000756597               0.999999987               0.000322248               0.000741169               0.999999987               0.000273863               0.000718899               0.999999987               0.000218880               0.000691179               0.999999987               0.000159258               0.000659832               0.999999987               0.000096730               0.000626717               0.999999987               0.000032706               0.000593392               0.999999987              -0.000031748               0.000560474               0.999999987              -0.000096001               0.000527933               0.999999987               0.000558791               0.001004207               0.999999987               0.000437463               0.000894641               0.999999987               0.000397530               0.000854942               0.999999987               0.000383324               0.000846774               0.999999987               0.000375701               0.000851526               0.999999987               0.000366939               0.000860352               0.999999987               0.000353551               0.000868475               0.999999987               0.000333844               0.000873477               0.999999987               0.000306717               0.000873839               0.999999987               0.000271716               0.000868395               0.999999987               0.000229027               0.000857010               0.999999987               0.000179011               0.000840157               0.999999987               0.000122675               0.000819201               0.999999987               0.000061521               0.000795642               0.999999987              -0.000002735               0.000771138               0.999999987              -0.000068230               0.000746906               0.999999987              -0.000133571               0.000723616               0.999999987               0.000488370               0.001085158               0.999999987               0.000369025               0.000999837               0.999999987               0.000327047               0.000963300               0.999999987               0.000311792               0.000953340               0.999999987               0.000304709               0.000956849               0.999999987               0.000297672               0.000966188               0.999999987               0.000287251               0.000977139               0.999999987               0.000271432               0.000987143               0.999999987               0.000249124               0.000994612               0.999999987               0.000219682               0.000998126               0.999999987               0.000182872               0.000997101               0.999999987               0.000138644               0.000991202               0.999999987               0.000087263               0.000980840               0.999999987               0.000029364               0.000967096               0.999999987              -0.000033691               0.000951417               0.999999987              -0.000100075               0.000935184               0.999999987              -0.000167635               0.000919718               0.999999987               0.000413616               0.001156313               0.999999987               0.000303011               0.001098419               0.999999987               0.000260831               0.001069582               0.999999987               0.000244433               0.001060874               0.999999987               0.000237127               0.001064598               0.999999987               0.000231213               0.001075119               0.999999987               0.000222910               0.001088747               0.999999987               0.000210402               0.001103118               0.999999987               0.000192390               0.001116795               0.999999987               0.000168230               0.001128392               0.999999987               0.000137400               0.001136780               0.999999987               0.000099586               0.001141430               0.999999987               0.000054338               0.001142114               0.999999987               0.000001603               0.001139077               0.999999987              -0.000058105               0.001133307               0.999999987              -0.000123658               0.001125918               0.999999987              -0.000193580               0.001118370               0.999999987               0.000335188               0.001216335               0.999999987               0.000239415               0.001186247               0.999999987               0.000199799               0.001168282               0.999999987               0.000183071               0.001163813               0.999999987               0.000175487               0.001169451               0.999999987               0.000170101               0.001181957               0.999999987               0.000163389               0.001198497               0.999999987               0.000153492               0.001217081               0.999999987               0.000139346               0.001236234               0.999999987               0.000120100               0.001254831               0.999999987               0.000095267               0.001271816               0.999999987               0.000064332               0.001286317               0.999999987               0.000026371               0.001297737               0.999999987              -0.000019371               0.001305878               0.999999987              -0.000073078               0.001311011               0.999999987              -0.000134631               0.001313752               0.999999987              -0.000203620               0.001315178               0.999999987               0.000253866               0.001264068               0.999999987               0.000177848               0.001259301               0.999999987               0.000144090               0.001253491               0.999999987               0.000128774               0.001254939               0.999999987               0.000121377               0.001264143               0.999999987               0.000116407               0.001279483               0.999999987               0.000111008               0.001299266               0.999999987               0.000103436               0.001321821               0.999999987               0.000092811               0.001345919               0.999999987               0.000078328               0.001370653               0.999999987               0.000059514               0.001395033               0.999999987               0.000035630               0.001418201               0.999999987               0.000006000               0.001439354               0.999999987              -0.000030562               0.001458137               0.999999987              -0.000074953               0.001474128               0.999999987              -0.000127932               0.001487426               0.999999987              -0.000190671               0.001498613               0.999999987               0.000170387               0.001298796               0.999999987               0.000117823               0.001313992               0.999999987               0.000093159               0.001319258               0.999999987               0.000081263               0.001326980               0.999999987               0.000075152               0.001340139               0.999999987               0.000071148               0.001358638               0.999999987               0.000067173               0.001381544               0.999999987               0.000061889               0.001407648               0.999999987               0.000054741               0.001435926               0.999999987               0.000045143               0.001465485               0.999999987               0.000032514               0.001495594               0.999999987               0.000016214               0.001525574               0.999999987              -0.000004202               0.001554607               0.999999987              -0.000029615               0.001582064               0.999999987              -0.000061374               0.001607557               0.999999987              -0.000100869               0.001630719               0.999999987              -0.000149751               0.001651211               0.999999987               0.000085523               0.001319814               0.999999987               0.000058755               0.001347754               0.999999987               0.000045698               0.001360673               0.999999987               0.000039142               0.001373250               0.999999987               0.000035648               0.001389603               0.999999987               0.000033296               0.001410473               0.999999987               0.000031147               0.001435624               0.999999987               0.000028417               0.001464110               0.999999987               0.000024852               0.001495193               0.999999987               0.000020059               0.001528108               0.999999987               0.000013706               0.001562181               0.999999987               0.000005402               0.001596794               0.999999987              -0.000004952               0.001631300               0.999999987              -0.000017863               0.001664983               0.999999987              -0.000034663               0.001697236               0.999999987              -0.000056013               0.001727396               0.999999987              -0.000083137               0.001754697               0.999999987               0.000000000               0.001326735               0.999999987              -0.000000000               0.001359135               0.999999987              -0.000000000               0.001374864               0.999999987               0.000000000               0.001389155               0.999999987               0.000000000               0.001406714               0.999999987               0.000000000               0.001428438               0.999999987              -0.000000000               0.001454405               0.999999987              -0.000000000               0.001483826               0.999999987              -0.000000000               0.001515800               0.999999987              -0.000000000               0.001549768               0.999999987               0.000000000               0.001585327               0.999999987              -0.000000000               0.001621713               0.999999987              -0.000000000               0.001658267               0.999999987              -0.000000000               0.001694422               0.999999987               0.000000000               0.001729286               0.999999987              -0.000000000               0.001762132               0.999999987               0.000000000               0.001792074               0.999999987 </DataArray>
<DataArray type="Float64"                                    Name="stress"                                                      NumberOfComponents="10" format="ascii">
              0.002188187               0.022931223               0.000000000              -0.002045828               0.008325607               0.006279779               0.000000000               0.000000000               0.000000000               0.000000000               0.002085982               0.017507165               0.000000000              -0.001406149               0.006304379               0.004898231               0.000000000               0.000000000               0.000000000               0.000000000               0.002676977               0.013102050               0.000000000              -0.000633888               0.004578602               0.003944714               0.000000000               0.000000000               0.000000000               0.000000000               0.002486286               0.010615936               0.000000000              -0.000394634               0.003670155               0.003275521               0.000000000               0.000000000               0.000000000               0.000000000               0.002079155               0.009034810               0.000000000              -0.000349667               0.003128129               0.002778462               0.000000000               0.000000000               0.000000000               0.000000000               0.001639214               0.007916507               0.000000000              -0.000374857               0.002763762               0.002388904               0.000000000               0.000000000               0.000000000               0.000000000               0.001233959               0.007056854               0.000000000              -0.000419371               0.002492051               0.002072680               0.000000000               0.000000000               0.000000000               0.000000000               0.000890686               0.006333024              -0.000000000              -0.000457620               0.002263527               0.001805907               0.000000000               0.000000000               0.000000000               0.000000000               0.000611925               0.005670907              -0.000000000              -0.000479390               0.002050080               0.001570690               0.000000000               0.000000000               0.000000000               0.000000000               0.000386289               0.005042760              -0.000000000              -0.000485485               0.001842732               0.001357246               0.000000000               0.000000000               0.000000000               0.000000000               0.000197281               0.004427420               0.000000000              -0.000479446               0.001635607               0.001156161               0.000000000               0.000000000               0.000000000               0.000000000               0.000047025               0.003810581               0.000000000              -0.000458687               0.001423076               0.000964390               0.000000000               0.000000000               0.000000000               0.000000000              -0.000058621               0.003170406              -0.000000000              -0.000418283               0.001196219               0.000777936               0.000000000               0.000000000               0.000000000               0.000000000              -0.000119161               0.002476814              -0.000000000              -0.000354286               0.000943692               0.000589405               0.000000000               0.000000000               0.000000000               0.000000000              -0.000126764               0.001710985              -0.000000000              -0.000261409               0.000657459               0.000396050               0.000000000               0.000000000               0.000000000               0.000000000              -0.000078291               0.000854760              -0.000000000              -0.000136204               0.000330318               0.000194114               0.000000000               0.000000000               0.000000000               0.000000000              -0.000109658               0.000203420              -0.000000000              -0.000066550               0.000089989               0.000023439               0.000000000               0.000000000               0.000000000               0.000000000               0.002241800               0.022432038              -0.001490629              -0.001963325               0.008131713               0.006168388               0.000000000               0.000000000               0.000000000               0.000000000               0.002011353               0.017191889              -0.000639451              -0.001394725               0.006195481               0.004800755               0.000000000               0.000000000               0.000000000               0.000000000               0.002464057               0.012985950               0.000196023              -0.000699221               0.004561680               0.003862460               0.000000000               0.000000000               0.000000000               0.000000000               0.002220804               0.010605230               0.000529775              -0.000492851               0.003699325               0.003206474               0.000000000               0.000000000               0.000000000               0.000000000               0.001806163               0.009077237               0.000650238              -0.000457343               0.003178163               0.002720820               0.000000000               0.000000000               0.000000000               0.000000000               0.001381619               0.007986321               0.000681567              -0.000480182               0.002822141               0.002341959               0.000000000               0.000000000               0.000000000               0.000000000               0.001002809               0.007132955               0.000672718              -0.000515565               0.002549483               0.002033918               0.000000000               0.000000000               0.000000000               0.000000000               0.000687221               0.006407743               0.000640332              -0.000543259               0.002316979               0.001773720               0.000000000               0.000000000               0.000000000               0.000000000               0.000435265               0.005749374               0.000601711              -0.000555446               0.002101587               0.001546141               0.000000000               0.000000000               0.000000000               0.000000000               0.000235697               0.005124384               0.000567704              -0.000552161               0.001892164               0.001340004               0.000000000               0.000000000               0.000000000               0.000000000               0.000076211               0.004514376               0.000535151              -0.000535717               0.001683349               0.001147632               0.000000000               0.000000000               0.000000000               0.000000000              -0.000044620               0.003902409               0.000499424              -0.000504533               0.001468968               0.000964435               0.000000000               0.000000000               0.000000000               0.000000000              -0.000122456               0.003274401               0.000448449              -0.000455220               0.001243196               0.000787976               0.000000000               0.000000000               0.000000000               0.000000000              -0.000155122               0.002608081               0.000376579              -0.000384180               0.000997412               0.000613232               0.000000000               0.000000000               0.000000000               0.000000000              -0.000143964               0.001886795               0.000284377              -0.000289835               0.000725537               0.000435702               0.000000000               0.000000000               0.000000000               0.000000000              -0.000086211               0.001099787               0.000160498              -0.000169802               0.000423193               0.000253390               0.000000000               0.000000000               0.000000000               0.000000000              -0.000106337               0.000515450               0.000100412              -0.000104307               0.000206584               0.000102276               0.000000000               0.000000000               0.000000000               0.000000000               0.002357158               0.020996828              -0.002747754              -0.001740666               0.007579094               0.005838428               0.000000000               0.000000000               0.000000000               0.000000000               0.001774404               0.016298490              -0.001167953              -0.001371907               0.005890078               0.004518171               0.000000000               0.000000000               0.000000000               0.000000000               0.001850297               0.012655371               0.000363906              -0.000888058               0.004514434               0.003626376               0.000000000               0.000000000               0.000000000               0.000000000               0.001474572               0.010558097               0.000950539              -0.000766796               0.003774929               0.003008133               0.000000000               0.000000000               0.000000000               0.000000000               0.001049104               0.009172467               0.001151302              -0.000753143               0.003308506               0.002555363               0.000000000               0.000000000               0.000000000               0.000000000               0.000674787               0.008151380               0.001192520              -0.000765876               0.002972391               0.002206515               0.000000000               0.000000000               0.000000000               0.000000000               0.000370173               0.007322955               0.001164746              -0.000776553               0.002699811               0.001923258               0.000000000               0.000000000               0.000000000               0.000000000               0.000136754               0.006602252               0.001104544              -0.000773997               0.002458727               0.001684730               0.000000000               0.000000000               0.000000000               0.000000000              -0.000028221               0.005949134               0.001035409              -0.000754223               0.002234432               0.001480209               0.000000000               0.000000000               0.000000000               0.000000000              -0.000145771               0.005331831               0.000972426              -0.000721142               0.002017640               0.001296498               0.000000000               0.000000000               0.000000000               0.000000000              -0.000227603               0.004733884               0.000910966              -0.000677085               0.001803640               0.001126555               0.000000000               0.000000000               0.000000000               0.000000000              -0.000268182               0.004143422               0.000842585              -0.000618495               0.001587291               0.000968797               0.000000000               0.000000000               0.000000000               0.000000000              -0.000272677               0.003550522               0.000752068              -0.000546068               0.001365518               0.000819450               0.000000000               0.000000000               0.000000000               0.000000000              -0.000243827               0.002952581               0.000626120              -0.000460507               0.001137686               0.000677179               0.000000000               0.000000000               0.000000000               0.000000000              -0.000184685               0.002348745               0.000464528              -0.000362849               0.000903857               0.000541008               0.000000000               0.000000000               0.000000000               0.000000000              -0.000101075               0.001743500               0.000257462              -0.000255840               0.000666441               0.000410601               0.000000000               0.000000000               0.000000000               0.000000000              -0.000096057               0.001327323               0.000156179              -0.000201937               0.000509749               0.000307812               0.000000000               0.000000000               0.000000000               0.000000000               0.002422186               0.018810227              -0.003594292              -0.001442957               0.006750998               0.005308041               0.000000000               0.000000000               0.000000000               0.000000000               0.001349329               0.014964275              -0.001517553              -0.001364533               0.005442886               0.004078353               0.000000000               0.000000000               0.000000000               0.000000000               0.000908466               0.012159238               0.000460749              -0.001179227               0.004446114               0.003266887               0.000000000               0.000000000               0.000000000               0.000000000               0.000394460               0.010455299               0.001169434              -0.001158987               0.003871394               0.002712407               0.000000000               0.000000000               0.000000000               0.000000000              -0.000010266               0.009261586               0.001390930              -0.001161546               0.003474346               0.002312801               0.000000000               0.000000000               0.000000000               0.000000000              -0.000292318               0.008330656               0.001422115              -0.001150949               0.003160507               0.002009558               0.000000000               0.000000000               0.000000000               0.000000000              -0.000472808               0.007541339               0.001375085              -0.001119968               0.002887077               0.001767109               0.000000000               0.000000000               0.000000000               0.000000000              -0.000576491               0.006835910               0.001295257              -0.001070671               0.002635504               0.001564833               0.000000000               0.000000000               0.000000000               0.000000000              -0.000618457               0.006188466               0.001207890              -0.001005477               0.002397960               0.001392483               0.000000000               0.000000000               0.000000000               0.000000000              -0.000618374               0.005581206               0.001126111              -0.000929539               0.002170229               0.001240690               0.000000000               0.000000000               0.000000000               0.000000000              -0.000585721               0.005000729               0.001046324              -0.000844735               0.001948471               0.001103736               0.000000000               0.000000000               0.000000000               0.000000000              -0.000518459               0.004443789               0.000954726              -0.000749894               0.001731213               0.000981319               0.000000000               0.000000000               0.000000000               0.000000000              -0.000426943               0.003909344               0.000838412              -0.000648770               0.001519358               0.000870588               0.000000000               0.000000000               0.000000000               0.000000000              -0.000323063               0.003410017               0.000685448              -0.000547400               0.001319127               0.000771728               0.000000000               0.000000000               0.000000000               0.000000000              -0.000212335               0.002959512               0.000494778              -0.000449564               0.001136349               0.000686785               0.000000000               0.000000000               0.000000000               0.000000000              -0.000104341               0.002579713               0.000265766              -0.000361591               0.000980426               0.000618835               0.000000000               0.000000000               0.000000000               0.000000000              -0.000070861               0.002364553               0.000150254              -0.000322141               0.000895557               0.000573416               0.000000000               0.000000000               0.000000000               0.000000000               0.002292530               0.016146045              -0.003944554              -0.001158557               0.005768146               0.004609589               0.000000000               0.000000000               0.000000000               0.000000000               0.000721677               0.013370509              -0.001675537              -0.001400682               0.004923686               0.003523003               0.000000000               0.000000000               0.000000000               0.000000000              -0.000245726               0.011557109               0.000445010              -0.001536782               0.004364592               0.002827810               0.000000000               0.000000000               0.000000000               0.000000000              -0.000831163               0.010284887               0.001145151              -0.001597293               0.003960692               0.002363399               0.000000000               0.000000000               0.000000000               0.000000000              -0.001139859               0.009289561               0.001340965              -0.001588639               0.003626036               0.002037397               0.000000000               0.000000000               0.000000000               0.000000000              -0.001275536               0.008445487               0.001352249              -0.001534008               0.003326470               0.001792462               0.000000000               0.000000000               0.000000000               0.000000000              -0.001299159               0.007692735               0.001292551              -0.001448773               0.003047143               0.001598370               0.000000000               0.000000000               0.000000000               0.000000000              -0.001249047               0.007007689               0.001205851              -0.001344351               0.002783990               0.001439639               0.000000000               0.000000000               0.000000000               0.000000000              -0.001148677               0.006375534               0.001113576              -0.001227693               0.002534388               0.001306695               0.000000000               0.000000000               0.000000000               0.000000000              -0.001014242               0.005786586               0.001026915              -0.001103662               0.002296730               0.001193068               0.000000000               0.000000000               0.000000000               0.000000000              -0.000854355               0.005235946               0.000939424              -0.000974874               0.002070256               0.001095382               0.000000000               0.000000000               0.000000000               0.000000000              -0.000678333               0.004725460               0.000838075              -0.000845056               0.001856823               0.001011767               0.000000000               0.000000000               0.000000000               0.000000000              -0.000500532               0.004266737               0.000715374              -0.000721040               0.001662578               0.000941538               0.000000000               0.000000000               0.000000000               0.000000000              -0.000335846               0.003877182               0.000562556              -0.000610589               0.001495910               0.000885322               0.000000000               0.000000000               0.000000000               0.000000000              -0.000192389               0.003578858               0.000383290              -0.000519502               0.001366108               0.000846606               0.000000000               0.000000000               0.000000000               0.000000000              -0.000083432               0.003391970               0.000193510              -0.000455282               0.001282406               0.000827124               0.000000000               0.000000000               0.000000000               0.000000000              -0.000037840               0.003330092               0.000097679              -0.000430450               0.001253503               0.000823053               0.000000000               0.000000000               0.000000000               0.000000000               0.001841737               0.013289389              -0.003821020              -0.000970523               0.004753259               0.003782736               0.000000000               0.000000000               0.000000000               0.000000000              -0.000096277               0.011693476              -0.001679186              -0.001497786               0.004397048               0.002899262               0.000000000               0.000000000               0.000000000               0.000000000              -0.001466251               0.010897900               0.000293094              -0.001912077               0.004269956               0.002357879               0.000000000               0.000000000               0.000000000               0.000000000              -0.002006210               0.010025781               0.000891478              -0.002005546               0.004010409               0.002004863               0.000000000               0.000000000               0.000000000               0.000000000              -0.002144776               0.009198301               0.001041702              -0.001954074               0.003717428               0.001763354               0.000000000               0.000000000               0.000000000               0.000000000              -0.002091851               0.008427751               0.001038503              -0.001837909               0.003421858               0.001583950               0.000000000               0.000000000               0.000000000               0.000000000              -0.001937190               0.007714339               0.000981809              -0.001690735               0.003134999               0.001444264               0.000000000               0.000000000               0.000000000               0.000000000              -0.001725361               0.007058749               0.000905742              -0.001529350               0.002862676               0.001333326               0.000000000               0.000000000               0.000000000               0.000000000              -0.001482146               0.006455552               0.000824073              -0.001362746               0.002606078               0.001243332               0.000000000               0.000000000               0.000000000               0.000000000              -0.001221100               0.005901703               0.000745408              -0.001195622               0.002365755               0.001170133               0.000000000               0.000000000               0.000000000               0.000000000              -0.000957259               0.005395750               0.000663008              -0.001033438               0.002143045               0.001109606               0.000000000               0.000000000               0.000000000               0.000000000              -0.000701959               0.004945294               0.000567499              -0.000881394               0.001942213               0.001060819               0.000000000               0.000000000               0.000000000               0.000000000              -0.000469237               0.004564769               0.000459655              -0.000746558               0.001770427               0.001023869               0.000000000               0.000000000               0.000000000               0.000000000              -0.000276628               0.004277264               0.000337457              -0.000638392               0.001638538               0.001000146               0.000000000               0.000000000               0.000000000               0.000000000              -0.000132250               0.004094050               0.000208354              -0.000561348               0.001551786               0.000990437               0.000000000               0.000000000               0.000000000               0.000000000              -0.000044576               0.004014621               0.000093754              -0.000518542               0.001511041               0.000992499               0.000000000               0.000000000               0.000000000               0.000000000              -0.000012003               0.004009358               0.000040794              -0.000505670               0.001504996               0.000999326               0.000000000               0.000000000               0.000000000               0.000000000               0.001023586               0.010486866              -0.003320545              -0.000927014               0.003804591               0.002877577               0.000000000               0.000000000               0.000000000               0.000000000              -0.001049254               0.010070162              -0.001586417              -0.001652237               0.003907433               0.002255195               0.000000000               0.000000000               0.000000000               0.000000000              -0.002617183               0.010202791               0.000004055              -0.002256787               0.004153159               0.001896372               0.000000000               0.000000000               0.000000000               0.000000000              -0.002986461               0.009657189               0.000457692              -0.002327066               0.003994719               0.001667654               0.000000000               0.000000000               0.000000000               0.000000000              -0.002895832               0.008966102               0.000575648              -0.002206694               0.003724236               0.001517541               0.000000000               0.000000000               0.000000000               0.000000000              -0.002634514               0.008266020               0.000581851              -0.002021190               0.003429043               0.001407852               0.000000000               0.000000000               0.000000000               0.000000000              -0.002304210               0.007600169               0.000550590              -0.001814095               0.003138063               0.001323967               0.000000000               0.000000000               0.000000000               0.000000000              -0.001941580               0.006988124               0.000503502              -0.001601604               0.002863219               0.001261615               0.000000000               0.000000000               0.000000000               0.000000000              -0.001574034               0.006428345               0.000445927              -0.001393803               0.002607361               0.001213559               0.000000000               0.000000000               0.000000000               0.000000000              -0.001214557               0.005919096               0.000386773              -0.001195343               0.002371460               0.001176117               0.000000000               0.000000000               0.000000000               0.000000000              -0.000879978               0.005465150               0.000325423              -0.001013133               0.002159409               0.001146276               0.000000000               0.000000000               0.000000000               0.000000000              -0.000591214               0.005077491               0.000255952              -0.000856389               0.001977943               0.001121554               0.000000000               0.000000000               0.000000000               0.000000000              -0.000355231               0.004776825               0.000189535              -0.000730313               0.001835697               0.001105384               0.000000000               0.000000000               0.000000000               0.000000000              -0.000180714               0.004572831               0.000125489              -0.000639370               0.001737385               0.001098015               0.000000000               0.000000000               0.000000000               0.000000000              -0.000070317               0.004459270               0.000064925              -0.000583776               0.001681000               0.001097224               0.000000000               0.000000000               0.000000000               0.000000000              -0.000016767               0.004418153               0.000023990              -0.000558555               0.001658888               0.001100333               0.000000000               0.000000000               0.000000000               0.000000000              -0.000006422               0.004413520               0.000010087              -0.000554097               0.001655858               0.001101761               0.000000000               0.000000000               0.000000000               0.000000000              -0.000114334               0.007927509              -0.002557292              -0.001033813               0.002987080               0.001953267               0.000000000               0.000000000               0.000000000               0.000000000              -0.002078263               0.008598834              -0.001449300              -0.001854199               0.003484315               0.001630116               0.000000000               0.000000000               0.000000000               0.000000000              -0.003584036               0.009471806              -0.000402365              -0.002527983               0.003999898               0.001471915               0.000000000               0.000000000               0.000000000               0.000000000              -0.003679738               0.009175446              -0.000076743              -0.002526826               0.003900727               0.001373900               0.000000000               0.000000000               0.000000000               0.000000000              -0.003339140               0.008604844               0.000044344              -0.002327777               0.003644178               0.001316401               0.000000000               0.000000000               0.000000000               0.000000000              -0.002877047               0.007979404               0.000086886              -0.002076313               0.003351879               0.001275566               0.000000000               0.000000000               0.000000000               0.000000000              -0.002389314               0.007375766               0.000098594              -0.001817959               0.003064551               0.001246591               0.000000000               0.000000000               0.000000000               0.000000000              -0.001905030               0.006818335               0.000091600              -0.001566674               0.002794980               0.001228306               0.000000000               0.000000000               0.000000000               0.000000000              -0.001447576               0.006304903               0.000068337              -0.001330951               0.002545264               0.001214313               0.000000000               0.000000000               0.000000000               0.000000000              -0.001028574               0.005841230               0.000044255              -0.001115866               0.002319013               0.001203146               0.000000000               0.000000000               0.000000000               0.000000000              -0.000666195               0.005442483               0.000023226              -0.000930131               0.002124187               0.001194055               0.000000000               0.000000000               0.000000000               0.000000000              -0.000382222               0.005124273               0.000005781              -0.000783865               0.001969362               0.001185497               0.000000000               0.000000000               0.000000000               0.000000000              -0.000180557               0.004899930              -0.000001748              -0.000680199               0.001860026               0.001179828               0.000000000               0.000000000               0.000000000               0.000000000              -0.000062313               0.004759692              -0.000001929              -0.000618327               0.001792657               0.001174330               0.000000000               0.000000000               0.000000000               0.000000000              -0.000006739               0.004698235              -0.000000408              -0.000589805               0.001762665               0.001172859               0.000000000               0.000000000               0.000000000               0.000000000               0.000005934               0.004689547               0.000002284              -0.000583967               0.001757822               0.001173855               0.000000000               0.000000000               0.000000000               0.000000000               0.000000035               0.004697399               0.000003280              -0.000587160               0.001761504               0.001174344               0.000000000               0.000000000               0.000000000               0.000000000              -0.001436901               0.005795027              -0.001652751              -0.001263214               0.002352727               0.001089513               0.000000000               0.000000000               0.000000000               0.000000000              -0.003080990               0.007287365              -0.001306957              -0.002066287               0.003117859               0.001051572               0.000000000               0.000000000               0.000000000               0.000000000              -0.004341680               0.008724725              -0.000885981              -0.002718714               0.003814450               0.001095737               0.000000000               0.000000000               0.000000000               0.000000000              -0.004148603               0.008684499              -0.000637394              -0.002641282               0.003775231               0.001133949               0.000000000               0.000000000               0.000000000               0.000000000              -0.003601266               0.008257311              -0.000484398              -0.002382633               0.003546621               0.001163988               0.000000000               0.000000000               0.000000000               0.000000000              -0.002981779               0.007730061              -0.000387916              -0.002084420               0.003271468               0.001187048               0.000000000               0.000000000               0.000000000               0.000000000              -0.002369450               0.007205393              -0.000324771              -0.001789213               0.002998178               0.001208965               0.000000000               0.000000000               0.000000000               0.000000000              -0.001791687               0.006707848              -0.000285566              -0.001510360               0.002739380               0.001229020               0.000000000               0.000000000               0.000000000               0.000000000              -0.001268192               0.006237709              -0.000261974              -0.001255283               0.002497643               0.001242360               0.000000000               0.000000000               0.000000000               0.000000000              -0.000812044               0.005814186              -0.000240498              -0.001031287               0.002281805               0.001250518               0.000000000               0.000000000               0.000000000               0.000000000              -0.000434129               0.005459059              -0.000210968              -0.000845179               0.002101395               0.001256216               0.000000000               0.000000000               0.000000000               0.000000000              -0.000159720               0.005183314              -0.000170777              -0.000707808               0.001963690               0.001255883               0.000000000               0.000000000               0.000000000               0.000000000               0.000004236               0.004994526              -0.000121765              -0.000622726               0.001872401               0.001249675               0.000000000               0.000000000               0.000000000               0.000000000               0.000074850               0.004890683              -0.000066716              -0.000583265               0.001824633               0.001241368               0.000000000               0.000000000               0.000000000               0.000000000               0.000080717               0.004858027              -0.000018898              -0.000576983               0.001811654               0.001234671               0.000000000               0.000000000               0.000000000               0.000000000               0.000054902               0.004869301               0.000007014              -0.000588073               0.001819108               0.001231035               0.000000000               0.000000000               0.000000000               0.000000000               0.000036010               0.004887520               0.000012560              -0.000597435               0.001828302               0.001230867               0.000000000               0.000000000               0.000000000               0.000000000              -0.002951074               0.003842802              -0.000719672              -0.001586999               0.001809921               0.000222921               0.000000000               0.000000000               0.000000000               0.000000000              -0.003929961               0.005770004              -0.001153633              -0.002194981               0.002654975               0.000459995               0.000000000               0.000000000               0.000000000               0.000000000              -0.004812596               0.007608304              -0.001387925              -0.002755755               0.003454661               0.000698906               0.000000000               0.000000000               0.000000000               0.000000000              -0.004470044               0.007952716              -0.001226501              -0.002670349               0.003540995               0.000870646               0.000000000               0.000000000               0.000000000               0.000000000              -0.003831163               0.007797726              -0.001039582              -0.002411396               0.003403015               0.000991619               0.000000000               0.000000000               0.000000000               0.000000000              -0.003151574               0.007471340              -0.000883773              -0.002115753               0.003195672               0.001079920               0.000000000               0.000000000               0.000000000               0.000000000              -0.002491903               0.007103067              -0.000765164              -0.001822343               0.002975113               0.001152770               0.000000000               0.000000000               0.000000000               0.000000000              -0.001877926               0.006733444              -0.000670483              -0.001545899               0.002759759               0.001213860               0.000000000               0.000000000               0.000000000               0.000000000              -0.001326597               0.006357503              -0.000591422              -0.001292159               0.002549866               0.001257707               0.000000000               0.000000000               0.000000000               0.000000000              -0.000845908               0.005988636              -0.000522027              -0.001065792               0.002351456               0.001285664               0.000000000               0.000000000               0.000000000               0.000000000              -0.000443611               0.005649537              -0.000448899              -0.000872544               0.002174008               0.001301464               0.000000000               0.000000000               0.000000000               0.000000000              -0.000131167               0.005360287              -0.000362902              -0.000719222               0.002026485               0.001307263               0.000000000               0.000000000               0.000000000               0.000000000               0.000076984               0.005141154              -0.000264859              -0.000613774               0.001918292               0.001304518               0.000000000               0.000000000               0.000000000               0.000000000               0.000182416               0.005003573              -0.000162650              -0.000557039               0.001853521               0.001296482               0.000000000               0.000000000               0.000000000               0.000000000               0.000205988               0.004945869              -0.000074553              -0.000540987               0.001828936               0.001287949               0.000000000               0.000000000               0.000000000               0.000000000               0.000179295               0.004951931              -0.000018679              -0.000551754               0.001834545               0.001282791               0.000000000               0.000000000               0.000000000               0.000000000               0.000145480               0.004962000               0.000004268              -0.000565693               0.001842548               0.001276855               0.000000000               0.000000000               0.000000000               0.000000000              -0.004861699               0.002097164               0.000169336              -0.002085279               0.001394138              -0.000691141               0.000000000               0.000000000               0.000000000               0.000000000              -0.004896279               0.004244649              -0.000943371              -0.002366681               0.002203761              -0.000162919               0.000000000               0.000000000               0.000000000               0.000000000              -0.005212378               0.006283755              -0.001790891              -0.002740105               0.003007932               0.000267827               0.000000000               0.000000000               0.000000000               0.000000000              -0.004739236               0.006986927              -0.001785894              -0.002650573               0.003212476               0.000561903               0.000000000               0.000000000               0.000000000               0.000000000              -0.004053643               0.007140093              -0.001602532              -0.002412622               0.003184214               0.000771592               0.000000000               0.000000000               0.000000000               0.000000000              -0.003341937               0.007058370              -0.001405553              -0.002135518               0.003064605               0.000929088               0.000000000               0.000000000               0.000000000               0.000000000              -0.002663488               0.006880791              -0.001232880              -0.001858903               0.002913208               0.001054305               0.000000000               0.000000000               0.000000000               0.000000000              -0.002030691               0.006664195              -0.001083224              -0.001594530               0.002752886               0.001158356               0.000000000               0.000000000               0.000000000               0.000000000              -0.001453683               0.006412608              -0.000954540              -0.001346704               0.002586416               0.001239712               0.000000000               0.000000000               0.000000000               0.000000000              -0.000936522               0.006133762              -0.000842559              -0.001117913               0.002417204               0.001299291               0.000000000               0.000000000               0.000000000               0.000000000              -0.000486008               0.005842686              -0.000734280              -0.000912587               0.002251738               0.001339151               0.000000000               0.000000000               0.000000000               0.000000000              -0.000108530               0.005558715              -0.000618100              -0.000735536               0.002098065               0.001362529               0.000000000               0.000000000               0.000000000               0.000000000               0.000182344               0.005311213              -0.000485082              -0.000595521               0.001968894               0.001373372               0.000000000               0.000000000               0.000000000               0.000000000               0.000375002               0.005127799              -0.000340172              -0.000500348               0.001876032               0.001375684               0.000000000               0.000000000               0.000000000               0.000000000               0.000464947               0.005018596              -0.000200540              -0.000452968               0.001823838               0.001370870               0.000000000               0.000000000               0.000000000               0.000000000               0.000459486               0.004984856              -0.000085129              -0.000450798               0.001811868               0.001361070               0.000000000               0.000000000               0.000000000               0.000000000               0.000406398               0.004969237              -0.000025478              -0.000468754               0.001812647               0.001343893               0.000000000               0.000000000               0.000000000               0.000000000              -0.007038977               0.000694024               0.000925424              -0.002726367               0.001140122              -0.001586244               0.000000000               0.000000000               0.000000000               0.000000000              -0.006012664               0.002814174              -0.000670404              -0.002606516               0.001806884              -0.000799632               0.000000000               0.000000000               0.000000000               0.000000000              -0.005557086               0.004774133              -0.001994750              -0.002680668               0.002484916              -0.000195752               0.000000000               0.000000000               0.000000000               0.000000000              -0.004865100               0.005723577              -0.002185546              -0.002539854               0.002754457               0.000214603               0.000000000               0.000000000               0.000000000               0.000000000              -0.004120943               0.006163287              -0.002057101              -0.002315759               0.002826328               0.000510568               0.000000000               0.000000000               0.000000000               0.000000000              -0.003391675               0.006338257              -0.001854445              -0.002064156               0.002800783               0.000736627               0.000000000               0.000000000               0.000000000               0.000000000              -0.002710162               0.006369112              -0.001652277              -0.001812446               0.002727164               0.000914719               0.000000000               0.000000000               0.000000000               0.000000000              -0.002072328               0.006327515              -0.001468235              -0.001568059               0.002631837               0.001063778               0.000000000               0.000000000               0.000000000               0.000000000              -0.001478059               0.006230667              -0.001304431              -0.001333103               0.002521236               0.001188133               0.000000000               0.000000000               0.000000000               0.000000000              -0.000934368               0.006075426              -0.001160616              -0.001109814               0.002395059               0.001285246               0.000000000               0.000000000               0.000000000               0.000000000              -0.000441090               0.005877181              -0.001027059              -0.000900055               0.002259059               0.001359004               0.000000000               0.000000000               0.000000000               0.000000000              -0.000001210               0.005656832              -0.000888028              -0.000707556               0.002121444               0.001413888               0.000000000               0.000000000               0.000000000               0.000000000               0.000369019               0.005432342              -0.000729314              -0.000540659               0.001990982               0.001450323               0.000000000               0.000000000               0.000000000               0.000000000               0.000656824               0.005239637              -0.000551871              -0.000408645               0.001882743               0.001474098               0.000000000               0.000000000               0.000000000               0.000000000               0.000847439               0.005101071              -0.000365201              -0.000319843               0.001806954               0.001487111               0.000000000               0.000000000               0.000000000               0.000000000               0.000926190               0.005030342              -0.000179534              -0.000281471               0.001770588               0.001489117               0.000000000               0.000000000               0.000000000               0.000000000               0.000911426               0.004999871              -0.000080371              -0.000283199               0.001761006               0.001477808               0.000000000               0.000000000               0.000000000               0.000000000              -0.009321430              -0.000293978               0.001431039              -0.003458786               0.001054928              -0.002403858               0.000000000               0.000000000               0.000000000               0.000000000              -0.007210200               0.001554226              -0.000384306              -0.002898100               0.001484098              -0.001414001               0.000000000               0.000000000               0.000000000               0.000000000              -0.005866331               0.003211723              -0.001968332              -0.002601335               0.001937672              -0.000663663               0.000000000               0.000000000               0.000000000               0.000000000              -0.004871659               0.004269867              -0.002329220              -0.002360601               0.002210140              -0.000150461               0.000000000               0.000000000               0.000000000               0.000000000              -0.004037049               0.004930747              -0.002285918              -0.002130232               0.002353642               0.000223410               0.000000000               0.000000000               0.000000000               0.000000000              -0.003291567               0.005339991              -0.002113107              -0.001901832               0.002413923               0.000512090               0.000000000               0.000000000               0.000000000               0.000000000              -0.002608031               0.005585787              -0.001915935              -0.001676232               0.002420654               0.000744422               0.000000000               0.000000000               0.000000000               0.000000000              -0.001973924               0.005725801              -0.001727095              -0.001455944               0.002393895               0.000937952               0.000000000               0.000000000               0.000000000               0.000000000              -0.001374260               0.005791089              -0.001553358              -0.001239231               0.002343420               0.001104189               0.000000000               0.000000000               0.000000000               0.000000000              -0.000809847               0.005788403              -0.001397051              -0.001027241               0.002271862               0.001244621               0.000000000               0.000000000               0.000000000               0.000000000              -0.000280872               0.005722351              -0.001254289              -0.000820619               0.002180971               0.001360351               0.000000000               0.000000000               0.000000000               0.000000000               0.000209417               0.005603063              -0.001105604              -0.000621850               0.002074952               0.001453102               0.000000000               0.000000000               0.000000000               0.000000000               0.000659926               0.005452068              -0.000934419              -0.000434036               0.001962016               0.001527981               0.000000000               0.000000000               0.000000000               0.000000000               0.001057498               0.005298306              -0.000739369              -0.000265726               0.001854660               0.001588933               0.000000000               0.000000000               0.000000000               0.000000000               0.001381516               0.005161425              -0.000521327              -0.000127110               0.001762828               0.001635718               0.000000000               0.000000000               0.000000000               0.000000000               0.001609050               0.005067341              -0.000277094              -0.000030024               0.001699105               0.001669081               0.000000000               0.000000000               0.000000000               0.000000000               0.001700886               0.005036149              -0.000150112               0.000008313               0.001675928               0.001684241               0.000000000               0.000000000               0.000000000               0.000000000              -0.011481155              -0.000882287               0.001583495              -0.004195144               0.001104278              -0.003090867               0.000000000               0.000000000               0.000000000               0.000000000              -0.008377018               0.000541682              -0.000144508              -0.003209089               0.001250248              -0.001958841               0.000000000               0.000000000               0.000000000               0.000000000              -0.006148923               0.001749704              -0.001709623              -0.002524556               0.001424743              -0.001099813               0.000000000               0.000000000               0.000000000               0.000000000              -0.004805394               0.002794856              -0.002153006              -0.002151376               0.001648732              -0.000502644               0.000000000               0.000000000               0.000000000               0.000000000              -0.003845992               0.003596852              -0.002186283              -0.001891850               0.001829554              -0.000062296               0.000000000               0.000000000               0.000000000               0.000000000              -0.003064884               0.004191102              -0.002069879              -0.001673216               0.001954758               0.000281542               0.000000000               0.000000000               0.000000000               0.000000000              -0.002376846               0.004623172              -0.001908940              -0.001469211               0.002030778               0.000561567               0.000000000               0.000000000               0.000000000               0.000000000              -0.001746243               0.004930281              -0.001744720              -0.001271124               0.002067118               0.000795994               0.000000000               0.000000000               0.000000000               0.000000000              -0.001145016               0.005152442              -0.001590032              -0.001073434               0.002075275               0.001001840               0.000000000               0.000000000               0.000000000               0.000000000              -0.000564079               0.005299882              -0.001446065              -0.000874013               0.002057947               0.001183934               0.000000000               0.000000000               0.000000000               0.000000000              -0.000007176               0.005372127              -0.001308906              -0.000674206               0.002015426               0.001341220               0.000000000               0.000000000               0.000000000               0.000000000               0.000525794               0.005373723              -0.001169057              -0.000474542               0.001949404               0.001474862               0.000000000               0.000000000               0.000000000               0.000000000               0.001049220               0.005327825              -0.001011810              -0.000272521               0.001866764               0.001594243               0.000000000               0.000000000               0.000000000               0.000000000               0.001561710               0.005252032              -0.000824615              -0.000070863               0.001774281               0.001703418               0.000000000               0.000000000               0.000000000               0.000000000               0.002040801               0.005157565              -0.000602722               0.000120603               0.001678970               0.001799573               0.000000000               0.000000000               0.000000000               0.000000000               0.002464808               0.005073910              -0.000329228               0.000290061               0.001594599               0.001884661               0.000000000               0.000000000               0.000000000               0.000000000               0.002717075               0.005061270              -0.000189029               0.000386241               0.001558326               0.001944567               0.000000000               0.000000000               0.000000000               0.000000000              -0.013273260              -0.001174836               0.001344984              -0.004830615               0.001218584              -0.003612031               0.000000000               0.000000000               0.000000000               0.000000000              -0.009371497              -0.000187159               0.000001127              -0.003490914               0.001101244              -0.002389670               0.000000000               0.000000000               0.000000000               0.000000000              -0.006390053               0.000562684              -0.001248966              -0.002466603               0.001009755              -0.001456848               0.000000000               0.000000000               0.000000000               0.000000000              -0.004715460               0.001518156              -0.001653938              -0.001958064               0.001158732              -0.000799333               0.000000000               0.000000000               0.000000000               0.000000000              -0.003614602               0.002381206              -0.001724737              -0.001653124               0.001344767              -0.000308357               0.000000000               0.000000000               0.000000000               0.000000000              -0.002782347               0.003095694              -0.001663207              -0.001430339               0.001508666               0.000078327               0.000000000               0.000000000               0.000000000               0.000000000              -0.002082143               0.003663802              -0.001553605              -0.001238776               0.001634180               0.000395404               0.000000000               0.000000000               0.000000000               0.000000000              -0.001451181               0.004105238              -0.001435528              -0.001057345               0.001720847               0.000663501               0.000000000               0.000000000               0.000000000               0.000000000              -0.000853008               0.004450534              -0.001323674              -0.000876193               0.001775560               0.000899367               0.000000000               0.000000000               0.000000000               0.000000000              -0.000269808               0.004716025              -0.001215288              -0.000690680               0.001802219               0.001111539               0.000000000               0.000000000               0.000000000               0.000000000               0.000305416               0.004912085              -0.001107150              -0.000499479               0.001803838               0.001304359               0.000000000               0.000000000               0.000000000               0.000000000               0.000878381               0.005037291              -0.000999673              -0.000300268               0.001779170               0.001478901               0.000000000               0.000000000               0.000000000               0.000000000               0.001462145               0.005099488              -0.000884723              -0.000089132               0.001729523               0.001640391               0.000000000               0.000000000               0.000000000               0.000000000               0.002069740               0.005119287              -0.000738945               0.000136240               0.001660999               0.001797238               0.000000000               0.000000000               0.000000000               0.000000000               0.002693098               0.005105390              -0.000549990               0.000371734               0.001577868               0.001949603               0.000000000               0.000000000               0.000000000               0.000000000               0.003327419               0.005060500              -0.000304129               0.000615214               0.001481745               0.002096959               0.000000000               0.000000000               0.000000000               0.000000000               0.003770787               0.005077059              -0.000181594               0.000779405               0.001432535               0.002211939               0.000000000               0.000000000               0.000000000               0.000000000              -0.014463997              -0.001285547               0.000773110              -0.005263302               0.001325909              -0.003937393               0.000000000               0.000000000               0.000000000               0.000000000              -0.010054478              -0.000620933               0.000038752              -0.003692810               0.001023952              -0.002668858               0.000000000               0.000000000               0.000000000               0.000000000              -0.006562978              -0.000205530              -0.000654437              -0.002435424               0.000743293              -0.001692131               0.000000000               0.000000000               0.000000000               0.000000000              -0.004641066               0.000655194              -0.000896051              -0.001822297               0.000825825              -0.000996472               0.000000000               0.000000000               0.000000000               0.000000000              -0.003425168               0.001524059              -0.000950555              -0.001474943               0.000999660              -0.000475283               0.000000000               0.000000000               0.000000000               0.000000000              -0.002544018               0.002297475              -0.000926493              -0.001241189               0.001179546              -0.000061643               0.000000000               0.000000000               0.000000000               0.000000000              -0.001828509               0.002947115              -0.000872885              -0.001054078               0.001333721               0.000279643               0.000000000               0.000000000               0.000000000               0.000000000              -0.001196036               0.003473719              -0.000812416              -0.000882726               0.001452137               0.000569410               0.000000000               0.000000000               0.000000000               0.000000000              -0.000604364               0.003902909              -0.000753052              -0.000714499               0.001539123               0.000824624               0.000000000               0.000000000               0.000000000               0.000000000              -0.000026646               0.004253452              -0.000694586              -0.000541673               0.001598361               0.001056688               0.000000000               0.000000000               0.000000000               0.000000000               0.000556051               0.004536768              -0.000637073              -0.000358576               0.001631766               0.001273190               0.000000000               0.000000000               0.000000000               0.000000000               0.001155094               0.004753299              -0.000582346              -0.000161002               0.001638085               0.001477082               0.000000000               0.000000000               0.000000000               0.000000000               0.001778076               0.004903703              -0.000526739               0.000053814               0.001616613               0.001670428               0.000000000               0.000000000               0.000000000               0.000000000               0.002442013               0.004996258              -0.000447462               0.000291220               0.001568329               0.001859549               0.000000000               0.000000000               0.000000000               0.000000000               0.003169770               0.005039618              -0.000336639               0.000558706               0.001493621               0.002052327               0.000000000               0.000000000               0.000000000               0.000000000               0.003979937               0.005032523              -0.000191169               0.000863402               0.001389690               0.002253092               0.000000000               0.000000000               0.000000000               0.000000000               0.004589344               0.005080456              -0.000120102               0.001085936               0.001331490               0.002417426               0.000000000               0.000000000               0.000000000               0.000000000              -0.014880912              -0.001304206              -0.000000000              -0.005417313               0.001371026              -0.004046286               0.000000000               0.000000000               0.000000000               0.000000000              -0.010300414              -0.000760012              -0.000000000              -0.003767651               0.001002540              -0.002765112               0.000000000               0.000000000               0.000000000               0.000000000              -0.006628393              -0.000471373               0.000000000              -0.002426724               0.000651779              -0.001774945               0.000000000               0.000000000               0.000000000               0.000000000              -0.004613894               0.000347962              -0.000000000              -0.001773704               0.000707217              -0.001066487               0.000000000               0.000000000               0.000000000               0.000000000              -0.003352500               0.001213260               0.000000000              -0.001408843               0.000874028              -0.000534815               0.000000000               0.000000000               0.000000000               0.000000000              -0.002447480               0.002004947               0.000000000              -0.001168421               0.001057782              -0.000110639               0.000000000               0.000000000               0.000000000               0.000000000              -0.001723768               0.002685187              -0.000000000              -0.000982059               0.001222406               0.000240347               0.000000000               0.000000000               0.000000000               0.000000000              -0.001093031               0.003237889               0.000000000              -0.000814621               0.001350826               0.000536205               0.000000000               0.000000000               0.000000000               0.000000000              -0.000507877               0.003691030               0.000000000              -0.000651831               0.001447608               0.000795777               0.000000000               0.000000000               0.000000000               0.000000000               0.000068880               0.004077524              -0.000000000              -0.000483860               0.001520447               0.001036588               0.000000000               0.000000000               0.000000000               0.000000000               0.000655998               0.004398407              -0.000000000              -0.000303801               0.001567388               0.001263587               0.000000000               0.000000000               0.000000000               0.000000000               0.001263959               0.004647692              -0.000000000              -0.000106977               0.001584874               0.001477897               0.000000000               0.000000000               0.000000000               0.000000000               0.001898356               0.004832661               0.000000000               0.000107800               0.001574938               0.001682737               0.000000000               0.000000000               0.000000000               0.000000000               0.002579149               0.004951538               0.000000000               0.000348235               0.001534418               0.001882653               0.000000000               0.000000000               0.000000000               0.000000000               0.003349254               0.005013241              -0.000000000               0.000629309               0.001461294               0.002090603               0.000000000               0.000000000               0.000000000               0.000000000               0.004232073               0.005022195               0.000000000               0.000959243               0.001354300               0.002313544               0.000000000               0.000000000               0.000000000               0.000000000               0.004909383               0.005084225               0.000000000               0.001205478               0.001292899               0.002498377               0.000000000               0.000000000               0.000000000               0.000000000               0.000000000               0.000000000               0.000000000               0.000000000               0.000000000               0.000000000               0.000000000               0.000000000               0.000000000               0.000000000               0.000000000               0.000000000               0.000000000               0.000000000               0.000000000               0.000000000               0.000000000               0.000000000               0.000000000               0.000000000               0.000000000               0.000000000               0.000000000               0.000000000               0.000000000               0.000000000               0.000000000               0.000000000               0.000000000               0.000000000               0.000000000               0.000000000               0.000000000               0.000000000               0.000000000               0.000000000               0.000000000               0.000000000               0.000000000               0.000000000               0.000000000               0.000000000               0.000000000               0.000000000               0.000000000               0.000000000               0.000000000               0.000000000               0.000000000               0.000000000               0.000000000               0.000000000               0.000000000               0.000000000               0.000000000               0.000000000               0.000000000               0.000000000               0.000000000               0.000000000               0.000000000               0.000000000               0.000000000               0.000000000               0.000000000               0.000000000               0.000000000               0.000000000               0.000000000               0.000000000               0.000000000               0.000000000               0.000000000               0.000000000               0.000000000               0.000000000               0.000000000               0.000000000               0.000000000               0.000000000               0.000000000               0.000000000               0.000000000               0.000000000               0.000000000               0.000000000               0.000000000               0.000000000               0.000000000               0.000000000               0.000000000               0.000000000               0.000000000               0.000000000               0.000000000               0.000000000               0.000000000               0.000000000               0.000000000               0.000000000               0.000000000               0.000000000               0.000000000               0.000000000               0.000000000               0.000000000               0.000000000               0.000000000               0.000000000               0.000000000               0.000000000               0.000000000               0.000000000               0.000000000               0.000000000               0.000000000               0.000000000               0.000000000               0.000000000               0.000000000               0.000000000               0.000000000               0.000000000               0.000000000               0.000000000               0.000000000               0.000000000               0.000000000               0.000000000               0.000000000               0.000000000               0.000000000               0.000000000               0.000000000               0.000000000               0.000000000               0.000000000               0.000000000               0.000000000               0.000000000               0.000000000               0.000000000               0.000000000               0.000000000               0.000000000               0.000000000               0.000000000               0.000000000               0.000000000               0.000000000               0.000000000               0.000000000               0.000000000               0.000000000               0.000000000               0.000000000               0.000000000               0.000000000               0.000000000               0.000000000               0.000000000               0.000000000               0.000000000               0.000000000               0.000000000               0.000000000               0.000000000               0.000000000               0.000000000               0.000000000               0.002241800               0.022432038               0.001490629              -0.001963325               0.008131713               0.006168388               0.000000000               0.000000000               0.000000000               0.000000000               0.002011353               0.017191889               0.000639451              -0.001394725               0.006195481               0.004800755               0.000000000               0.000000000               0.000000000               0.000000000               0.002464057               0.012985950              -0.000196023              -0.000699221               0.004561680               0.003862460               0.000000000               0.000000000               0.000000000               0.000000000               0.002220804               0.010605230              -0.000529775              -0.000492851               0.003699325               0.003206474               0.000000000               0.000000000               0.000000000               0.000000000               0.001806163               0.009077237              -0.000650238              -0.000457343               0.003178163               0.002720820               0.000000000               0.000000000               0.000000000               0.000000000               0.001381619               0.007986321              -0.000681567              -0.000480182               0.002822141               0.002341959               0.000000000               0.000000000               0.000000000               0.000000000               0.001002809               0.007132955              -0.000672718              -0.000515565               0.002549483               0.002033918               0.000000000               0.000000000               0.000000000               0.000000000               0.000687221               0.006407743              -0.000640332              -0.000543259               0.002316979               0.001773720               0.000000000               0.000000000               0.000000000               0.000000000               0.000435265               0.005749374              -0.000601711              -0.000555446               0.002101587               0.001546141               0.000000000               0.000000000               0.000000000               0.000000000               0.000235697               0.005124384              -0.000567704              -0.000552161               0.001892164               0.001340004               0.000000000               0.000000000               0.000000000               0.000000000               0.000076211               0.004514376              -0.000535151              -0.000535717               0.001683349               0.001147632               0.000000000               0.000000000               0.000000000               0.000000000              -0.000044620               0.003902409              -0.000499424              -0.000504533               0.001468968               0.000964435               0.000000000               0.000000000               0.000000000               0.000000000              -0.000122456               0.003274401              -0.000448449              -0.000455220               0.001243196               0.000787976               0.000000000               0.000000000               0.000000000               0.000000000              -0.000155122               0.002608081              -0.000376579              -0.000384180               0.000997412               0.000613232               0.000000000               0.000000000               0.000000000               0.000000000              -0.000143964               0.001886795              -0.000284377              -0.000289835               0.000725537               0.000435702               0.000000000               0.000000000               0.000000000               0.000000000              -0.000086211               0.001099787              -0.000160498              -0.000169802               0.000423193               0.000253390               0.000000000               0.000000000               0.000000000               0.000000000              -0.000106337               0.000515450              -0.000100412              -0.000104307               0.000206584               0.000102276               0.000000000               0.000000000               0.000000000               0.000000000               0.002357158               0.020996828               0.002747754              -0.001740666               0.007579094               0.005838428               0.000000000               0.000000000               0.000000000               0.000000000               0.001774404               0.016298490               0.001167953              -0.001371907               0.005890078               0.004518171               0.000000000               0.000000000               0.000000000               0.000000000               0.001850297               0.012655371              -0.000363906              -0.000888058               0.004514434               0.003626376               0.000000000               0.000000000               0.000000000               0.000000000               0.001474572               0.010558097              -0.000950539              -0.000766796               0.003774929               0.003008133               0.000000000               0.000000000               0.000000000               0.000000000               0.001049104               0.009172467              -0.001151302              -0.000753143               0.003308506               0.002555363               0.000000000               0.000000000               0.000000000               0.000000000               0.000674787               0.008151380              -0.001192520              -0.000765876               0.002972391               0.002206515               0.000000000               0.000000000               0.000000000               0.000000000               0.000370173               0.007322955              -0.001164746              -0.000776553               0.002699811               0.001923258               0.000000000               0.000000000               0.000000000               0.000000000               0.000136754               0.006602252              -0.001104544              -0.000773997               0.002458727               0.001684730               0.000000000               0.000000000               0.000000000               0.000000000              -0.000028221               0.005949134              -0.001035409              -0.000754223               0.002234432               0.001480209               0.000000000               0.000000000               0.000000000               0.000000000              -0.000145771               0.005331831              -0.000972426              -0.000721142               0.002017640               0.001296498               0.000000000               0.000000000               0.000000000               0.000000000              -0.000227603               0.004733884              -0.000910966              -0.000677085               0.001803640               0.001126555               0.000000000               0.000000000               0.000000000               0.000000000              -0.000268182               0.004143422              -0.000842585              -0.000618495               0.001587291               0.000968797               0.000000000               0.000000000               0.000000000               0.000000000              -0.000272677               0.003550522              -0.000752068              -0.000546068               0.001365518               0.000819450               0.000000000               0.000000000               0.000000000               0.000000000              -0.000243827               0.002952581              -0.000626120              -0.000460507               0.001137686               0.000677179               0.000000000               0.000000000               0.000000000               0.000000000              -0.000184685               0.002348745              -0.000464528              -0.000362849               0.000903857               0.000541008               0.000000000               0.000000000               0.000000000               0.000000000              -0.000101075               0.001743500              -0.000257462              -0.000255840               0.000666441               0.000410601               0.000000000               0.000000000               0.000000000               0.000000000              -0.000096057               0.001327323              -0.000156179              -0.000201937               0.000509749               0.000307812               0.000000000               0.000000000               0.000000000               0.000000000               0.002422186               0.018810227               0.003594292              -0.001442957               0.006750998               0.005308041               0.000000000               0.000000000               0.000000000               0.000000000               0.001349329               0.014964275               0.001517553              -0.001364533               0.005442886               0.004078353               0.000000000               0.000000000               0.000000000               0.000000000               0.000908466               0.012159238              -0.000460749              -0.001179227               0.004446114               0.003266887               0.000000000               0.000000000               0.000000000               0.000000000               0.000394460               0.010455299              -0.001169434              -0.001158987               0.003871394               0.002712407               0.000000000               0.000000000               0.000000000               0.000000000              -0.000010266               0.009261586              -0.001390930              -0.001161546               0.003474346               0.002312801               0.000000000               0.000000000               0.000000000               0.000000000              -0.000292318               0.008330656              -0.001422115              -0.001150949               0.003160507               0.002009558               0.000000000               0.000000000               0.000000000               0.000000000              -0.000472808               0.007541339              -0.001375085              -0.001119968               0.002887077               0.001767109               0.000000000               0.000000000               0.000000000               0.000000000              -0.000576491               0.006835910              -0.001295257              -0.001070671               0.002635504               0.001564833               0.000000000               0.000000000               0.000000000               0.000000000              -0.000618457               0.006188466              -0.001207890              -0.001005477               0.002397960               0.001392483               0.000000000               0.000000000               0.000000000               0.000000000              -0.000618374               0.005581206              -0.001126111              -0.000929539               0.002170229               0.001240690               0.000000000               0.000000000               0.000000000               0.000000000              -0.000585721               0.005000729              -0.001046324              -0.000844735               0.001948471               0.001103736               0.000000000               0.000000000               0.000000000               0.000000000              -0.000518459               0.004443789              -0.000954726              -0.000749894               0.001731213               0.000981319               0.000000000               0.000000000               0.000000000               0.000000000              -0.000426943               0.003909344              -0.000838412              -0.000648770               0.001519358               0.000870588               0.000000000               0.000000000               0.000000000               0.000000000              -0.000323063               0.003410017              -0.000685448              -0.000547400               0.001319127               0.000771728               0.000000000               0.000000000               0.000000000               0.000000000              -0.000212335               0.002959512              -0.000494778              -0.000449564               0.001136349               0.000686785               0.000000000               0.000000000               0.000000000               0.000000000              -0.000104341               0.002579713              -0.000265766              -0.000361591               0.000980426               0.000618835               0.000000000               0.000000000               0.000000000               0.000000000              -0.000070861               0.002364553              -0.000150254              -0.000322141               0.000895557               0.000573416               0.000000000               0.000000000               0.000000000               0.000000000               0.002292530               0.016146045               0.003944554              -0.001158557               0.005768146               0.004609589               0.000000000               0.000000000               0.000000000               0.000000000               0.000721677               0.013370509               0.001675537              -0.001400682               0.004923686               0.003523003               0.000000000               0.000000000               0.000000000               0.000000000              -0.000245726               0.011557109              -0.000445010              -0.001536782               0.004364592               0.002827810               0.000000000               0.000000000               0.000000000               0.000000000              -0.000831163               0.010284887              -0.001145151              -0.001597293               0.003960692               0.002363399               0.000000000               0.000000000               0.000000000               0.000000000              -0.001139859               0.009289561              -0.001340965              -0.001588639               0.003626036               0.002037397               0.000000000               0.000000000               0.000000000               0.000000000              -0.001275536               0.008445487              -0.001352249              -0.001534008               0.003326470               0.001792462               0.000000000               0.000000000               0.000000000               0.000000000              -0.001299159               0.007692735              -0.001292551              -0.001448773               0.003047143               0.001598370               0.000000000               0.000000000               0.000000000               0.000000000              -0.001249047               0.007007689              -0.001205851              -0.001344351               0.002783990               0.001439639               0.000000000               0.000000000               0.000000000               0.000000000              -0.001148677               0.006375534              -0.001113576              -0.001227693               0.002534388               0.001306695               0.000000000               0.000000000               0.000000000               0.000000000              -0.001014242               0.005786586              -0.001026915              -0.001103662               0.002296730               0.001193068               0.000000000               0.000000000               0.000000000               0.000000000              -0.000854355               0.005235946              -0.000939424              -0.000974874               0.002070256               0.001095382               0.000000000               0.000000000               0.000000000               0.000000000              -0.000678333               0.004725460              -0.000838075              -0.000845056               0.001856823               0.001011767               0.000000000               0.000000000               0.000000000               0.000000000              -0.000500532               0.004266737              -0.000715374              -0.000721040               0.001662578               0.000941538               0.000000000               0.000000000               0.000000000               0.000000000              -0.000335846               0.003877182              -0.000562556              -0.000610589               0.001495910               0.000885322               0.000000000               0.000000000               0.000000000               0.000000000              -0.000192389               0.003578858              -0.000383290              -0.000519502               0.001366108               0.000846606               0.000000000               0.000000000               0.000000000               0.000000000              -0.000083432               0.003391970              -0.000193510              -0.000455282               0.001282406               0.000827124               0.000000000               0.000000000               0.000000000               0.000000000              -0.000037840               0.003330092              -0.000097679              -0.000430450               0.001253503               0.000823053               0.000000000               0.000000000               0.000000000               0.000000000               0.001841737               0.013289389               0.003821020              -0.000970523               0.004753259               0.003782736               0.000000000               0.000000000               0.000000000               0.000000000              -0.000096277               0.011693476               0.001679186              -0.001497786               0.004397048               0.002899262               0.000000000               0.000000000               0.000000000               0.000000000              -0.001466251               0.010897900              -0.000293094              -0.001912077               0.004269956               0.002357879               0.000000000               0.000000000               0.000000000               0.000000000              -0.002006210               0.010025781              -0.000891478              -0.002005546               0.004010409               0.002004863               0.000000000               0.000000000               0.000000000               0.000000000              -0.002144776               0.009198301              -0.001041702              -0.001954074               0.003717428               0.001763354               0.000000000               0.000000000               0.000000000               0.000000000              -0.002091851               0.008427751              -0.001038503              -0.001837909               0.003421858               0.001583950               0.000000000               0.000000000               0.000000000               0.000000000              -0.001937190               0.007714339              -0.000981809              -0.001690735               0.003134999               0.001444264               0.000000000               0.000000000               0.000000000               0.000000000              -0.001725361               0.007058749              -0.000905742              -0.001529350               0.002862676               0.001333326               0.000000000               0.000000000               0.000000000               0.000000000              -0.001482146               0.006455552              -0.000824073              -0.001362746               0.002606078               0.001243332               0.000000000               0.000000000               0.000000000               0.000000000              -0.001221100               0.005901703              -0.000745408              -0.001195622               0.002365755               0.001170133               0.000000000               0.000000000               0.000000000               0.000000000              -0.000957259               0.005395750              -0.000663008              -0.001033438               0.002143045               0.001109606               0.000000000               0.000000000               0.000000000               0.000000000              -0.000701959               0.004945294              -0.000567499              -0.000881394               0.001942213               0.001060819               0.000000000               0.000000000               0.000000000               0.000000000              -0.000469237               0.004564769              -0.000459655              -0.000746558               0.001770427               0.001023869               0.000000000               0.000000000               0.000000000               0.000000000              -0.000276628               0.004277264              -0.000337457              -0.000638392               0.001638538               0.001000146               0.000000000               0.000000000               0.000000000               0.000000000              -0.000132250               0.004094050              -0.000208354              -0.000561348               0.001551786               0.000990437               0.000000000               0.000000000               0.000000000               0.000000000              -0.000044576               0.004014621              -0.000093754              -0.000518542               0.001511041               0.000992499               0.000000000               0.000000000               0.000000000               0.000000000              -0.000012003               0.004009358              -0.000040794              -0.000505670               0.001504996               0.000999326               0.000000000               0.000000000               0.000000000               0.000000000               0.001023586               0.010486866               0.003320545              -0.000927014               0.003804591               0.002877577               0.000000000               0.000000000               0.000000000               0.000000000              -0.001049254               0.010070162               0.001586417              -0.001652237               0.003907433               0.002255195               0.000000000               0.000000000               0.000000000               0.000000000              -0.002617183               0.010202791              -0.000004055              -0.002256787               0.004153159               0.001896372               0.000000000               0.000000000               0.000000000               0.000000000              -0.002986461               0.009657189              -0.000457692              -0.002327066               0.003994719               0.001667654               0.000000000               0.000000000               0.000000000               0.000000000              -0.002895832               0.008966102              -0.000575648              -0.002206694               0.003724236               0.001517541               0.000000000               0.000000000               0.000000000               0.000000000              -0.002634514               0.008266020              -0.000581851              -0.002021190               0.003429043               0.001407852               0.000000000               0.000000000               0.000000000               0.000000000              -0.002304210               0.007600169              -0.000550590              -0.001814095               0.003138063               0.001323967               0.000000000               0.000000000               0.000000000               0.000000000              -0.001941580               0.006988124              -0.000503502              -0.001601604               0.002863219               0.001261615               0.000000000               0.000000000               0.000000000               0.000000000              -0.001574034               0.006428345              -0.000445927              -0.001393803               0.002607361               0.001213559               0.000000000               0.000000000               0.000000000               0.000000000              -0.001214557               0.005919096              -0.000386773              -0.001195343               0.002371460               0.001176117               0.000000000               0.000000000               0.000000000               0.000000000              -0.000879978               0.005465150              -0.000325423              -0.001013133               0.002159409               0.001146276               0.000000000               0.000000000               0.000000000               0.000000000              -0.000591214               0.005077491              -0.000255952              -0.000856389               0.001977943               0.001121554               0.000000000               0.000000000               0.000000000               0.000000000              -0.000355231               0.004776825              -0.000189535              -0.000730313               0.001835697               0.001105384               0.000000000               0.000000000               0.000000000               0.000000000              -0.000180714               0.004572831              -0.000125489              -0.000639370               0.001737385               0.001098015               0.000000000               0.000000000               0.000000000               0.000000000              -0.000070317               0.004459270              -0.000064925              -0.000583776               0.001681000               0.001097224               0.000000000               0.000000000               0.000000000               0.000000000              -0.000016767               0.004418153              -0.000023990              -0.000558555               0.001658888               0.001100333               0.000000000               0.000000000               0.000000000               0.000000000              -0.000006422               0.004413520              -0.000010087              -0.000554097               0.001655858               0.001101761               0.000000000               0.000000000               0.000000000               0.000000000              -0.000114334               0.007927509               0.002557292              -0.001033813               0.002987080               0.001953267               0.000000000               0.000000000               0.000000000               0.000000000              -0.002078263               0.008598834               0.001449300              -0.001854199               0.003484315               0.001630116               0.000000000               0.000000000               0.000000000               0.000000000              -0.003584036               0.009471806               0.000402365              -0.002527983               0.003999898               0.001471915               0.000000000               0.000000000               0.000000000               0.000000000              -0.003679738               0.009175446               0.000076743              -0.002526826               0.003900727               0.001373900               0.000000000               0.000000000               0.000000000               0.000000000              -0.003339140               0.008604844              -0.000044344              -0.002327777               0.003644178               0.001316401               0.000000000               0.000000000               0.000000000               0.000000000              -0.002877047               0.007979404              -0.000086886              -0.002076313               0.003351879               0.001275566               0.000000000               0.000000000               0.000000000               0.000000000              -0.002389314               0.007375766              -0.000098594              -0.001817959               0.003064551               0.001246591               0.000000000               0.000000000               0.000000000               0.000000000              -0.001905030               0.006818335              -0.000091600              -0.001566674               0.002794980               0.001228306               0.000000000               0.000000000               0.000000000               0.000000000              -0.001447576               0.006304903              -0.000068337              -0.001330951               0.002545264               0.001214313               0.000000000               0.000000000               0.000000000               0.000000000              -0.001028574               0.005841230              -0.000044255              -0.001115866               0.002319013               0.001203146               0.000000000               0.000000000               0.000000000               0.000000000              -0.000666195               0.005442483              -0.000023226              -0.000930131               0.002124187               0.001194055               0.000000000               0.000000000               0.000000000               0.000000000              -0.000382222               0.005124273              -0.000005781              -0.000783865               0.001969362               0.001185497               0.000000000               0.000000000               0.000000000               0.000000000              -0.000180557               0.004899930               0.000001748              -0.000680199               0.001860026               0.001179828               0.000000000               0.000000000               0.000000000               0.000000000              -0.000062313               0.004759692               0.000001929              -0.000618327               0.001792657               0.001174330               0.000000000               0.000000000               0.000000000               0.000000000              -0.000006739               0.004698235               0.000000408              -0.000589805               0.001762665               0.001172859               0.000000000               0.000000000               0.000000000               0.000000000               0.000005934               0.004689547              -0.000002284              -0.000583967               0.001757822               0.001173855               0.000000000               0.000000000               0.000000000               0.000000000               0.000000035               0.004697399              -0.000003280              -0.000587160               0.001761504               0.001174344               0.000000000               0.000000000               0.000000000               0.000000000              -0.001436901               0.005795027               0.001652751              -0.001263214               0.002352727               0.001089513               0.000000000               0.000000000               0.000000000               0.000000000              -0.003080990               0.007287365               0.001306957              -0.002066287               0.003117859               0.001051572               0.000000000               0.000000000               0.000000000               0.000000000              -0.004341680               0.008724725               0.000885981              -0.002718714               0.003814450               0.001095737               0.000000000               0.000000000               0.000000000               0.000000000              -0.004148603               0.008684499               0.000637394              -0.002641282               0.003775231               0.001133949               0.000000000               0.000000000               0.000000000               0.000000000              -0.003601266               0.008257311               0.000484398              -0.002382633               0.003546621               0.001163988               0.000000000               0.000000000               0.000000000               0.000000000              -0.002981779               0.007730061               0.000387916              -0.002084420               0.003271468               0.001187048               0.000000000               0.000000000               0.000000000               0.000000000              -0.002369450               0.007205393               0.000324771              -0.001789213               0.002998178               0.001208965               0.000000000               0.000000000               0.000000000               0.000000000              -0.001791687               0.006707848               0.000285566              -0.001510360               0.002739380               0.001229020               0.000000000               0.000000000               0.000000000               0.000000000              -0.001268192               0.006237709               0.000261974              -0.001255283               0.002497643               0.001242360               0.000000000               0.000000000               0.000000000               0.000000000              -0.000812044               0.005814186               0.000240498              -0.001031287               0.002281805               0.001250518               0.000000000               0.000000000               0.000000000               0.000000000              -0.000434129               0.005459059               0.000210968              -0.000845179               0.002101395               0.001256216               0.000000000               0.000000000               0.000000000               0.000000000              -0.000159720               0.005183314               0.000170777              -0.000707808               0.001963690               0.001255883               0.000000000               0.000000000               0.000000000               0.000000000               0.000004236               0.004994526               0.000121765              -0.000622726               0.001872401               0.001249675               0.000000000               0.000000000               0.000000000               0.000000000               0.000074850               0.004890683               0.000066716              -0.000583265               0.001824633               0.001241368               0.000000000               0.000000000               0.000000000               0.000000000               0.000080717               0.004858027               0.000018898              -0.000576983               0.001811654               0.001234671               0.000000000               0.000000000               0.000000000               0.000000000               0.000054902               0.004869301              -0.000007014              -0.000588073               0.001819108               0.001231035               0.000000000               0.000000000               0.000000000               0.000000000               0.000036010               0.004887520              -0.000012560              -0.000597435               0.001828302               0.001230867               0.000000000               0.000000000               0.000000000               0.000000000              -0.002951074               0.003842802               0.000719672              -0.001586999               0.001809921               0.000222921               0.000000000               0.000000000               0.000000000               0.000000000              -0.003929961               0.005770004               0.001153633              -0.002194981               0.002654975               0.000459995               0.000000000               0.000000000               0.000000000               0.000000000              -0.004812596               0.007608304               0.001387925              -0.002755755               0.003454661               0.000698906               0.000000000               0.000000000               0.000000000               0.000000000              -0.004470044               0.007952716               0.001226501              -0.002670349               0.003540995               0.000870646               0.000000000               0.000000000               0.000000000               0.000000000              -0.003831163               0.007797726               0.001039582              -0.002411396               0.003403015               0.000991619               0.000000000               0.000000000               0.000000000               0.000000000              -0.003151574               0.007471340               0.000883773              -0.002115753               0.003195672               0.001079920               0.000000000               0.000000000               0.000000000               0.000000000              -0.002491903               0.007103067               0.000765164              -0.001822343               0.002975113               0.001152770               0.000000000               0.000000000               0.000000000               0.000000000              -0.001877926               0.006733444               0.000670483              -0.001545899               0.002759759               0.001213860               0.000000000               0.000000000               0.000000000               0.000000000              -0.001326597               0.006357503               0.000591422              -0.001292159               0.002549866               0.001257707               0.000000000               0.000000000               0.000000000               0.000000000              -0.000845908               0.005988636               0.000522027              -0.001065792               0.002351456               0.001285664               0.000000000               0.000000000               0.000000000               0.000000000              -0.000443611               0.005649537               0.000448899              -0.000872544               0.002174008               0.001301464               0.000000000               0.000000000               0.000000000               0.000000000              -0.000131167               0.005360287               0.000362902              -0.000719222               0.002026485               0.001307263               0.000000000               0.000000000               0.000000000               0.000000000               0.000076984               0.005141154               0.000264859              -0.000613774               0.001918292               0.001304518               0.000000000               0.000000000               0.000000000               0.000000000               0.000182416               0.005003573               0.000162650              -0.000557039               0.001853521               0.001296482               0.000000000               0.000000000               0.000000000               0.000000000               0.000205988               0.004945869               0.000074553              -0.000540987               0.001828936               0.001287949               0.000000000               0.000000000               0.000000000               0.000000000               0.000179295               0.004951931               0.000018679              -0.000551754               0.001834545               0.001282791               0.000000000               0.000000000               0.000000000               0.000000000               0.000145480               0.004962000              -0.000004268              -0.000565693               0.001842548               0.001276855               0.000000000               0.000000000               0.000000000               0.000000000              -0.004861699               0.002097164              -0.000169336              -0.002085279               0.001394138              -0.000691141               0.000000000               0.000000000               0.000000000               0.000000000              -0.004896279               0.004244649               0.000943371              -0.002366681               0.002203761              -0.000162919               0.000000000               0.000000000               0.000000000               0.000000000              -0.005212378               0.006283755               0.001790891              -0.002740105               0.003007932               0.000267827               0.000000000               0.000000000               0.000000000               0.000000000              -0.004739236               0.006986927               0.001785894              -0.002650573               0.003212476               0.000561903               0.000000000               0.000000000               0.000000000               0.000000000              -0.004053643               0.007140093               0.001602532              -0.002412622               0.003184214               0.000771592               0.000000000               0.000000000               0.000000000               0.000000000              -0.003341937               0.007058370               0.001405553              -0.002135518               0.003064605               0.000929088               0.000000000               0.000000000               0.000000000               0.000000000              -0.002663488               0.006880791               0.001232880              -0.001858903               0.002913208               0.001054305               0.000000000               0.000000000               0.000000000               0.000000000              -0.002030691               0.006664195               0.001083224              -0.001594530               0.002752886               0.001158356               0.000000000               0.000000000               0.000000000               0.000000000              -0.001453683               0.006412608               0.000954540              -0.001346704               0.002586416               0.001239712               0.000000000               0.000000000               0.000000000               0.000000000              -0.000936522               0.006133762               0.000842559              -0.001117913               0.002417204               0.001299291               0.000000000               0.000000000               0.000000000               0.000000000              -0.000486008               0.005842686               0.000734280              -0.000912587               0.002251738               0.001339151               0.000000000               0.000000000               0.000000000               0.000000000              -0.000108530               0.005558715               0.000618100              -0.000735536               0.002098065               0.001362529               0.000000000               0.000000000               0.000000000               0.000000000               0.000182344               0.005311213               0.000485082              -0.000595521               0.001968894               0.001373372               0.000000000               0.000000000               0.000000000               0.000000000               0.000375002               0.005127799               0.000340172              -0.000500348               0.001876032               0.001375684               0.000000000               0.000000000               0.000000000               0.000000000               0.000464947               0.005018596               0.000200540              -0.000452968               0.001823838               0.001370870               0.000000000               0.000000000               0.000000000               0.000000000               0.000459486               0.004984856               0.000085129              -0.000450798               0.001811868               0.001361070               0.000000000               0.000000000               0.000000000               0.000000000               0.000406398               0.004969237               0.000025478              -0.000468754               0.001812647               0.001343893               0.000000000               0.000000000               0.000000000               0.000000000              -0.007038977               0.000694024              -0.000925424              -0.002726367               0.001140122              -0.001586244               0.000000000               0.000000000               0.000000000               0.000000000              -0.006012664               0.002814174               0.000670404              -0.002606516               0.001806884              -0.000799632               0.000000000               0.000000000               0.000000000               0.000000000              -0.005557086               0.004774133               0.001994750              -0.002680668               0.002484916              -0.000195752               0.000000000               0.000000000               0.000000000               0.000000000              -0.004865100               0.005723577               0.002185546              -0.002539854               0.002754457               0.000214603               0.000000000               0.000000000               0.000000000               0.000000000              -0.004120943               0.006163287               0.002057101              -0.002315759               0.002826328               0.000510568               0.000000000               0.000000000               0.000000000               0.000000000              -0.003391675               0.006338257               0.001854445              -0.002064156               0.002800783               0.000736627               0.000000000               0.000000000               0.000000000               0.000000000              -0.002710162               0.006369112               0.001652277              -0.001812446               0.002727164               0.000914719               0.000000000               0.000000000               0.000000000               0.000000000              -0.002072328               0.006327515               0.001468235              -0.001568059               0.002631837               0.001063778               0.000000000               0.000000000               0.000000000               0.000000000              -0.001478059               0.006230667               0.001304431              -0.001333103               0.002521236               0.001188133               0.000000000               0.000000000               0.000000000               0.000000000              -0.000934368               0.006075426               0.001160616              -0.001109814               0.002395059               0.001285246               0.000000000               0.000000000               0.000000000               0.000000000              -0.000441090               0.005877181               0.001027059              -0.000900055               0.002259059               0.001359004               0.000000000               0.000000000               0.000000000               0.000000000              -0.000001210               0.005656832               0.000888028              -0.000707556               0.002121444               0.001413888               0.000000000               0.000000000               0.000000000               0.000000000               0.000369019               0.005432342               0.000729314              -0.000540659               0.001990982               0.001450323               0.000000000               0.000000000               0.000000000               0.000000000               0.000656824               0.005239637               0.000551871              -0.000408645               0.001882743               0.001474098               0.000000000               0.000000000               0.000000000               0.000000000               0.000847439               0.005101071               0.000365201              -0.000319843               0.001806954               0.001487111               0.000000000               0.000000000               0.000000000               0.000000000               0.000926190               0.005030342               0.000179534              -0.000281471               0.001770588               0.001489117               0.000000000               0.000000000               0.000000000               0.000000000               0.000911426               0.004999871               0.000080371              -0.000283199               0.001761006               0.001477808               0.000000000               0.000000000               0.000000000               0.000000000              -0.009321430              -0.000293978              -0.001431039              -0.003458786               0.001054928              -0.002403858               0.000000000               0.000000000               0.000000000               0.000000000              -0.007210200               0.001554226               0.000384306              -0.002898100               0.001484098              -0.001414001               0.000000000               0.000000000               0.000000000               0.000000000              -0.005866331               0.003211723               0.001968332              -0.002601335               0.001937672              -0.000663663               0.000000000               0.000000000               0.000000000               0.000000000              -0.004871659               0.004269867               0.002329220              -0.002360601               0.002210140              -0.000150461               0.000000000               0.000000000               0.000000000               0.000000000              -0.004037049               0.004930747               0.002285918              -0.002130232               0.002353642               0.000223410               0.000000000               0.000000000               0.000000000               0.000000000              -0.003291567               0.005339991               0.002113107              -0.001901832               0.002413923               0.000512090               0.000000000               0.000000000               0.000000000               0.000000000              -0.002608031               0.005585787               0.001915935              -0.001676232               0.002420654               0.000744422               0.000000000               0.000000000               0.000000000               0.000000000              -0.001973924               0.005725801               0.001727095              -0.001455944               0.002393895               0.000937952               0.000000000               0.000000000               0.000000000               0.000000000              -0.001374260               0.005791089               0.001553358              -0.001239231               0.002343420               0.001104189               0.000000000               0.000000000               0.000000000               0.000000000              -0.000809847               0.005788403               0.001397051              -0.001027241               0.002271862               0.001244621               0.000000000               0.000000000               0.000000000               0.000000000              -0.000280872               0.005722351               0.001254289              -0.000820619               0.002180971               0.001360351               0.000000000               0.000000000               0.000000000               0.000000000               0.000209417               0.005603063               0.001105604              -0.000621850               0.002074952               0.001453102               0.000000000               0.000000000               0.000000000               0.000000000               0.000659926               0.005452068               0.000934419              -0.000434036               0.001962016               0.001527981               0.000000000               0.000000000               0.000000000               0.000000000               0.001057498               0.005298306               0.000739369              -0.000265726               0.001854660               0.001588933               0.000000000               0.000000000               0.000000000               0.000000000               0.001381516               0.005161425               0.000521327              -0.000127110               0.001762828               0.001635718               0.000000000               0.000000000               0.000000000               0.000000000               0.001609050               0.005067341               0.000277094              -0.000030024               0.001699105               0.001669081               0.000000000               0.000000000               0.000000000               0.000000000               0.001700886               0.005036149               0.000150112               0.000008313               0.001675928               0.001684241               0.000000000               0.000000000               0.000000000               0.000000000              -0.011481155              -0.000882287              -0.001583495              -0.004195144               0.001104278              -0.003090867               0.000000000               0.000000000               0.000000000               0.000000000              -0.008377018               0.000541682               0.000144508              -0.003209089               0.001250248              -0.001958841               0.000000000               0.000000000               0.000000000               0.000000000              -0.006148923               0.001749704               0.001709623              -0.002524556               0.001424743              -0.001099813               0.000000000               0.000000000               0.000000000               0.000000000              -0.004805394               0.002794856               0.002153006              -0.002151376               0.001648732              -0.000502644               0.000000000               0.000000000               0.000000000               0.000000000              -0.003845992               0.003596852               0.002186283              -0.001891850               0.001829554              -0.000062296               0.000000000               0.000000000               0.000000000               0.000000000              -0.003064884               0.004191102               0.002069879              -0.001673216               0.001954758               0.000281542               0.000000000               0.000000000               0.000000000               0.000000000              -0.002376846               0.004623172               0.001908940              -0.001469211               0.002030778               0.000561567               0.000000000               0.000000000               0.000000000               0.000000000              -0.001746243               0.004930281               0.001744720              -0.001271124               0.002067118               0.000795994               0.000000000               0.000000000               0.000000000               0.000000000              -0.001145016               0.005152442               0.001590032              -0.001073434               0.002075275               0.001001840               0.000000000               0.000000000               0.000000000               0.000000000              -0.000564079               0.005299882               0.001446065              -0.000874013               0.002057947               0.001183934               0.000000000               0.000000000               0.000000000               0.000000000              -0.000007176               0.005372127               0.001308906              -0.000674206               0.002015426               0.001341220               0.000000000               0.000000000               0.000000000               0.000000000               0.000525794               0.005373723               0.001169057              -0.000474542               0.001949404               0.001474862               0.000000000               0.000000000               0.000000000               0.000000000               0.001049220               0.005327825               0.001011810              -0.000272521               0.001866764               0.001594243               0.000000000               0.000000000               0.000000000               0.000000000               0.001561710               0.005252032               0.000824615              -0.000070863               0.001774281               0.001703418               0.000000000               0.000000000               0.000000000               0.000000000               0.002040801               0.005157565               0.000602722               0.000120603               0.001678970               0.001799573               0.000000000               0.000000000               0.000000000               0.000000000               0.002464808               0.005073910               0.000329228               0.000290061               0.001594599               0.001884661               0.000000000               0.000000000               0.000000000               0.000000000               0.002717075               0.005061270               0.000189029               0.000386241               0.001558326               0.001944567               0.000000000               0.000000000               0.000000000               0.000000000              -0.013273260              -0.001174836              -0.001344984              -0.004830615               0.001218584              -0.003612031               0.000000000               0.000000000               0.000000000               0.000000000              -0.009371497              -0.000187159              -0.000001127              -0.003490914               0.001101244              -0.002389670               0.000000000               0.000000000               0.000000000               0.000000000              -0.006390053               0.000562684               0.001248966              -0.002466603               0.001009755              -0.001456848               0.000000000               0.000000000               0.000000000               0.000000000              -0.004715460               0.001518156               0.001653938              -0.001958064               0.001158732              -0.000799333               0.000000000               0.000000000               0.000000000               0.000000000              -0.003614602               0.002381206               0.001724737              -0.001653124               0.001344767              -0.000308357               0.000000000               0.000000000               0.000000000               0.000000000              -0.002782347               0.003095694               0.001663207              -0.001430339               0.001508666               0.000078327               0.000000000               0.000000000               0.000000000               0.000000000              -0.002082143               0.003663802               0.001553605              -0.001238776               0.001634180               0.000395404               0.000000000               0.000000000               0.000000000               0.000000000              -0.001451181               0.004105238               0.001435528              -0.001057345               0.001720847               0.000663501               0.000000000               0.000000000               0.000000000               0.000000000              -0.000853008               0.004450534               0.001323674              -0.000876193               0.001775560               0.000899367               0.000000000               0.000000000               0.000000000               0.000000000              -0.000269808               0.004716025               0.001215288              -0.000690680               0.001802219               0.001111539               0.000000000               0.000000000               0.000000000               0.000000000               0.000305416               0.004912085               0.001107150              -0.000499479               0.001803838               0.001304359               0.000000000               0.000000000               0.000000000               0.000000000               0.000878381               0.005037291               0.000999673              -0.000300268               0.001779170               0.001478901               0.000000000               0.000000000               0.000000000               0.000000000               0.001462145               0.005099488               0.000884723              -0.000089132               0.001729523               0.001640391               0.000000000               0.000000000               0.000000000               0.000000000               0.002069740               0.005119287               0.000738945               0.000136240               0.001660999               0.001797238               0.000000000               0.000000000               0.000000000               0.000000000               0.002693098               0.005105390               0.000549990               0.000371734               0.001577868               0.001949603               0.000000000               0.000000000               0.000000000               0.000000000               0.003327419               0.005060500               0.000304129               0.000615214               0.001481745               0.002096959               0.000000000               0.000000000               0.000000000               0.000000000               0.003770787               0.005077059               0.000181594               0.000779405               0.001432535               0.002211939               0.000000000               0.000000000               0.000000000               0.000000000              -0.014463997              -0.001285547              -0.000773110              -0.005263302               0.001325909              -0.003937393               0.000000000               0.000000000               0.000000000               0.000000000              -0.010054478              -0.000620933              -0.000038752              -0.003692810               0.001023952              -0.002668858               0.000000000               0.000000000               0.000000000               0.000000000              -0.006562978              -0.000205530               0.000654437              -0.002435424               0.000743293              -0.001692131               0.000000000               0.000000000               0.000000000               0.000000000              -0.004641066               0.000655194               0.000896051              -0.001822297               0.000825825              -0.000996472               0.000000000               0.000000000               0.000000000               0.000000000              -0.003425168               0.001524059               0.000950555              -0.001474943               0.000999660              -0.000475283               0.000000000               0.000000000               0.000000000               0.000000000              -0.002544018               0.002297475               0.000926493              -0.001241189               0.001179546              -0.000061643               0.000000000               0.000000000               0.000000000               0.000000000              -0.001828509               0.002947115               0.000872885              -0.001054078               0.001333721               0.000279643               0.000000000               0.000000000               0.000000000               0.000000000              -0.001196036               0.003473719               0.000812416              -0.000882726               0.001452137               0.000569410               0.000000000               0.000000000               0.000000000               0.000000000              -0.000604364               0.003902909               0.000753052              -0.000714499               0.001539123               0.000824624               0.000000000               0.000000000               0.000000000               0.000000000              -0.000026646               0.004253452               0.000694586              -0.000541673               0.001598361               0.001056688               0.000000000               0.000000000               0.000000000               0.000000000               0.000556051               0.004536768               0.000637073              -0.000358576               0.001631766               0.001273190               0.000000000               0.000000000               0.000000000               0.000000000               0.001155094               0.004753299               0.000582346              -0.000161002               0.001638085               0.001477082               0.000000000               0.000000000               0.000000000               0.000000000               0.001778076               0.004903703               0.000526739               0.000053814               0.001616613               0.001670428               0.000000000               0.000000000               0.000000000               0.000000000               0.002442013               0.004996258               0.000447462               0.000291220               0.001568329               0.001859549               0.000000000               0.000000000               0.000000000               0.000000000               0.003169770               0.005039618               0.000336639               0.000558706               0.001493621               0.002052327               0.000000000               0.000000000               0.000000000               0.000000000               0.003979937               0.005032523               0.000191169               0.000863402               0.001389690               0.002253092               0.000000000               0.000000000               0.000000000               0.000000000               0.004589344               0.005080456               0.000120102               0.001085936               0.001331490               0.002417426               0.000000000               0.000000000               0.000000000               0.000000000              -0.014880912              -0.001304206              -0.000000000              -0.005417313               0.001371026              -0.004046286               0.000000000               0.000000000               0.000000000               0.000000000              -0.010300414              -0.000760012               0.000000000              -0.003767651               0.001002540              -0.002765112               0.000000000               0.000000000               0.000000000               0.000000000              -0.006628393              -0.000471373              -0.000000000              -0.002426724               0.000651779              -0.001774945               0.000000000               0.000000000               0.000000000               0.000000000              -0.004613894               0.000347962              -0.000000000              -0.001773704               0.000707217              -0.001066487               0.000000000               0.000000000               0.000000000               0.000000000              -0.003352500               0.001213260               0.000000000              -0.001408843               0.000874028              -0.000534815               0.000000000               0.000000000               0.000000000               0.000000000              -0.002447480               0.002004947               0.000000000              -0.001168421               0.001057782              -0.000110639               0.000000000               0.000000000               0.000000000               0.000000000              -0.001723768               0.002685187               0.000000000              -0.000982059               0.001222406               0.000240347               0.000000000               0.000000000               0.000000000               0.000000000              -0.001093031               0.003237889              -0.000000000              -0.000814621               0.001350826               0.000536205               0.000000000               0.000000000               0.000000000               0.000000000              -0.000507877               0.003691030               0.000000000              -0.000651831               0.001447608               0.000795777               0.000000000               0.000000000               0.000000000               0.000000000               0.000068880               0.004077524              -0.000000000              -0.000483860               0.001520447               0.001036588               0.000000000               0.000000000               0.000000000               0.000000000               0.000655998               0.004398407              -0.000000000              -0.000303801               0.001567388               0.001263587               0.000000000               0.000000000               0.000000000               0.000000000               0.001263959               0.004647692              -0.000000000              -0.000106977               0.001584874               0.001477897               0.000000000               0.000000000               0.000000000               0.000000000               0.001898356               0.004832661              -0.000000000               0.000107800               0.001574938               0.001682737               0.000000000               0.000000000               0.000000000               0.000000000               0.002579149               0.004951538               0.000000000               0.000348235               0.001534418               0.001882653               0.000000000               0.000000000               0.000000000               0.000000000               0.003349254               0.005013241               0.000000000               0.000629309               0.001461294               0.002090603               0.000000000               0.000000000               0.000000000               0.000000000               0.004232073               0.005022195               0.000000000               0.000959243               0.001354300               0.002313544               0.000000000               0.000000000               0.000000000               0.000000000               0.004909383               0.005084225               0.000000000               0.001205478               0.001292899               0.002498377               0.000000000               0.000000000               0.000000000               0.000000000               0.002188187               0.022931223               0.000000000              -0.002045828               0.008325607               0.006279779               0.000000000               0.000000000               0.000000000               0.000000000               0.002085982               0.017507165               0.000000000              -0.001406149               0.006304379               0.004898231               0.000000000               0.000000000               0.000000000               0.000000000               0.002676977               0.013102050               0.000000000              -0.000633888               0.004578602               0.003944714               0.000000000               0.000000000               0.000000000               0.000000000               0.002486286               0.010615936               0.000000000              -0.000394634               0.003670155               0.003275521               0.000000000               0.000000000               0.000000000               0.000000000               0.002079155               0.009034810              -0.000000000              -0.000349667               0.003128129               0.002778462               0.000000000               0.000000000               0.000000000               0.000000000               0.001639214               0.007916507              -0.000000000              -0.000374857               0.002763762               0.002388904               0.000000000               0.000000000               0.000000000               0.000000000               0.001233959               0.007056854               0.000000000              -0.000419371               0.002492051               0.002072680               0.000000000               0.000000000               0.000000000               0.000000000               0.000890686               0.006333024              -0.000000000              -0.000457620               0.002263527               0.001805907               0.000000000               0.000000000               0.000000000               0.000000000               0.000611925               0.005670907               0.000000000              -0.000479390               0.002050080               0.001570690               0.000000000               0.000000000               0.000000000               0.000000000               0.000386289               0.005042760               0.000000000              -0.000485485               0.001842732               0.001357246               0.000000000               0.000000000               0.000000000               0.000000000               0.000197281               0.004427420              -0.000000000              -0.000479446               0.001635607               0.001156161               0.000000000               0.000000000               0.000000000               0.000000000               0.000047025               0.003810581               0.000000000              -0.000458687               0.001423076               0.000964390               0.000000000               0.000000000               0.000000000               0.000000000              -0.000058621               0.003170406               0.000000000              -0.000418283               0.001196219               0.000777936               0.000000000               0.000000000               0.000000000               0.000000000              -0.000119161               0.002476814               0.000000000              -0.000354286               0.000943692               0.000589405               0.000000000               0.000000000               0.000000000               0.000000000              -0.000126764               0.001710985              -0.000000000              -0.000261409               0.000657459               0.000396050               0.000000000               0.000000000               0.000000000               0.000000000              -0.000078291               0.000854760               0.000000000              -0.000136204               0.000330318               0.000194114               0.000000000               0.000000000               0.000000000               0.000000000              -0.000109658               0.000203420               0.000000000              -0.000066550               0.000089989               0.000023439               0.000000000               0.000000000               0.000000000               0.000000000               0.002241800               0.022432038              -0.001490629              -0.001963325               0.008131713               0.006168388               0.000000000               0.000000000               0.000000000               0.000000000               0.002011353               0.017191889              -0.000639451              -0.001394725               0.006195481               0.004800755               0.000000000               0.000000000               0.000000000               0.000000000               0.002464057               0.012985950               0.000196023              -0.000699221               0.004561680               0.003862460               0.000000000               0.000000000               0.000000000               0.000000000               0.002220804               0.010605230               0.000529775              -0.000492851               0.003699325               0.003206474               0.000000000               0.000000000               0.000000000               0.000000000               0.001806163               0.009077237               0.000650238              -0.000457343               0.003178163               0.002720820               0.000000000               0.000000000               0.000000000               0.000000000               0.001381619               0.007986321               0.000681567              -0.000480182               0.002822141               0.002341959               0.000000000               0.000000000               0.000000000               0.000000000               0.001002809               0.007132955               0.000672718              -0.000515565               0.002549483               0.002033918               0.000000000               0.000000000               0.000000000               0.000000000               0.000687221               0.006407743               0.000640332              -0.000543259               0.002316979               0.001773720               0.000000000               0.000000000               0.000000000               0.000000000               0.000435265               0.005749374               0.000601711              -0.000555446               0.002101587               0.001546141               0.000000000               0.000000000               0.000000000               0.000000000               0.000235697               0.005124384               0.000567704              -0.000552161               0.001892164               0.001340004               0.000000000               0.000000000               0.000000000               0.000000000               0.000076211               0.004514376               0.000535151              -0.000535717               0.001683349               0.001147632               0.000000000               0.000000000               0.000000000               0.000000000              -0.000044620               0.003902409               0.000499424              -0.000504533               0.001468968               0.000964435               0.000000000               0.000000000               0.000000000               0.000000000              -0.000122456               0.003274401               0.000448449              -0.000455220               0.001243196               0.000787976               0.000000000               0.000000000               0.000000000               0.000000000              -0.000155122               0.002608081               0.000376579              -0.000384180               0.000997412               0.000613232               0.000000000               0.000000000               0.000000000               0.000000000              -0.000143964               0.001886795               0.000284377              -0.000289835               0.000725537               0.000435702               0.000000000               0.000000000               0.000000000               0.000000000              -0.000086211               0.001099787               0.000160498              -0.000169802               0.000423193               0.000253390               0.000000000               0.000000000               0.000000000               0.000000000              -0.000106337               0.000515450               0.000100412              -0.000104307               0.000206584               0.000102276               0.000000000               0.000000000               0.000000000               0.000000000               0.002357158               0.020996828              -0.002747754              -0.001740666               0.007579094               0.005838428               0.000000000               0.000000000               0.000000000               0.000000000               0.001774404               0.016298490              -0.001167953              -0.001371907               0.005890078               0.004518171               0.000000000               0.000000000               0.000000000               0.000000000               0.001850297               0.012655371               0.000363906              -0.000888058               0.004514434               0.003626376               0.000000000               0.000000000               0.000000000               0.000000000               0.001474572               0.010558097               0.000950539              -0.000766796               0.003774929               0.003008133               0.000000000               0.000000000               0.000000000               0.000000000               0.001049104               0.009172467               0.001151302              -0.000753143               0.003308506               0.002555363               0.000000000               0.000000000               0.000000000               0.000000000               0.000674787               0.008151380               0.001192520              -0.000765876               0.002972391               0.002206515               0.000000000               0.000000000               0.000000000               0.000000000               0.000370173               0.007322955               0.001164746              -0.000776553               0.002699811               0.001923258               0.000000000               0.000000000               0.000000000               0.000000000               0.000136754               0.006602252               0.001104544              -0.000773997               0.002458727               0.001684730               0.000000000               0.000000000               0.000000000               0.000000000              -0.000028221               0.005949134               0.001035409              -0.000754223               0.002234432               0.001480209               0.000000000               0.000000000               0.000000000               0.000000000              -0.000145771               0.005331831               0.000972426              -0.000721142               0.002017640               0.001296498               0.000000000               0.000000000               0.000000000               0.000000000              -0.000227603               0.004733884               0.000910966              -0.000677085               0.001803640               0.001126555               0.000000000               0.000000000               0.000000000               0.000000000              -0.000268182               0.004143422               0.000842585              -0.000618495               0.001587291               0.000968797               0.000000000               0.000000000               0.000000000               0.000000000              -0.000272677               0.003550522               0.000752068              -0.000546068               0.001365518               0.000819450               0.000000000               0.000000000               0.000000000               0.000000000              -0.000243827               0.002952581               0.000626120              -0.000460507               0.001137686               0.000677179               0.000000000               0.000000000               0.000000000               0.000000000              -0.000184685               0.002348745               0.000464528              -0.000362849               0.000903857               0.000541008               0.000000000               0.000000000               0.000000000               0.000000000              -0.000101075               0.001743500               0.000257462              -0.000255840               0.000666441               0.000410601               0.000000000               0.000000000               0.000000000               0.000000000              -0.000096057               0.001327323               0.000156179              -0.000201937               0.000509749               0.000307812               0.000000000               0.000000000               0.000000000               0.000000000               0.002422186               0.018810227              -0.003594292              -0.001442957               0.006750998               0.005308041               0.000000000               0.000000000               0.000000000               0.000000000               0.001349329               0.014964275              -0.001517553              -0.001364533               0.005442886               0.004078353               0.000000000               0.000000000               0.000000000               0.000000000               0.000908466               0.012159238               0.000460749              -0.001179227               0.004446114               0.003266887               0.000000000               0.000000000               0.000000000               0.000000000               0.000394460               0.010455299               0.001169434              -0.001158987               0.003871394               0.002712407               0.000000000               0.000000000               0.000000000               0.000000000              -0.000010266               0.009261586               0.001390930              -0.001161546               0.003474346               0.002312801               0.000000000               0.000000000               0.000000000               0.000000000              -0.000292318               0.008330656               0.001422115              -0.001150949               0.003160507               0.002009558               0.000000000               0.000000000               0.000000000               0.000000000              -0.000472808               0.007541339               0.001375085              -0.001119968               0.002887077               0.001767109               0.000000000               0.000000000               0.000000000               0.000000000              -0.000576491               0.006835910               0.001295257              -0.001070671               0.002635504               0.001564833               0.000000000               0.000000000               0.000000000               0.000000000              -0.000618457               0.006188466               0.001207890              -0.001005477               0.002397960               0.001392483               0.000000000               0.000000000               0.000000000               0.000000000              -0.000618374               0.005581206               0.001126111              -0.000929539               0.002170229               0.001240690               0.000000000               0.000000000               0.000000000               0.000000000              -0.000585721               0.005000729               0.001046324              -0.000844735               0.001948471               0.001103736               0.000000000               0.000000000               0.000000000               0.000000000              -0.000518459               0.004443789               0.000954726              -0.000749894               0.001731213               0.000981319               0.000000000               0.000000000               0.000000000               0.000000000              -0.000426943               0.003909344               0.000838412              -0.000648770               0.001519358               0.000870588               0.000000000               0.000000000               0.000000000               0.000000000              -0.000323063               0.003410017               0.000685448              -0.000547400               0.001319127               0.000771728               0.000000000               0.000000000               0.000000000               0.000000000              -0.000212335               0.002959512               0.000494778              -0.000449564               0.001136349               0.000686785               0.000000000               0.000000000               0.000000000               0.000000000              -0.000104341               0.002579713               0.000265766              -0.000361591               0.000980426               0.000618835               0.000000000               0.000000000               0.000000000               0.000000000              -0.000070861               0.002364553               0.000150254              -0.000322141               0.000895557               0.000573416               0.000000000               0.000000000               0.000000000               0.000000000               0.002292530               0.016146045              -0.003944554              -0.001158557               0.005768146               0.004609589               0.000000000               0.000000000               0.000000000               0.000000000               0.000721677               0.013370509              -0.001675537              -0.001400682               0.004923686               0.003523003               0.000000000               0.000000000               0.000000000               0.000000000              -0.000245726               0.011557109               0.000445010              -0.001536782               0.004364592               0.002827810               0.000000000               0.000000000               0.000000000               0.000000000              -0.000831163               0.010284887               0.001145151              -0.001597293               0.003960692               0.002363399               0.000000000               0.000000000               0.000000000               0.000000000              -0.001139859               0.009289561               0.001340965              -0.001588639               0.003626036               0.002037397               0.000000000               0.000000000               0.000000000               0.000000000              -0.001275536               0.008445487               0.001352249              -0.001534008               0.003326470               0.001792462               0.000000000               0.000000000               0.000000000               0.000000000              -0.001299159               0.007692735               0.001292551              -0.001448773               0.003047143               0.001598370               0.000000000               0.000000000               0.000000000               0.000000000              -0.001249047               0.007007689               0.001205851              -0.001344351               0.002783990               0.001439639               0.000000000               0.000000000               0.000000000               0.000000000              -0.001148677               0.006375534               0.001113576              -0.001227693               0.002534388               0.001306695               0.000000000               0.000000000               0.000000000               0.000000000              -0.001014242               0.005786586               0.001026915              -0.001103662               0.002296730               0.001193068               0.000000000               0.000000000               0.000000000               0.000000000              -0.000854355               0.005235946               0.000939424              -0.000974874               0.002070256               0.001095382               0.000000000               0.000000000               0.000000000               0.000000000              -0.000678333               0.004725460               0.000838075              -0.000845056               0.001856823               0.001011767               0.000000000               0.000000000               0.000000000               0.000000000              -0.000500532               0.004266737               0.000715374              -0.000721040               0.001662578               0.000941538               0.000000000               0.000000000               0.000000000               0.000000000              -0.000335846               0.003877182               0.000562556              -0.000610589               0.001495910               0.000885322               0.000000000               0.000000000               0.000000000               0.000000000              -0.000192389               0.003578858               0.000383290              -0.000519502               0.001366108               0.000846606               0.000000000               0.000000000               0.000000000               0.000000000              -0.000083432               0.003391970               0.000193510              -0.000455282               0.001282406               0.000827124               0.000000000               0.000000000               0.000000000               0.000000000              -0.000037840               0.003330092               0.000097679              -0.000430450               0.001253503               0.000823053               0.000000000               0.000000000               0.000000000               0.000000000               0.001841737               0.013289389              -0.003821020              -0.000970523               0.004753259               0.003782736               0.000000000               0.000000000               0.000000000               0.000000000              -0.000096277               0.011693476              -0.001679186              -0.001497786               0.004397048               0.002899262               0.000000000               0.000000000               0.000000000               0.000000000              -0.001466251               0.010897900               0.000293094              -0.001912077               0.004269956               0.002357879               0.000000000               0.000000000               0.000000000               0.000000000              -0.002006210               0.010025781               0.000891478              -0.002005546               0.004010409               0.002004863               0.000000000               0.000000000               0.000000000               0.000000000              -0.002144776               0.009198301               0.001041702              -0.001954074               0.003717428               0.001763354               0.000000000               0.000000000               0.000000000               0.000000000              -0.002091851               0.008427751               0.001038503              -0.001837909               0.003421858               0.001583950               0.000000000               0.000000000               0.000000000               0.000000000              -0.001937190               0.007714339               0.000981809              -0.001690735               0.003134999               0.001444264               0.000000000               0.000000000               0.000000000               0.000000000              -0.001725361               0.007058749               0.000905742              -0.001529350               0.002862676               0.001333326               0.000000000               0.000000000               0.000000000               0.000000000              -0.001482146               0.006455552               0.000824073              -0.001362746               0.002606078               0.001243332               0.000000000               0.000000000               0.000000000               0.000000000              -0.001221100               0.005901703               0.000745408              -0.001195622               0.002365755               0.001170133               0.000000000               0.000000000               0.000000000               0.000000000              -0.000957259               0.005395750               0.000663008              -0.001033438               0.002143045               0.001109606               0.000000000               0.000000000               0.000000000               0.000000000              -0.000701959               0.004945294               0.000567499              -0.000881394               0.001942213               0.001060819               0.000000000               0.000000000               0.000000000               0.000000000              -0.000469237               0.004564769               0.000459655              -0.000746558               0.001770427               0.001023869               0.000000000               0.000000000               0.000000000               0.000000000              -0.000276628               0.004277264               0.000337457              -0.000638392               0.001638538               0.001000146               0.000000000               0.000000000               0.000000000               0.000000000              -0.000132250               0.004094050               0.000208354              -0.000561348               0.001551786               0.000990437               0.000000000               0.000000000               0.000000000               0.000000000              -0.000044576               0.004014621               0.000093754              -0.000518542               0.001511041               0.000992499               0.000000000               0.000000000               0.000000000               0.000000000              -0.000012003               0.004009358               0.000040794              -0.000505670               0.001504996               0.000999326               0.000000000               0.000000000               0.000000000               0.000000000               0.001023586               0.010486866              -0.003320545              -0.000927014               0.003804591               0.002877577               0.000000000               0.000000000               0.000000000               0.000000000              -0.001049254               0.010070162              -0.001586417              -0.001652237               0.003907433               0.002255195               0.000000000               0.000000000               0.000000000               0.000000000              -0.002617183               0.010202791               0.000004055              -0.002256787               0.004153159               0.001896372               0.000000000               0.000000000               0.000000000               0.000000000              -0.002986461               0.009657189               0.000457692              -0.002327066               0.003994719               0.001667654               0.000000000               0.000000000               0.000000000               0.000000000              -0.002895832               0.008966102               0.000575648              -0.002206694               0.003724236               0.001517541               0.000000000               0.000000000               0.000000000               0.000000000              -0.002634514               0.008266020               0.000581851              -0.002021190               0.003429043               0.001407852               0.000000000               0.000000000               0.000000000               0.000000000              -0.002304210               0.007600169               0.000550590              -0.001814095               0.003138063               0.001323967               0.000000000               0.000000000               0.000000000               0.000000000              -0.001941580               0.006988124               0.000503502              -0.001601604               0.002863219               0.001261615               0.000000000               0.000000000               0.000000000               0.000000000              -0.001574034               0.006428345               0.000445927              -0.001393803               0.002607361               0.001213559               0.000000000               0.000000000               0.000000000               0.000000000              -0.001214557               0.005919096               0.000386773              -0.001195343               0.002371460               0.001176117               0.000000000               0.000000000               0.000000000               0.000000000              -0.000879978               0.005465150               0.000325423              -0.001013133               0.002159409               0.001146276               0.000000000               0.000000000               0.000000000               0.000000000              -0.000591214               0.005077491               0.000255952              -0.000856389               0.001977943               0.001121554               0.000000000               0.000000000               0.000000000               0.000000000              -0.000355231               0.004776825               0.000189535              -0.000730313               0.001835697               0.001105384               0.000000000               0.000000000               0.000000000               0.000000000              -0.000180714               0.004572831               0.000125489              -0.000639370               0.001737385               0.001098015               0.000000000               0.000000000               0.000000000               0.000000000              -0.000070317               0.004459270               0.000064925              -0.000583776               0.001681000               0.001097224               0.000000000               0.000000000               0.000000000               0.000000000              -0.000016767               0.004418153               0.000023990              -0.000558555               0.001658888               0.001100333               0.000000000               0.000000000               0.000000000               0.000000000              -0.000006422               0.004413520               0.000010087              -0.000554097               0.001655858               0.001101761               0.000000000               0.000000000               0.000000000               0.000000000              -0.000114334               0.007927509              -0.002557292              -0.001033813               0.002987080               0.001953267               0.000000000               0.000000000               0.000000000               0.000000000              -0.002078263               0.008598834              -0.001449300              -0.001854199               0.003484315               0.001630116               0.000000000               0.000000000               0.000000000               0.000000000              -0.003584036               0.009471806              -0.000402365              -0.002527983               0.003999898               0.001471915               0.000000000               0.000000000               0.000000000               0.000000000              -0.003679738               0.009175446              -0.000076743              -0.002526826               0.003900727               0.001373900               0.000000000               0.000000000               0.000000000               0.000000000              -0.003339140               0.008604844               0.000044344              -0.002327777               0.003644178               0.001316401               0.000000000               0.000000000               0.000000000               0.000000000              -0.002877047               0.007979404               0.000086886              -0.002076313               0.003351879               0.001275566               0.000000000               0.000000000               0.000000000               0.000000000              -0.002389314               0.007375766               0.000098594              -0.001817959               0.003064551               0.001246591               0.000000000               0.000000000               0.000000000               0.000000000              -0.001905030               0.006818335               0.000091600              -0.001566674               0.002794980               0.001228306               0.000000000               0.000000000               0.000000000               0.000000000              -0.001447576               0.006304903               0.000068337              -0.001330951               0.002545264               0.001214313               0.000000000               0.000000000               0.000000000               0.000000000              -0.001028574               0.005841230               0.000044255              -0.001115866               0.002319013               0.001203146               0.000000000               0.000000000               0.000000000               0.000000000              -0.000666195               0.005442483               0.000023226              -0.000930131               0.002124187               0.001194055               0.000000000               0.000000000               0.000000000               0.000000000              -0.000382222               0.005124273               0.000005781              -0.000783865               0.001969362               0.001185497               0.000000000               0.000000000               0.000000000               0.000000000              -0.000180557               0.004899930              -0.000001748              -0.000680199               0.001860026               0.001179828               0.000000000               0.000000000               0.000000000               0.000000000              -0.000062313               0.004759692              -0.000001929              -0.000618327               0.001792657               0.001174330               0.000000000               0.000000000               0.000000000               0.000000000              -0.000006739               0.004698235              -0.000000408              -0.000589805               0.001762665               0.001172859               0.000000000               0.000000000               0.000000000               0.000000000               0.000005934               0.004689547               0.000002284              -0.000583967               0.001757822               0.001173855               0.000000000               0.000000000               0.000000000               0.000000000               0.000000035               0.004697399               0.000003280              -0.000587160               0.001761504               0.001174344               0.000000000               0.000000000               0.000000000               0.000000000              -0.001436901               0.005795027              -0.001652751              -0.001263214               0.002352727               0.001089513               0.000000000               0.000000000               0.000000000               0.000000000              -0.003080990               0.007287365              -0.001306957              -0.002066287               0.003117859               0.001051572               0.000000000               0.000000000               0.000000000               0.000000000              -0.004341680               0.008724725              -0.000885981              -0.002718714               0.003814450               0.001095737               0.000000000               0.000000000               0.000000000               0.000000000              -0.004148603               0.008684499              -0.000637394              -0.002641282               0.003775231               0.001133949               0.000000000               0.000000000               0.000000000               0.000000000              -0.003601266               0.008257311              -0.000484398              -0.002382633               0.003546621               0.001163988               0.000000000               0.000000000               0.000000000               0.000000000              -0.002981779               0.007730061              -0.000387916              -0.002084420               0.003271468               0.001187048               0.000000000               0.000000000               0.000000000               0.000000000              -0.002369450               0.007205393              -0.000324771              -0.001789213               0.002998178               0.001208965               0.000000000               0.000000000               0.000000000               0.000000000              -0.001791687               0.006707848              -0.000285566              -0.001510360               0.002739380               0.001229020               0.000000000               0.000000000               0.000000000               0.000000000              -0.001268192               0.006237709              -0.000261974              -0.001255283               0.002497643               0.001242360               0.000000000               0.000000000               0.000000000               0.000000000              -0.000812044               0.005814186              -0.000240498              -0.001031287               0.002281805               0.001250518               0.000000000               0.000000000               0.000000000               0.000000000              -0.000434129               0.005459059              -0.000210968              -0.000845179               0.002101395               0.001256216               0.000000000               0.000000000               0.000000000               0.000000000              -0.000159720               0.005183314              -0.000170777              -0.000707808               0.001963690               0.001255883               0.000000000               0.000000000               0.000000000               0.000000000               0.000004236               0.004994526              -0.000121765              -0.000622726               0.001872401               0.001249675               0.000000000               0.000000000               0.000000000               0.000000000               0.000074850               0.004890683              -0.000066716              -0.000583265               0.001824633               0.001241368               0.000000000               0.000000000               0.000000000               0.000000000               0.000080717               0.004858027              -0.000018898              -0.000576983               0.001811654               0.001234671               0.000000000               0.000000000               0.000000000               0.000000000               0.000054902               0.004869301               0.000007014              -0.000588073               0.001819108               0.001231035               0.000000000               0.000000000               0.000000000               0.000000000               0.000036010               0.004887520               0.000012560              -0.000597435               0.001828302               0.001230867               0.000000000               0.000000000               0.000000000               0.000000000              -0.002951074               0.003842802              -0.000719672              -0.001586999               0.001809921               0.000222921               0.000000000               0.000000000               0.000000000               0.000000000              -0.003929961               0.005770004              -0.001153633              -0.002194981               0.002654975               0.000459995               0.000000000               0.000000000               0.000000000               0.000000000              -0.004812596               0.007608304              -0.001387925              -0.002755755               0.003454661               0.000698906               0.000000000               0.000000000               0.000000000               0.000000000              -0.004470044               0.007952716              -0.001226501              -0.002670349               0.003540995               0.000870646               0.000000000               0.000000000               0.000000000               0.000000000              -0.003831163               0.007797726              -0.001039582              -0.002411396               0.003403015               0.000991619               0.000000000               0.000000000               0.000000000               0.000000000              -0.003151574               0.007471340              -0.000883773              -0.002115753               0.003195672               0.001079920               0.000000000               0.000000000               0.000000000               0.000000000              -0.002491903               0.007103067              -0.000765164              -0.001822343               0.002975113               0.001152770               0.000000000               0.000000000               0.000000000               0.000000000              -0.001877926               0.006733444              -0.000670483              -0.001545899               0.002759759               0.001213860               0.000000000               0.000000000               0.000000000               0.000000000              -0.001326597               0.006357503              -0.000591422              -0.001292159               0.002549866               0.001257707               0.000000000               0.000000000               0.000000000               0.000000000              -0.000845908               0.005988636              -0.000522027              -0.001065792               0.002351456               0.001285664               0.000000000               0.000000000               0.000000000               0.000000000              -0.000443611               0.005649537              -0.000448899              -0.000872544               0.002174008               0.001301464               0.000000000               0.000000000               0.000000000               0.000000000              -0.000131167               0.005360287              -0.000362902              -0.000719222               0.002026485               0.001307263               0.000000000               0.000000000               0.000000000               0.000000000               0.000076984               0.005141154              -0.000264859              -0.000613774               0.001918292               0.001304518               0.000000000               0.000000000               0.000000000               0.000000000               0.000182416               0.005003573              -0.000162650              -0.000557039               0.001853521               0.001296482               0.000000000               0.000000000               0.000000000               0.000000000               0.000205988               0.004945869              -0.000074553              -0.000540987               0.001828936               0.001287949               0.000000000               0.000000000               0.000000000               0.000000000               0.000179295               0.004951931              -0.000018679              -0.000551754               0.001834545               0.001282791               0.000000000               0.000000000               0.000000000               0.000000000               0.000145480               0.004962000               0.000004268              -0.000565693               0.001842548               0.001276855               0.000000000               0.000000000               0.000000000               0.000000000              -0.004861699               0.002097164               0.000169336              -0.002085279               0.001394138              -0.000691141               0.000000000               0.000000000               0.000000000               0.000000000              -0.004896279               0.004244649              -0.000943371              -0.002366681               0.002203761              -0.000162919               0.000000000               0.000000000               0.000000000               0.000000000              -0.005212378               0.006283755              -0.001790891              -0.002740105               0.003007932               0.000267827               0.000000000               0.000000000               0.000000000               0.000000000              -0.004739236               0.006986927              -0.001785894              -0.002650573               0.003212476               0.000561903               0.000000000               0.000000000               0.000000000               0.000000000              -0.004053643               0.007140093              -0.001602532              -0.002412622               0.003184214               0.000771592               0.000000000               0.000000000               0.000000000               0.000000000              -0.003341937               0.007058370              -0.001405553              -0.002135518               0.003064605               0.000929088               0.000000000               0.000000000               0.000000000               0.000000000              -0.002663488               0.006880791              -0.001232880              -0.001858903               0.002913208               0.001054305               0.000000000               0.000000000               0.000000000               0.000000000              -0.002030691               0.006664195              -0.001083224              -0.001594530               0.002752886               0.001158356               0.000000000               0.000000000               0.000000000               0.000000000              -0.001453683               0.006412608              -0.000954540              -0.001346704               0.002586416               0.001239712               0.000000000               0.000000000               0.000000000               0.000000000              -0.000936522               0.006133762              -0.000842559              -0.001117913               0.002417204               0.001299291               0.000000000               0.000000000               0.000000000               0.000000000              -0.000486008               0.005842686              -0.000734280              -0.000912587               0.002251738               0.001339151               0.000000000               0.000000000               0.000000000               0.000000000              -0.000108530               0.005558715              -0.000618100              -0.000735536               0.002098065               0.001362529               0.000000000               0.000000000               0.000000000               0.000000000               0.000182344               0.005311213              -0.000485082              -0.000595521               0.001968894               0.001373372               0.000000000               0.000000000               0.000000000               0.000000000               0.000375002               0.005127799              -0.000340172              -0.000500348               0.001876032               0.001375684               0.000000000               0.000000000               0.000000000               0.000000000               0.000464947               0.005018596              -0.000200540              -0.000452968               0.001823838               0.001370870               0.000000000               0.000000000               0.000000000               0.000000000               0.000459486               0.004984856              -0.000085129              -0.000450798               0.001811868               0.001361070               0.000000000               0.000000000               0.000000000               0.000000000               0.000406398               0.004969237              -0.000025478              -0.000468754               0.001812647               0.001343893               0.000000000               0.000000000               0.000000000               0.000000000              -0.007038977               0.000694024               0.000925424              -0.002726367               0.001140122              -0.001586244               0.000000000               0.000000000               0.000000000               0.000000000              -0.006012664               0.002814174              -0.000670404              -0.002606516               0.001806884              -0.000799632               0.000000000               0.000000000               0.000000000               0.000000000              -0.005557086               0.004774133              -0.001994750              -0.002680668               0.002484916              -0.000195752               0.000000000               0.000000000               0.000000000               0.000000000              -0.004865100               0.005723577              -0.002185546              -0.002539854               0.002754457               0.000214603               0.000000000               0.000000000               0.000000000               0.000000000              -0.004120943               0.006163287              -0.002057101              -0.002315759               0.002826328               0.000510568               0.000000000               0.000000000               0.000000000               0.000000000              -0.003391675               0.006338257              -0.001854445              -0.002064156               0.002800783               0.000736627               0.000000000               0.000000000               0.000000000               0.000000000              -0.002710162               0.006369112              -0.001652277              -0.001812446               0.002727164               0.000914719               0.000000000               0.000000000               0.000000000               0.000000000              -0.002072328               0.006327515              -0.001468235              -0.001568059               0.002631837               0.001063778               0.000000000               0.000000000               0.000000000               0.000000000              -0.001478059               0.006230667              -0.001304431              -0.001333103               0.002521236               0.001188133               0.000000000               0.000000000               0.000000000               0.000000000              -0.000934368               0.006075426              -0.001160616              -0.001109814               0.002395059               0.001285246               0.000000000               0.000000000               0.000000000               0.000000000              -0.000441090               0.005877181              -0.001027059              -0.000900055               0.002259059               0.001359004               0.000000000               0.000000000               0.000000000               0.000000000              -0.000001210               0.005656832              -0.000888028              -0.000707556               0.002121444               0.001413888               0.000000000               0.000000000               0.000000000               0.000000000               0.000369019               0.005432342              -0.000729314              -0.000540659               0.001990982               0.001450323               0.000000000               0.000000000               0.000000000               0.000000000               0.000656824               0.005239637              -0.000551871              -0.000408645               0.001882743               0.001474098               0.000000000               0.000000000               0.000000000               0.000000000               0.000847439               0.005101071              -0.000365201              -0.000319843               0.001806954               0.001487111               0.000000000               0.000000000               0.000000000               0.000000000               0.000926190               0.005030342              -0.000179534              -0.000281471               0.001770588               0.001489117               0.000000000               0.000000000               0.000000000               0.000000000               0.000911426               0.004999871              -0.000080371              -0.000283199               0.001761006               0.001477808               0.000000000               0.000000000               0.000000000               0.000000000              -0.009321430              -0.000293978               0.001431039              -0.003458786               0.001054928              -0.002403858               0.000000000               0.000000000               0.000000000               0.000000000              -0.007210200               0.001554226              -0.000384306              -0.002898100               0.001484098              -0.001414001               0.000000000               0.000000000               0.000000000               0.000000000              -0.005866331               0.003211723              -0.001968332              -0.002601335               0.001937672              -0.000663663               0.000000000               0.000000000               0.000000000               0.000000000              -0.004871659               0.004269867              -0.002329220              -0.002360601               0.002210140              -0.000150461               0.000000000               0.000000000               0.000000000               0.000000000              -0.004037049               0.004930747              -0.002285918              -0.002130232               0.002353642               0.000223410               0.000000000               0.000000000               0.000000000               0.000000000              -0.003291567               0.005339991              -0.002113107              -0.001901832               0.002413923               0.000512090               0.000000000               0.000000000               0.000000000               0.000000000              -0.002608031               0.005585787              -0.001915935              -0.001676232               0.002420654               0.000744422               0.000000000               0.000000000               0.000000000               0.000000000              -0.001973924               0.005725801              -0.001727095              -0.001455944               0.002393895               0.000937952               0.000000000               0.000000000               0.000000000               0.000000000              -0.001374260               0.005791089              -0.001553358              -0.001239231               0.002343420               0.001104189               0.000000000               0.000000000               0.000000000               0.000000000              -0.000809847               0.005788403              -0.001397051              -0.001027241               0.002271862               0.001244621               0.000000000               0.000000000               0.000000000               0.000000000              -0.000280872               0.005722351              -0.001254289              -0.000820619               0.002180971               0.001360351               0.000000000               0.000000000               0.000000000               0.000000000               0.000209417               0.005603063              -0.001105604              -0.000621850               0.002074952               0.001453102               0.000000000               0.000000000               0.000000000               0.000000000               0.000659926               0.005452068              -0.000934419              -0.000434036               0.001962016               0.001527981               0.000000000               0.000000000               0.000000000               0.000000000               0.001057498               0.005298306              -0.000739369              -0.000265726               0.001854660               0.001588933               0.000000000               0.000000000               0.000000000               0.000000000               0.001381516               0.005161425              -0.000521327              -0.000127110               0.001762828               0.001635718               0.000000000               0.000000000               0.000000000               0.000000000               0.001609050               0.005067341              -0.000277094              -0.000030024               0.001699105               0.001669081               0.000000000               0.000000000               0.000000000               0.000000000               0.001700886               0.005036149              -0.000150112               0.000008313               0.001675928               0.001684241               0.000000000               0.000000000               0.000000000               0.000000000              -0.011481155              -0.000882287               0.001583495              -0.004195144               0.001104278              -0.003090867               0.000000000               0.000000000               0.000000000               0.000000000              -0.008377018               0.000541682              -0.000144508              -0.003209089               0.001250248              -0.001958841               0.000000000               0.000000000               0.000000000               0.000000000              -0.006148923               0.001749704              -0.001709623              -0.002524556               0.001424743              -0.001099813               0.000000000               0.000000000               0.000000000               0.000000000              -0.004805394               0.002794856              -0.002153006              -0.002151376               0.001648732              -0.000502644               0.000000000               0.000000000               0.000000000               0.000000000              -0.003845992               0.003596852              -0.002186283              -0.001891850               0.001829554              -0.000062296               0.000000000               0.000000000               0.000000000               0.000000000              -0.003064884               0.004191102              -0.002069879              -0.001673216               0.001954758               0.000281542               0.000000000               0.000000000               0.000000000               0.000000000              -0.002376846               0.004623172              -0.001908940              -0.001469211               0.002030778               0.000561567               0.000000000               0.000000000               0.000000000               0.000000000              -0.001746243               0.004930281              -0.001744720              -0.001271124               0.002067118               0.000795994               0.000000000               0.000000000               0.000000000               0.000000000              -0.001145016               0.005152442              -0.001590032              -0.001073434               0.002075275               0.001001840               0.000000000               0.000000000               0.000000000               0.000000000              -0.000564079               0.005299882              -0.001446065              -0.000874013               0.002057947               0.001183934               0.000000000               0.000000000               0.000000000               0.000000000              -0.000007176               0.005372127              -0.001308906              -0.000674206               0.002015426               0.001341220               0.000000000               0.000000000               0.000000000               0.000000000               0.000525794               0.005373723              -0.001169057              -0.000474542               0.001949404               0.001474862               0.000000000               0.000000000               0.000000000               0.000000000               0.001049220               0.005327825              -0.001011810              -0.000272521               0.001866764               0.001594243               0.000000000               0.000000000               0.000000000               0.000000000               0.001561710               0.005252032              -0.000824615              -0.000070863               0.001774281               0.001703418               0.000000000               0.000000000               0.000000000               0.000000000               0.002040801               0.005157565              -0.000602722               0.000120603               0.001678970               0.001799573               0.000000000               0.000000000               0.000000000               0.000000000               0.002464808               0.005073910              -0.000329228               0.000290061               0.001594599               0.001884661               0.000000000               0.000000000               0.000000000               0.000000000               0.002717075               0.005061270              -0.000189029               0.000386241               0.001558326               0.001944567               0.000000000               0.000000000               0.000000000               0.000000000              -0.013273260              -0.001174836               0.001344984              -0.004830615               0.001218584              -0.003612031               0.000000000               0.000000000               0.000000000               0.000000000              -0.009371497              -0.000187159               0.000001127              -0.003490914               0.001101244              -0.002389670               0.000000000               0.000000000               0.000000000               0.000000000              -0.006390053               0.000562684              -0.001248966              -0.002466603               0.001009755              -0.001456848               0.000000000               0.000000000               0.000000000               0.000000000              -0.004715460               0.001518156              -0.001653938              -0.001958064               0.001158732              -0.000799333               0.000000000               0.000000000               0.000000000               0.000000000              -0.003614602               0.002381206              -0.001724737              -0.001653124               0.001344767              -0.000308357               0.000000000               0.000000000               0.000000000               0.000000000              -0.002782347               0.003095694              -0.001663207              -0.001430339               0.001508666               0.000078327               0.000000000               0.000000000               0.000000000               0.000000000              -0.002082143               0.003663802              -0.001553605              -0.001238776               0.001634180               0.000395404               0.000000000               0.000000000               0.000000000               0.000000000              -0.001451181               0.004105238              -0.001435528              -0.001057345               0.001720847               0.000663501               0.000000000               0.000000000               0.000000000               0.000000000              -0.000853008               0.004450534              -0.001323674              -0.000876193               0.001775560               0.000899367               0.000000000               0.000000000               0.000000000               0.000000000              -0.000269808               0.004716025              -0.001215288              -0.000690680               0.001802219               0.001111539               0.000000000               0.000000000               0.000000000               0.000000000               0.000305416               0.004912085              -0.001107150              -0.000499479               0.001803838               0.001304359               0.000000000               0.000000000               0.000000000               0.000000000               0.000878381               0.005037291              -0.000999673              -0.000300268               0.001779170               0.001478901               0.000000000               0.000000000               0.000000000               0.000000000               0.001462145               0.005099488              -0.000884723              -0.000089132               0.001729523               0.001640391               0.000000000               0.000000000               0.000000000               0.000000000               0.002069740               0.005119287              -0.000738945               0.000136240               0.001660999               0.001797238               0.000000000               0.000000000               0.000000000               0.000000000               0.002693098               0.005105390              -0.000549990               0.000371734               0.001577868               0.001949603               0.000000000               0.000000000               0.000000000               0.000000000               0.003327419               0.005060500              -0.000304129               0.000615214               0.001481745               0.002096959               0.000000000               0.000000000               0.000000000               0.000000000               0.003770787               0.005077059              -0.000181594               0.000779405               0.001432535               0.002211939               0.000000000               0.000000000               0.000000000               0.000000000              -0.014463997              -0.001285547               0.000773110              -0.005263302               0.001325909              -0.003937393               0.000000000               0.000000000               0.000000000               0.000000000              -0.010054478              -0.000620933               0.000038752              -0.003692810               0.001023952              -0.002668858               0.000000000               0.000000000               0.000000000               0.000000000              -0.006562978              -0.000205530              -0.000654437              -0.002435424               0.000743293              -0.001692131               0.000000000               0.000000000               0.000000000               0.000000000              -0.004641066               0.000655194              -0.000896051              -0.001822297               0.000825825              -0.000996472               0.000000000               0.000000000               0.000000000               0.000000000              -0.003425168               0.001524059              -0.000950555              -0.001474943               0.000999660              -0.000475283               0.000000000               0.000000000               0.000000000               0.000000000              -0.002544018               0.002297475              -0.000926493              -0.001241189               0.001179546              -0.000061643               0.000000000               0.000000000               0.000000000               0.000000000              -0.001828509               0.002947115              -0.000872885              -0.001054078               0.001333721               0.000279643               0.000000000               0.000000000               0.000000000               0.000000000              -0.001196036               0.003473719              -0.000812416              -0.000882726               0.001452137               0.000569410               0.000000000               0.000000000               0.000000000               0.000000000              -0.000604364               0.003902909              -0.000753052              -0.000714499               0.001539123               0.000824624               0.000000000               0.000000000               0.000000000               0.000000000              -0.000026646               0.004253452              -0.000694586              -0.000541673               0.001598361               0.001056688               0.000000000               0.000000000               0.000000000               0.000000000               0.000556051               0.004536768              -0.000637073              -0.000358576               0.001631766               0.001273190               0.000000000               0.000000000               0.000000000               0.000000000               0.001155094               0.004753299              -0.000582346              -0.000161002               0.001638085               0.001477082               0.000000000               0.000000000               0.000000000               0.000000000               0.001778076               0.004903703              -0.000526739               0.000053814               0.001616613               0.001670428               0.000000000               0.000000000               0.000000000               0.000000000               0.002442013               0.004996258              -0.000447462               0.000291220               0.001568329               0.001859549               0.000000000               0.000000000               0.000000000               0.000000000               0.003169770               0.005039618              -0.000336639               0.000558706               0.001493621               0.002052327               0.000000000               0.000000000               0.000000000               0.000000000               0.003979937               0.005032523              -0.000191169               0.000863402               0.001389690               0.002253092               0.000000000               0.000000000               0.000000000               0.000000000               0.004589344               0.005080456              -0.000120102               0.001085936               0.001331490               0.002417426               0.000000000               0.000000000               0.000000000               0.000000000               0.000000000               0.000000000               0.000000000               0.000000000               0.000000000               0.000000000               0.000000000               0.000000000               0.000000000               0.000000000               0.000000000               0.000000000               0.000000000               0.000000000               0.000000000               0.000000000               0.000000000               0.000000000               0.000000000               0.000000000               0.000000000               0.000000000               0.000000000               0.000000000               0.000000000               0.000000000               0.000000000               0.000000000               0.000000000               0.000000000               0.000000000               0.000000000               0.000000000               0.000000000               0.000000000               0.000000000               0.000000000               0.000000000               0.000000000               0.000000000               0.000000000               0.000000000               0.000000000               0.000000000               0.000000000               0.000000000               0.000000000               0.000000000               0.000000000               0.000000000               0.000000000               0.000000000               0.000000000               0.000000000               0.000000000               0.000000000               0.000000000               0.000000000               0.000000000               0.000000000               0.000000000               0.000000000               0.000000000               0.000000000               0.000000000               0.000000000               0.000000000               0.000000000               0.000000000               0.000000000               0.000000000               0.000000000               0.000000000               0.000000000               0.000000000               0.000000000               0.000000000               0.000000000               0.000000000               0.000000000               0.000000000               0.000000000               0.000000000               0.000000000               0.000000000               0.000000000               0.000000000               0.000000000               0.000000000               0.000000000               0.000000000               0.000000000               0.000000000               0.000000000               0.000000000               0.000000000               0.000000000               0.000000000               0.000000000               0.000000000               0.000000000               0.000000000               0.000000000               0.000000000               0.000000000               0.000000000               0.000000000               0.000000000               0.000000000               0.000000000               0.000000000               0.000000000               0.000000000               0.000000000               0.000000000               0.000000000               0.000000000               0.000000000               0.000000000               0.000000000               0.000000000               0.000000000               0.000000000               0.000000000               0.000000000               0.000000000               0.000000000               0.000000000               0.000000000               0.000000000               0.000000000               0.000000000               0.000000000               0.000000000               0.000000000               0.000000000               0.000000000               0.000000000               0.000000000               0.000000000               0.000000000               0.000000000               0.000000000               0.000000000               0.000000000               0.000000000               0.000000000               0.000000000               0.000000000               0.000000000               0.000000000               0.000000000               0.000000000               0.000000000               0.000000000               0.000000000               0.000000000               0.000000000               0.000000000               0.000000000               0.000000000               0.000000000               0.000000000               0.000000000               0.000000000               0.000000000               0.000000000               0.000000000               0.000000000               0.000000000               0.000000000               0.000000000               0.000000000               0.000000000               0.000000000               0.000000000               0.000000000               0.000000000               0.000000000               0.000000000               0.000000000               0.000000000               0.000000000               0.000000000               0.000000000               0.000000000               0.000000000               0.000000000               0.000000000               0.000000000               0.000000000               0.000000000               0.000000000               0.000000000               0.000000000               0.000000000               0.000000000               0.000000000               0.000000000               0.000000000               0.000000000               0.000000000               0.000000000               0.000000000               0.000000000               0.000000000               0.000000000               0.000000000               0.000000000               0.000000000               0.000000000               0.000000000               0.000000000               0.000000000               0.000000000               0.000000000               0.000000000               0.000000000               0.000000000               0.000000000               0.000000000               0.000000000               0.000000000               0.000000000               0.000000000               0.000000000               0.000000000               0.000000000               0.000000000               0.000000000               0.000000000               0.000000000               0.000000000               0.000000000               0.000000000               0.000000000               0.000000000               0.000000000               0.000000000               0.000000000               0.000000000               0.000000000               0.000000000               0.000000000               0.000000000               0.000000000               0.000000000               0.000000000               0.000000000               0.000000000               0.000000000               0.000000000               0.000000000               0.000000000               0.000000000               0.000000000               0.000000000               0.000000000               0.000000000               0.000000000               0.000000000               0.000000000               0.000000000               0.000000000               0.000000000               0.000000000               0.000000000               0.000000000               0.000000000               0.000000000               0.000000000               0.000000000               0.000000000               0.000000000               0.000000000               0.000000000               0.000000000               0.000000000               0.000000000               0.000000000               0.000000000               0.000000000               0.000000000               0.000000000               0.000000000               0.000000000               0.000000000               0.000000000               0.000000000               0.000000000               0.000000000               0.000000000               0.000000000               0.000000000               0.000000000               0.000000000               0.000000000               0.000000000               0.000000000               0.000000000               0.000000000               0.000000000               0.000000000               0.000000000               0.000000000               0.000000000               0.000000000               0.000000000               0.000000000               0.000000000               0.000000000               0.000000000               0.000000000               0.000000000               0.000000000               0.000000000               0.000000000               0.000000000               0.000000000               0.000000000               0.000000000               0.000000000               0.000000000               0.000000000               0.000000000               0.000000000               0.000000000               0.000000000               0.000000000               0.000000000               0.000000000               0.000000000               0.000000000               0.000000000               0.000000000               0.000000000               0.000000000               0.000000000               0.000000000               0.000000000               0.002241800               0.022432038               0.001490629              -0.001963325               0.008131713               0.006168388               0.000000000               0.000000000               0.000000000               0.000000000               0.002011353               0.017191889               0.000639451              -0.001394725               0.006195481               0.004800755               0.000000000               0.000000000               0.000000000               0.000000000               0.002464057               0.012985950              -0.000196023              -0.000699221               0.004561680               0.003862460               0.000000000               0.000000000               0.000000000               0.000000000               0.002220804               0.010605230              -0.000529775              -0.000492851               0.003699325               0.003206474               0.000000000               0.000000000               0.000000000               0.000000000               0.001806163               0.009077237              -0.000650238              -0.000457343               0.003178163               0.002720820               0.000000000               0.000000000               0.000000000               0.000000000               0.001381619               0.007986321              -0.000681567              -0.000480182               0.002822141               0.002341959               0.000000000               0.000000000               0.000000000               0.000000000               0.001002809               0.007132955              -0.000672718              -0.000515565               0.002549483               0.002033918               0.000000000               0.000000000               0.000000000               0.000000000               0.000687221               0.006407743              -0.000640332              -0.000543259               0.002316979               0.001773720               0.000000000               0.000000000               0.000000000               0.000000000               0.000435265               0.005749374              -0.000601711              -0.000555446               0.002101587               0.001546141               0.000000000               0.000000000               0.000000000               0.000000000               0.000235697               0.005124384              -0.000567704              -0.000552161               0.001892164               0.001340004               0.000000000               0.000000000               0.000000000               0.000000000               0.000076211               0.004514376              -0.000535151              -0.000535717               0.001683349               0.001147632               0.000000000               0.000000000               0.000000000               0.000000000              -0.000044620               0.003902409              -0.000499424              -0.000504533               0.001468968               0.000964435               0.000000000               0.000000000               0.000000000               0.000000000              -0.000122456               0.003274401              -0.000448449              -0.000455220               0.001243196               0.000787976               0.000000000               0.000000000               0.000000000               0.000000000              -0.000155122               0.002608081              -0.000376579              -0.000384180               0.000997412               0.000613232               0.000000000               0.000000000               0.000000000               0.000000000              -0.000143964               0.001886795              -0.000284377              -0.000289835               0.000725537               0.000435702               0.000000000               0.000000000               0.000000000               0.000000000              -0.000086211               0.001099787              -0.000160498              -0.000169802               0.000423193               0.000253390               0.000000000               0.000000000               0.000000000               0.000000000              -0.000106337               0.000515450              -0.000100412              -0.000104307               0.000206584               0.000102276               0.000000000               0.000000000               0.000000000               0.000000000               0.002357158               0.020996828               0.002747754              -0.001740666               0.007579094               0.005838428               0.000000000               0.000000000               0.000000000               0.000000000               0.001774404               0.016298490               0.001167953              -0.001371907               0.005890078               0.004518171               0.000000000               0.000000000               0.000000000               0.000000000               0.001850297               0.012655371              -0.000363906              -0.000888058               0.004514434               0.003626376               0.000000000               0.000000000               0.000000000               0.000000000               0.001474572               0.010558097              -0.000950539              -0.000766796               0.003774929               0.003008133               0.000000000               0.000000000               0.000000000               0.000000000               0.001049104               0.009172467              -0.001151302              -0.000753143               0.003308506               0.002555363               0.000000000               0.000000000               0.000000000               0.000000000               0.000674787               0.008151380              -0.001192520              -0.000765876               0.002972391               0.002206515               0.000000000               0.000000000               0.000000000               0.000000000               0.000370173               0.007322955              -0.001164746              -0.000776553               0.002699811               0.001923258               0.000000000               0.000000000               0.000000000               0.000000000               0.000136754               0.006602252              -0.001104544              -0.000773997               0.002458727               0.001684730               0.000000000               0.000000000               0.000000000               0.000000000              -0.000028221               0.005949134              -0.001035409              -0.000754223               0.002234432               0.001480209               0.000000000               0.000000000               0.000000000               0.000000000              -0.000145771               0.005331831              -0.000972426              -0.000721142               0.002017640               0.001296498               0.000000000               0.000000000               0.000000000               0.000000000              -0.000227603               0.004733884              -0.000910966              -0.000677085               0.001803640               0.001126555               0.000000000               0.000000000               0.000000000               0.000000000              -0.000268182               0.004143422              -0.000842585              -0.000618495               0.001587291               0.000968797               0.000000000               0.000000000               0.000000000               0.000000000              -0.000272677               0.003550522              -0.000752068              -0.000546068               0.001365518               0.000819450               0.000000000               0.000000000               0.000000000               0.000000000              -0.000243827               0.002952581              -0.000626120              -0.000460507               0.001137686               0.000677179               0.000000000               0.000000000               0.000000000               0.000000000              -0.000184685               0.002348745              -0.000464528              -0.000362849               0.000903857               0.000541008               0.000000000               0.000000000               0.000000000               0.000000000              -0.000101075               0.001743500              -0.000257462              -0.000255840               0.000666441               0.000410601               0.000000000               0.000000000               0.000000000               0.000000000              -0.000096057               0.001327323              -0.000156179              -0.000201937               0.000509749               0.000307812               0.000000000               0.000000000               0.000000000               0.000000000               0.002422186               0.018810227               0.003594292              -0.001442957               0.006750998               0.005308041               0.000000000               0.000000000               0.000000000               0.000000000               0.001349329               0.014964275               0.001517553              -0.001364533               0.005442886               0.004078353               0.000000000               0.000000000               0.000000000               0.000000000               0.000908466               0.012159238              -0.000460749              -0.001179227               0.004446114               0.003266887               0.000000000               0.000000000               0.000000000               0.000000000               0.000394460               0.010455299              -0.001169434              -0.001158987               0.003871394               0.002712407               0.000000000               0.000000000               0.000000000               0.000000000              -0.000010266               0.009261586              -0.001390930              -0.001161546               0.003474346               0.002312801               0.000000000               0.000000000               0.000000000               0.000000000              -0.000292318               0.008330656              -0.001422115              -0.001150949               0.003160507               0.002009558               0.000000000               0.000000000               0.000000000               0.000000000              -0.000472808               0.007541339              -0.001375085              -0.001119968               0.002887077               0.001767109               0.000000000               0.000000000               0.000000000               0.000000000              -0.000576491               0.006835910              -0.001295257              -0.001070671               0.002635504               0.001564833               0.000000000               0.000000000               0.000000000               0.000000000              -0.000618457               0.006188466              -0.001207890              -0.001005477               0.002397960               0.001392483               0.000000000               0.000000000               0.000000000               0.000000000              -0.000618374               0.005581206              -0.001126111              -0.000929539               0.002170229               0.001240690               0.000000000               0.000000000               0.000000000               0.000000000              -0.000585721               0.005000729              -0.001046324              -0.000844735               0.001948471               0.001103736               0.000000000               0.000000000               0.000000000               0.000000000              -0.000518459               0.004443789              -0.000954726              -0.000749894               0.001731213               0.000981319               0.000000000               0.000000000               0.000000000               0.000000000              -0.000426943               0.003909344              -0.000838412              -0.000648770               0.001519358               0.000870588               0.000000000               0.000000000               0.000000000               0.000000000              -0.000323063               0.003410017              -0.000685448              -0.000547400               0.001319127               0.000771728               0.000000000               0.000000000               0.000000000               0.000000000              -0.000212335               0.002959512              -0.000494778              -0.000449564               0.001136349               0.000686785               0.000000000               0.000000000               0.000000000               0.000000000              -0.000104341               0.002579713              -0.000265766              -0.000361591               0.000980426               0.000618835               0.000000000               0.000000000               0.000000000               0.000000000              -0.000070861               0.002364553              -0.000150254              -0.000322141               0.000895557               0.000573416               0.000000000               0.000000000               0.000000000               0.000000000               0.002292530               0.016146045               0.003944554              -0.001158557               0.005768146               0.004609589               0.000000000               0.000000000               0.000000000               0.000000000               0.000721677               0.013370509               0.001675537              -0.001400682               0.004923686               0.003523003               0.000000000               0.000000000               0.000000000               0.000000000              -0.000245726               0.011557109              -0.000445010              -0.001536782               0.004364592               0.002827810               0.000000000               0.000000000               0.000000000               0.000000000              -0.000831163               0.010284887              -0.001145151              -0.001597293               0.003960692               0.002363399               0.000000000               0.000000000               0.000000000               0.000000000              -0.001139859               0.009289561              -0.001340965              -0.001588639               0.003626036               0.002037397               0.000000000               0.000000000               0.000000000               0.000000000              -0.001275536               0.008445487              -0.001352249              -0.001534008               0.003326470               0.001792462               0.000000000               0.000000000               0.000000000               0.000000000              -0.001299159               0.007692735              -0.001292551              -0.001448773               0.003047143               0.001598370               0.000000000               0.000000000               0.000000000               0.000000000              -0.001249047               0.007007689              -0.001205851              -0.001344351               0.002783990               0.001439639               0.000000000               0.000000000               0.000000000               0.000000000              -0.001148677               0.006375534              -0.001113576              -0.001227693               0.002534388               0.001306695               0.000000000               0.000000000               0.000000000               0.000000000              -0.001014242               0.005786586              -0.001026915              -0.001103662               0.002296730               0.001193068               0.000000000               0.000000000               0.000000000               0.000000000              -0.000854355               0.005235946              -0.000939424              -0.000974874               0.002070256               0.001095382               0.000000000               0.000000000               0.000000000               0.000000000              -0.000678333               0.004725460              -0.000838075              -0.000845056               0.001856823               0.001011767               0.000000000               0.000000000               0.000000000               0.000000000              -0.000500532               0.004266737              -0.000715374              -0.000721040               0.001662578               0.000941538               0.000000000               0.000000000               0.000000000               0.000000000              -0.000335846               0.003877182              -0.000562556              -0.000610589               0.001495910               0.000885322               0.000000000               0.000000000               0.000000000               0.000000000              -0.000192389               0.003578858              -0.000383290              -0.000519502               0.001366108               0.000846606               0.000000000               0.000000000               0.000000000               0.000000000              -0.000083432               0.003391970              -0.000193510              -0.000455282               0.001282406               0.000827124               0.000000000               0.000000000               0.000000000               0.000000000              -0.000037840               0.003330092              -0.000097679              -0.000430450               0.001253503               0.000823053               0.000000000               0.000000000               0.000000000               0.000000000               0.001841737               0.013289389               0.003821020              -0.000970523               0.004753259               0.003782736               0.000000000               0.000000000               0.000000000               0.000000000              -0.000096277               0.011693476               0.001679186              -0.001497786               0.004397048               0.002899262               0.000000000               0.000000000               0.000000000               0.000000000              -0.001466251               0.010897900              -0.000293094              -0.001912077               0.004269956               0.002357879               0.000000000               0.000000000               0.000000000               0.000000000              -0.002006210               0.010025781              -0.000891478              -0.002005546               0.004010409               0.002004863               0.000000000               0.000000000               0.000000000               0.000000000              -0.002144776               0.009198301              -0.001041702              -0.001954074               0.003717428               0.001763354               0.000000000               0.000000000               0.000000000               0.000000000              -0.002091851               0.008427751              -0.001038503              -0.001837909               0.003421858               0.001583950               0.000000000               0.000000000               0.000000000               0.000000000              -0.001937190               0.007714339              -0.000981809              -0.001690735               0.003134999               0.001444264               0.000000000               0.000000000               0.000000000               0.000000000              -0.001725361               0.007058749              -0.000905742              -0.001529350               0.002862676               0.001333326               0.000000000               0.000000000               0.000000000               0.000000000              -0.001482146               0.006455552              -0.000824073              -0.001362746               0.002606078               0.001243332               0.000000000               0.000000000               0.000000000               0.000000000              -0.001221100               0.005901703              -0.000745408              -0.001195622               0.002365755               0.001170133               0.000000000               0.000000000               0.000000000               0.000000000              -0.000957259               0.005395750              -0.000663008              -0.001033438               0.002143045               0.001109606               0.000000000               0.000000000               0.000000000               0.000000000              -0.000701959               0.004945294              -0.000567499              -0.000881394               0.001942213               0.001060819               0.000000000               0.000000000               0.000000000               0.000000000              -0.000469237               0.004564769              -0.000459655              -0.000746558               0.001770427               0.001023869               0.000000000               0.000000000               0.000000000               0.000000000              -0.000276628               0.004277264              -0.000337457              -0.000638392               0.001638538               0.001000146               0.000000000               0.000000000               0.000000000               0.000000000              -0.000132250               0.004094050              -0.000208354              -0.000561348               0.001551786               0.000990437               0.000000000               0.000000000               0.000000000               0.000000000              -0.000044576               0.004014621              -0.000093754              -0.000518542               0.001511041               0.000992499               0.000000000               0.000000000               0.000000000               0.000000000              -0.000012003               0.004009358              -0.000040794              -0.000505670               0.001504996               0.000999326               0.000000000               0.000000000               0.000000000               0.000000000               0.001023586               0.010486866               0.003320545              -0.000927014               0.003804591               0.002877577               0.000000000               0.000000000               0.000000000               0.000000000              -0.001049254               0.010070162               0.001586417              -0.001652237               0.003907433               0.002255195               0.000000000               0.000000000               0.000000000               0.000000000              -0.002617183               0.010202791              -0.000004055              -0.002256787               0.004153159               0.001896372               0.000000000               0.000000000               0.000000000               0.000000000              -0.002986461               0.009657189              -0.000457692              -0.002327066               0.003994719               0.001667654               0.000000000               0.000000000               0.000000000               0.000000000              -0.002895832               0.008966102              -0.000575648              -0.002206694               0.003724236               0.001517541               0.000000000               0.000000000               0.000000000               0.000000000              -0.002634514               0.008266020              -0.000581851              -0.002021190               0.003429043               0.001407852               0.000000000               0.000000000               0.000000000               0.000000000              -0.002304210               0.007600169              -0.000550590              -0.001814095               0.003138063               0.001323967               0.000000000               0.000000000               0.000000000               0.000000000              -0.001941580               0.006988124              -0.000503502              -0.001601604               0.002863219               0.001261615               0.000000000               0.000000000               0.000000000               0.000000000              -0.001574034               0.006428345              -0.000445927              -0.001393803               0.002607361               0.001213559               0.000000000               0.000000000               0.000000000               0.000000000              -0.001214557               0.005919096              -0.000386773              -0.001195343               0.002371460               0.001176117               0.000000000               0.000000000               0.000000000               0.000000000              -0.000879978               0.005465150              -0.000325423              -0.001013133               0.002159409               0.001146276               0.000000000               0.000000000               0.000000000               0.000000000              -0.000591214               0.005077491              -0.000255952              -0.000856389               0.001977943               0.001121554               0.000000000               0.000000000               0.000000000               0.000000000              -0.000355231               0.004776825              -0.000189535              -0.000730313               0.001835697               0.001105384               0.000000000               0.000000000               0.000000000               0.000000000              -0.000180714               0.004572831              -0.000125489              -0.000639370               0.001737385               0.001098015               0.000000000               0.000000000               0.000000000               0.000000000              -0.000070317               0.004459270              -0.000064925              -0.000583776               0.001681000               0.001097224               0.000000000               0.000000000               0.000000000               0.000000000              -0.000016767               0.004418153              -0.000023990              -0.000558555               0.001658888               0.001100333               0.000000000               0.000000000               0.000000000               0.000000000              -0.000006422               0.004413520              -0.000010087              -0.000554097               0.001655858               0.001101761               0.000000000               0.000000000               0.000000000               0.000000000              -0.000114334               0.007927509               0.002557292              -0.001033813               0.002987080               0.001953267               0.000000000               0.000000000               0.000000000               0.000000000              -0.002078263               0.008598834               0.001449300              -0.001854199               0.003484315               0.001630116               0.000000000               0.000000000               0.000000000               0.000000000              -0.003584036               0.009471806               0.000402365              -0.002527983               0.003999898               0.001471915               0.000000000               0.000000000               0.000000000               0.000000000              -0.003679738               0.009175446               0.000076743              -0.002526826               0.003900727               0.001373900               0.000000000               0.000000000               0.000000000               0.000000000              -0.003339140               0.008604844              -0.000044344              -0.002327777               0.003644178               0.001316401               0.000000000               0.000000000               0.000000000               0.000000000              -0.002877047               0.007979404              -0.000086886              -0.002076313               0.003351879               0.001275566               0.000000000               0.000000000               0.000000000               0.000000000              -0.002389314               0.007375766              -0.000098594              -0.001817959               0.003064551               0.001246591               0.000000000               0.000000000               0.000000000               0.000000000              -0.001905030               0.006818335              -0.000091600              -0.001566674               0.002794980               0.001228306               0.000000000               0.000000000               0.000000000               0.000000000              -0.001447576               0.006304903              -0.000068337              -0.001330951               0.002545264               0.001214313               0.000000000               0.000000000               0.000000000               0.000000000              -0.001028574               0.005841230              -0.000044255              -0.001115866               0.002319013               0.001203146               0.000000000               0.000000000               0.000000000               0.000000000              -0.000666195               0.005442483              -0.000023226              -0.000930131               0.002124187               0.001194055               0.000000000               0.000000000               0.000000000               0.000000000              -0.000382222               0.005124273              -0.000005781              -0.000783865               0.001969362               0.001185497               0.000000000               0.000000000               0.000000000               0.000000000              -0.000180557               0.004899930               0.000001748              -0.000680199               0.001860026               0.001179828               0.000000000               0.000000000               0.000000000               0.000000000              -0.000062313               0.004759692               0.000001929              -0.000618327               0.001792657               0.001174330               0.000000000               0.000000000               0.000000000               0.000000000              -0.000006739               0.004698235               0.000000408              -0.000589805               0.001762665               0.001172859               0.000000000               0.000000000               0.000000000               0.000000000               0.000005934               0.004689547              -0.000002284              -0.000583967               0.001757822               0.001173855               0.000000000               0.000000000               0.000000000               0.000000000               0.000000035               0.004697399              -0.000003280              -0.000587160               0.001761504               0.001174344               0.000000000               0.000000000               0.000000000               0.000000000              -0.001436901               0.005795027               0.001652751              -0.001263214               0.002352727               0.001089513               0.000000000               0.000000000               0.000000000               0.000000000              -0.003080990               0.007287365               0.001306957              -0.002066287               0.003117859               0.001051572               0.000000000               0.000000000               0.000000000               0.000000000              -0.004341680               0.008724725               0.000885981              -0.002718714               0.003814450               0.001095737               0.000000000               0.000000000               0.000000000               0.000000000              -0.004148603               0.008684499               0.000637394              -0.002641282               0.003775231               0.001133949               0.000000000               0.000000000               0.000000000               0.000000000              -0.003601266               0.008257311               0.000484398              -0.002382633               0.003546621               0.001163988               0.000000000               0.000000000               0.000000000               0.000000000              -0.002981779               0.007730061               0.000387916              -0.002084420               0.003271468               0.001187048               0.000000000               0.000000000               0.000000000               0.000000000              -0.002369450               0.007205393               0.000324771              -0.001789213               0.002998178               0.001208965               0.000000000               0.000000000               0.000000000               0.000000000              -0.001791687               0.006707848               0.000285566              -0.001510360               0.002739380               0.001229020               0.000000000               0.000000000               0.000000000               0.000000000              -0.001268192               0.006237709               0.000261974              -0.001255283               0.002497643               0.001242360               0.000000000               0.000000000               0.000000000               0.000000000              -0.000812044               0.005814186               0.000240498              -0.001031287               0.002281805               0.001250518               0.000000000               0.000000000               0.000000000               0.000000000              -0.000434129               0.005459059               0.000210968              -0.000845179               0.002101395               0.001256216               0.000000000               0.000000000               0.000000000               0.000000000              -0.000159720               0.005183314               0.000170777              -0.000707808               0.001963690               0.001255883               0.000000000               0.000000000               0.000000000               0.000000000               0.000004236               0.004994526               0.000121765              -0.000622726               0.001872401               0.001249675               0.000000000               0.000000000               0.000000000               0.000000000               0.000074850               0.004890683               0.000066716              -0.000583265               0.001824633               0.001241368               0.000000000               0.000000000               0.000000000               0.000000000               0.000080717               0.004858027               0.000018898              -0.000576983               0.001811654               0.001234671               0.000000000               0.000000000               0.000000000               0.000000000               0.000054902               0.004869301              -0.000007014              -0.000588073               0.001819108               0.001231035               0.000000000               0.000000000               0.000000000               0.000000000               0.000036010               0.004887520              -0.000012560              -0.000597435               0.001828302               0.001230867               0.000000000               0.000000000               0.000000000               0.000000000              -0.002951074               0.003842802               0.000719672              -0.001586999               0.001809921               0.000222921               0.000000000               0.000000000               0.000000000               0.000000000              -0.003929961               0.005770004               0.001153633              -0.002194981               0.002654975               0.000459995               0.000000000               0.000000000               0.000000000               0.000000000              -0.004812596               0.007608304               0.001387925              -0.002755755               0.003454661               0.000698906               0.000000000               0.000000000               0.000000000               0.000000000              -0.004470044               0.007952716               0.001226501              -0.002670349               0.003540995               0.000870646               0.000000000               0.000000000               0.000000000               0.000000000              -0.003831163               0.007797726               0.001039582              -0.002411396               0.003403015               0.000991619               0.000000000               0.000000000               0.000000000               0.000000000              -0.003151574               0.007471340               0.000883773              -0.002115753               0.003195672               0.001079920               0.000000000               0.000000000               0.000000000               0.000000000              -0.002491903               0.007103067               0.000765164              -0.001822343               0.002975113               0.001152770               0.000000000               0.000000000               0.000000000               0.000000000              -0.001877926               0.006733444               0.000670483              -0.001545899               0.002759759               0.001213860               0.000000000               0.000000000               0.000000000               0.000000000              -0.001326597               0.006357503               0.000591422              -0.001292159               0.002549866               0.001257707               0.000000000               0.000000000               0.000000000               0.000000000              -0.000845908               0.005988636               0.000522027              -0.001065792               0.002351456               0.001285664               0.000000000               0.000000000               0.000000000               0.000000000              -0.000443611               0.005649537               0.000448899              -0.000872544               0.002174008               0.001301464               0.000000000               0.000000000               0.000000000               0.000000000              -0.000131167               0.005360287               0.000362902              -0.000719222               0.002026485               0.001307263               0.000000000               0.000000000               0.000000000               0.000000000               0.000076984               0.005141154               0.000264859              -0.000613774               0.001918292               0.001304518               0.000000000               0.000000000               0.000000000               0.000000000               0.000182416               0.005003573               0.000162650              -0.000557039               0.001853521               0.001296482               0.000000000               0.000000000               0.000000000               0.000000000               0.000205988               0.004945869               0.000074553              -0.000540987               0.001828936               0.001287949               0.000000000               0.000000000               0.000000000               0.000000000               0.000179295               0.004951931               0.000018679              -0.000551754               0.001834545               0.001282791               0.000000000               0.000000000               0.000000000               0.000000000               0.000145480               0.004962000              -0.000004268              -0.000565693               0.001842548               0.001276855               0.000000000               0.000000000               0.000000000               0.000000000              -0.004861699               0.002097164              -0.000169336              -0.002085279               0.001394138              -0.000691141               0.000000000               0.000000000               0.000000000               0.000000000              -0.004896279               0.004244649               0.000943371              -0.002366681               0.002203761              -0.000162919               0.000000000               0.000000000               0.000000000               0.000000000              -0.005212378               0.006283755               0.001790891              -0.002740105               0.003007932               0.000267827               0.000000000               0.000000000               0.000000000               0.000000000              -0.004739236               0.006986927               0.001785894              -0.002650573               0.003212476               0.000561903               0.000000000               0.000000000               0.000000000               0.000000000              -0.004053643               0.007140093               0.001602532              -0.002412622               0.003184214               0.000771592               0.000000000               0.000000000               0.000000000               0.000000000              -0.003341937               0.007058370               0.001405553              -0.002135518               0.003064605               0.000929088               0.000000000               0.000000000               0.000000000               0.000000000              -0.002663488               0.006880791               0.001232880              -0.001858903               0.002913208               0.001054305               0.000000000               0.000000000               0.000000000               0.000000000              -0.002030691               0.006664195               0.001083224              -0.001594530               0.002752886               0.001158356               0.000000000               0.000000000               0.000000000               0.000000000              -0.001453683               0.006412608               0.000954540              -0.001346704               0.002586416               0.001239712               0.000000000               0.000000000               0.000000000               0.000000000              -0.000936522               0.006133762               0.000842559              -0.001117913               0.002417204               0.001299291               0.000000000               0.000000000               0.000000000               0.000000000              -0.000486008               0.005842686               0.000734280              -0.000912587               0.002251738               0.001339151               0.000000000               0.000000000               0.000000000               0.000000000              -0.000108530               0.005558715               0.000618100              -0.000735536               0.002098065               0.001362529               0.000000000               0.000000000               0.000000000               0.000000000               0.000182344               0.005311213               0.000485082              -0.000595521               0.001968894               0.001373372               0.000000000               0.000000000               0.000000000               0.000000000               0.000375002               0.005127799               0.000340172              -0.000500348               0.001876032               0.001375684               0.000000000               0.000000000               0.000000000               0.000000000               0.000464947               0.005018596               0.000200540              -0.000452968               0.001823838               0.001370870               0.000000000               0.000000000               0.000000000               0.000000000               0.000459486               0.004984856               0.000085129              -0.000450798               0.001811868               0.001361070               0.000000000               0.000000000               0.000000000               0.000000000               0.000406398               0.004969237               0.000025478              -0.000468754               0.001812647               0.001343893               0.000000000               0.000000000               0.000000000               0.000000000              -0.007038977               0.000694024              -0.000925424              -0.002726367               0.001140122              -0.001586244               0.000000000               0.000000000               0.000000000               0.000000000              -0.006012664               0.002814174               0.000670404              -0.002606516               0.001806884              -0.000799632               0.000000000               0.000000000               0.000000000               0.000000000              -0.005557086               0.004774133               0.001994750              -0.002680668               0.002484916              -0.000195752               0.000000000               0.000000000               0.000000000               0.000000000              -0.004865100               0.005723577               0.002185546              -0.002539854               0.002754457               0.000214603               0.000000000               0.000000000               0.000000000               0.000000000              -0.004120943               0.006163287               0.002057101              -0.002315759               0.002826328               0.000510568               0.000000000               0.000000000               0.000000000               0.000000000              -0.003391675               0.006338257               0.001854445              -0.002064156               0.002800783               0.000736627               0.000000000               0.000000000               0.000000000               0.000000000              -0.002710162               0.006369112               0.001652277              -0.001812446               0.002727164               0.000914719               0.000000000               0.000000000               0.000000000               0.000000000              -0.002072328               0.006327515               0.001468235              -0.001568059               0.002631837               0.001063778               0.000000000               0.000000000               0.000000000               0.000000000              -0.001478059               0.006230667               0.001304431              -0.001333103               0.002521236               0.001188133               0.000000000               0.000000000               0.000000000               0.000000000              -0.000934368               0.006075426               0.001160616              -0.001109814               0.002395059               0.001285246               0.000000000               0.000000000               0.000000000               0.000000000              -0.000441090               0.005877181               0.001027059              -0.000900055               0.002259059               0.001359004               0.000000000               0.000000000               0.000000000               0.000000000              -0.000001210               0.005656832               0.000888028              -0.000707556               0.002121444               0.001413888               0.000000000               0.000000000               0.000000000               0.000000000               0.000369019               0.005432342               0.000729314              -0.000540659               0.001990982               0.001450323               0.000000000               0.000000000               0.000000000               0.000000000               0.000656824               0.005239637               0.000551871              -0.000408645               0.001882743               0.001474098               0.000000000               0.000000000               0.000000000               0.000000000               0.000847439               0.005101071               0.000365201              -0.000319843               0.001806954               0.001487111               0.000000000               0.000000000               0.000000000               0.000000000               0.000926190               0.005030342               0.000179534              -0.000281471               0.001770588               0.001489117               0.000000000               0.000000000               0.000000000               0.000000000               0.000911426               0.004999871               0.000080371              -0.000283199               0.001761006               0.001477808               0.000000000               0.000000000               0.000000000               0.000000000              -0.009321430              -0.000293978              -0.001431039              -0.003458786               0.001054928              -0.002403858               0.000000000               0.000000000               0.000000000               0.000000000              -0.007210200               0.001554226               0.000384306              -0.002898100               0.001484098              -0.001414001               0.000000000               0.000000000               0.000000000               0.000000000              -0.005866331               0.003211723               0.001968332              -0.002601335               0.001937672              -0.000663663               0.000000000               0.000000000               0.000000000               0.000000000              -0.004871659               0.004269867               0.002329220              -0.002360601               0.002210140              -0.000150461               0.000000000               0.000000000               0.000000000               0.000000000              -0.004037049               0.004930747               0.002285918              -0.002130232               0.002353642               0.000223410               0.000000000               0.000000000               0.000000000               0.000000000              -0.003291567               0.005339991               0.002113107              -0.001901832               0.002413923               0.000512090               0.000000000               0.000000000               0.000000000               0.000000000              -0.002608031               0.005585787               0.001915935              -0.001676232               0.002420654               0.000744422               0.000000000               0.000000000               0.000000000               0.000000000              -0.001973924               0.005725801               0.001727095              -0.001455944               0.002393895               0.000937952               0.000000000               0.000000000               0.000000000               0.000000000              -0.001374260               0.005791089               0.001553358              -0.001239231               0.002343420               0.001104189               0.000000000               0.000000000               0.000000000               0.000000000              -0.000809847               0.005788403               0.001397051              -0.001027241               0.002271862               0.001244621               0.000000000               0.000000000               0.000000000               0.000000000              -0.000280872               0.005722351               0.001254289              -0.000820619               0.002180971               0.001360351               0.000000000               0.000000000               0.000000000               0.000000000               0.000209417               0.005603063               0.001105604              -0.000621850               0.002074952               0.001453102               0.000000000               0.000000000               0.000000000               0.000000000               0.000659926               0.005452068               0.000934419              -0.000434036               0.001962016               0.001527981               0.000000000               0.000000000               0.000000000               0.000000000               0.001057498               0.005298306               0.000739369              -0.000265726               0.001854660               0.001588933               0.000000000               0.000000000               0.000000000               0.000000000               0.001381516               0.005161425               0.000521327              -0.000127110               0.001762828               0.001635718               0.000000000               0.000000000               0.000000000               0.000000000               0.001609050               0.005067341               0.000277094              -0.000030024               0.001699105               0.001669081               0.000000000               0.000000000               0.000000000               0.000000000               0.001700886               0.005036149               0.000150112               0.000008313               0.001675928               0.001684241               0.000000000               0.000000000               0.000000000               0.000000000              -0.011481155              -0.000882287              -0.001583495              -0.004195144               0.001104278              -0.003090867               0.000000000               0.000000000               0.000000000               0.000000000              -0.008377018               0.000541682               0.000144508              -0.003209089               0.001250248              -0.001958841               0.000000000               0.000000000               0.000000000               0.000000000              -0.006148923               0.001749704               0.001709623              -0.002524556               0.001424743              -0.001099813               0.000000000               0.000000000               0.000000000               0.000000000              -0.004805394               0.002794856               0.002153006              -0.002151376               0.001648732              -0.000502644               0.000000000               0.000000000               0.000000000               0.000000000              -0.003845992               0.003596852               0.002186283              -0.001891850               0.001829554              -0.000062296               0.000000000               0.000000000               0.000000000               0.000000000              -0.003064884               0.004191102               0.002069879              -0.001673216               0.001954758               0.000281542               0.000000000               0.000000000               0.000000000               0.000000000              -0.002376846               0.004623172               0.001908940              -0.001469211               0.002030778               0.000561567               0.000000000               0.000000000               0.000000000               0.000000000              -0.001746243               0.004930281               0.001744720              -0.001271124               0.002067118               0.000795994               0.000000000               0.000000000               0.000000000               0.000000000              -0.001145016               0.005152442               0.001590032              -0.001073434               0.002075275               0.001001840               0.000000000               0.000000000               0.000000000               0.000000000              -0.000564079               0.005299882               0.001446065              -0.000874013               0.002057947               0.001183934               0.000000000               0.000000000               0.000000000               0.000000000              -0.000007176               0.005372127               0.001308906              -0.000674206               0.002015426               0.001341220               0.000000000               0.000000000               0.000000000               0.000000000               0.000525794               0.005373723               0.001169057              -0.000474542               0.001949404               0.001474862               0.000000000               0.000000000               0.000000000               0.000000000               0.001049220               0.005327825               0.001011810              -0.000272521               0.001866764               0.001594243               0.000000000               0.000000000               0.000000000               0.000000000               0.001561710               0.005252032               0.000824615              -0.000070863               0.001774281               0.001703418               0.000000000               0.000000000               0.000000000               0.000000000               0.002040801               0.005157565               0.000602722               0.000120603               0.001678970               0.001799573               0.000000000               0.000000000               0.000000000               0.000000000               0.002464808               0.005073910               0.000329228               0.000290061               0.001594599               0.001884661               0.000000000               0.000000000               0.000000000               0.000000000               0.002717075               0.005061270               0.000189029               0.000386241               0.001558326               0.001944567               0.000000000               0.000000000               0.000000000               0.000000000              -0.013273260              -0.001174836              -0.001344984              -0.004830615               0.001218584              -0.003612031               0.000000000               0.000000000               0.000000000               0.000000000              -0.009371497              -0.000187159              -0.000001127              -0.003490914               0.001101244              -0.002389670               0.000000000               0.000000000               0.000000000               0.000000000              -0.006390053               0.000562684               0.001248966              -0.002466603               0.001009755              -0.001456848               0.000000000               0.000000000               0.000000000               0.000000000              -0.004715460               0.001518156               0.001653938              -0.001958064               0.001158732              -0.000799333               0.000000000               0.000000000               0.000000000               0.000000000              -0.003614602               0.002381206               0.001724737              -0.001653124               0.001344767              -0.000308357               0.000000000               0.000000000               0.000000000               0.000000000              -0.002782347               0.003095694               0.001663207              -0.001430339               0.001508666               0.000078327               0.000000000               0.000000000               0.000000000               0.000000000              -0.002082143               0.003663802               0.001553605              -0.001238776               0.001634180               0.000395404               0.000000000               0.000000000               0.000000000               0.000000000              -0.001451181               0.004105238               0.001435528              -0.001057345               0.001720847               0.000663501               0.000000000               0.000000000               0.000000000               0.000000000              -0.000853008               0.004450534               0.001323674              -0.000876193               0.001775560               0.000899367               0.000000000               0.000000000               0.000000000               0.000000000              -0.000269808               0.004716025               0.001215288              -0.000690680               0.001802219               0.001111539               0.000000000               0.000000000               0.000000000               0.000000000               0.000305416               0.004912085               0.001107150              -0.000499479               0.001803838               0.001304359               0.000000000               0.000000000               0.000000000               0.000000000               0.000878381               0.005037291               0.000999673              -0.000300268               0.001779170               0.001478901               0.000000000               0.000000000               0.000000000               0.000000000               0.001462145               0.005099488               0.000884723              -0.000089132               0.001729523               0.001640391               0.000000000               0.000000000               0.000000000               0.000000000               0.002069740               0.005119287               0.000738945               0.000136240               0.001660999               0.001797238               0.000000000               0.000000000               0.000000000               0.000000000               0.002693098               0.005105390               0.000549990               0.000371734               0.001577868               0.001949603               0.000000000               0.000000000               0.000000000               0.000000000               0.003327419               0.005060500               0.000304129               0.000615214               0.001481745               0.002096959               0.000000000               0.000000000               0.000000000               0.000000000               0.003770787               0.005077059               0.000181594               0.000779405               0.001432535               0.002211939               0.000000000               0.000000000               0.000000000               0.000000000              -0.014463997              -0.001285547              -0.000773110              -0.005263302               0.001325909              -0.003937393               0.000000000               0.000000000               0.000000000               0.000000000              -0.010054478              -0.000620933              -0.000038752              -0.003692810               0.001023952              -0.002668858               0.000000000               0.000000000               0.000000000               0.000000000              -0.006562978              -0.000205530               0.000654437              -0.002435424               0.000743293              -0.001692131               0.000000000               0.000000000               0.000000000               0.000000000              -0.004641066               0.000655194               0.000896051              -0.001822297               0.000825825              -0.000996472               0.000000000               0.000000000               0.000000000               0.000000000              -0.003425168               0.001524059               0.000950555              -0.001474943               0.000999660              -0.000475283               0.000000000               0.000000000               0.000000000               0.000000000              -0.002544018               0.002297475               0.000926493              -0.001241189               0.001179546              -0.000061643               0.000000000               0.000000000               0.000000000               0.000000000              -0.001828509               0.002947115               0.000872885              -0.001054078               0.001333721               0.000279643               0.000000000               0.000000000               0.000000000               0.000000000              -0.001196036               0.003473719               0.000812416              -0.000882726               0.001452137               0.000569410               0.000000000               0.000000000               0.000000000               0.000000000              -0.000604364               0.003902909               0.000753052              -0.000714499               0.001539123               0.000824624               0.000000000               0.000000000               0.000000000               0.000000000              -0.000026646               0.004253452               0.000694586              -0.000541673               0.001598361               0.001056688               0.000000000               0.000000000               0.000000000               0.000000000               0.000556051               0.004536768               0.000637073              -0.000358576               0.001631766               0.001273190               0.000000000               0.000000000               0.000000000               0.000000000               0.001155094               0.004753299               0.000582346              -0.000161002               0.001638085               0.001477082               0.000000000               0.000000000               0.000000000               0.000000000               0.001778076               0.004903703               0.000526739               0.000053814               0.001616613               0.001670428               0.000000000               0.000000000               0.000000000               0.000000000               0.002442013               0.004996258               0.000447462               0.000291220               0.001568329               0.001859549               0.000000000               0.000000000               0.000000000               0.000000000               0.003169770               0.005039618               0.000336639               0.000558706               0.001493621               0.002052327               0.000000000               0.000000000               0.000000000               0.000000000               0.003979937               0.005032523               0.000191169               0.000863402               0.001389690               0.002253092               0.000000000               0.000000000               0.000000000               0.000000000               0.004589344               0.005080456               0.000120102               0.001085936               0.001331490               0.002417426               0.000000000               0.000000000               0.000000000               0.000000000               0.000000000               0.000000000               0.000000000               0.000000000               0.000000000               0.000000000               0.000000000               0.000000000               0.000000000               0.000000000               0.000000000               0.000000000               0.000000000               0.000000000               0.000000000               0.000000000               0.000000000               0.000000000               0.000000000               0.000000000               0.000000000               0.000000000               0.000000000               0.000000000               0.000000000               0.000000000               0.000000000               0.000000000               0.000000000               0.000000000               0.000000000               0.000000000               0.000000000               0.000000000               0.000000000               0.000000000               0.000000000               0.000000000               0.000000000               0.000000000               0.000000000               0.000000000               0.000000000               0.000000000               0.000000000               0.000000000               0.000000000               0.000000000               0.000000000               0.000000000               0.000000000               0.000000000               0.000000000               0.000000000               0.000000000               0.000000000               0.000000000               0.000000000               0.000000000               0.000000000               0.000000000               0.000000000               0.000000000               0.000000000               0.000000000               0.000000000               0.000000000               0.000000000               0.000000000               0.000000000               0.000000000               0.000000000               0.000000000               0.000000000               0.000000000               0.000000000               0.000000000               0.000000000               0.000000000               0.000000000               0.000000000               0.000000000               0.000000000               0.000000000               0.000000000               0.000000000               0.000000000               0.000000000               0.000000000               0.000000000               0.000000000               0.000000000               0.000000000               0.000000000               0.000000000               0.000000000               0.000000000               0.000000000               0.000000000               0.000000000               0.000000000               0.000000000               0.000000000               0.000000000               0.000000000               0.000000000               0.000000000               0.000000000               0.000000000               0.000000000               0.000000000               0.000000000               0.000000000               0.000000000               0.000000000               0.000000000               0.000000000               0.000000000               0.000000000               0.000000000               0.000000000               0.000000000               0.000000000               0.000000000               0.000000000               0.000000000               0.000000000               0.000000000               0.000000000               0.000000000               0.000000000               0.000000000               0.000000000               0.000000000               0.000000000               0.000000000               0.000000000               0.000000000               0.000000000               0.000000000               0.000000000               0.000000000               0.000000000               0.000000000               0.000000000               0.000000000               0.000000000               0.000000000               0.000000000               0.000000000               0.000000000               0.000000000               0.000000000               0.000000000               0.000000000               0.000000000               0.000000000               0.000000000               0.000000000               0.000000000               0.000000000               0.000000000               0.000000000               0.000000000               0.000000000               0.000000000               0.000000000               0.000000000               0.000000000               0.000000000 </DataArray>
</PointData>
</Piece>
</UnstructuredGrid> </VTKFile>
