<?xml version="1.0"?>
<VTKFile type="UnstructuredGrid" version="0.1">
<UnstructuredGrid>
<Piece NumberOfPoints="      1156" NumberOfCells="      1024">
<Points>
<DataArray type="Float64"                                    Name="coordinates"                                                      NumberOfComponents=" 3" format="ascii">
              0.133000000               0.000000000               0.000000000               0.155937500               0.000000000               0.000000000               0.178875000               0.000000000               0.000000000               0.201812500               0.000000000               0.000000000               0.224750000               0.000000000               0.000000000               0.247687500               0.000000000               0.000000000               0.270625000               0.000000000               0.000000000               0.293562500               0.000000000               0.000000000               0.316500000               0.000000000               0.000000000               0.339437500               0.000000000               0.000000000               0.362375000               0.000000000               0.000000000               0.385312500               0.000000000               0.000000000               0.408250000               0.000000000               0.000000000               0.431187500               0.000000000               0.000000000               0.454125000               0.000000000               0.000000000               0.477062500               0.000000000               0.000000000               0.500000000               0.000000000               0.000000000               0.132359569               0.013036280               0.000000000               0.155337096               0.016127762               0.000000000               0.178314623               0.019219245               0.000000000               0.201292150               0.022310727               0.000000000               0.224269676               0.025402210               0.000000000               0.247247203               0.028493692               0.000000000               0.270224730               0.031585175               0.000000000               0.293202257               0.034676657               0.000000000               0.316179784               0.037768140               0.000000000               0.339157311               0.040859622               0.000000000               0.362134838               0.043951105               0.000000000               0.385112365               0.047042587               0.000000000               0.408089892               0.050134070               0.000000000               0.431067419               0.053225552               0.000000000               0.454044946               0.056317035               0.000000000               0.477022473               0.059408517               0.000000000               0.500000000               0.062500000               0.000000000               0.130444442               0.025947013               0.000000000               0.153541665               0.032137825               0.000000000               0.176638887               0.038328636               0.000000000               0.199736109               0.044519448               0.000000000               0.222833332               0.050710260               0.000000000               0.245930554               0.056901071               0.000000000               0.269027776               0.063091883               0.000000000               0.292124999               0.069282695               0.000000000               0.315222221               0.075473506               0.000000000               0.338319444               0.081664318               0.000000000               0.361416666               0.087855130               0.000000000               0.384513888               0.094045942               0.000000000               0.407611111               0.100236753               0.000000000               0.430708333               0.106427565               0.000000000               0.453805555               0.112618377               0.000000000               0.476902778               0.118809188               0.000000000               0.500000000               0.125000000               0.000000000               0.127273065               0.038607862               0.000000000               0.150568498               0.047913621               0.000000000               0.173863932               0.057219379               0.000000000               0.197159365               0.066525138               0.000000000               0.220454798               0.075830897               0.000000000               0.243750232               0.085136655               0.000000000               0.267045665               0.094442414               0.000000000               0.290341099               0.103748172               0.000000000               0.313636532               0.113053931               0.000000000               0.336931966               0.122359690               0.000000000               0.360227399               0.131665448               0.000000000               0.383522833               0.140971207               0.000000000               0.406818266               0.150276966               0.000000000               0.430113700               0.159582724               0.000000000               0.453409133               0.168888483               0.000000000               0.476704567               0.178194241               0.000000000               0.500000000               0.187500000               0.000000000               0.122875978               0.050896897               0.000000000               0.146446229               0.063340840               0.000000000               0.170016481               0.075784784               0.000000000               0.193586732               0.088228728               0.000000000               0.217156983               0.100672672               0.000000000               0.240727235               0.113116616               0.000000000               0.264297486               0.125560560               0.000000000               0.287867738               0.138004504               0.000000000               0.311437989               0.150448448               0.000000000               0.335008240               0.162892392               0.000000000               0.358578492               0.175336336               0.000000000               0.382148743               0.187780280               0.000000000               0.405718994               0.200224224               0.000000000               0.429289246               0.212668168               0.000000000               0.452859497               0.225112112               0.000000000               0.476429749               0.237556056               0.000000000               0.500000000               0.250000000               0.000000000               0.117295528               0.062695766               0.000000000               0.141214558               0.078308531               0.000000000               0.165133587               0.093921295               0.000000000               0.189052617               0.109534060               0.000000000               0.212971646               0.125146824               0.000000000               0.236890676               0.140759589               0.000000000               0.260809705               0.156372354               0.000000000               0.284728735               0.171985118               0.000000000               0.308647764               0.187597883               0.000000000               0.332566794               0.203210648               0.000000000               0.356485823               0.218823412               0.000000000               0.380404853               0.234436177               0.000000000               0.404323882               0.250048941               0.000000000               0.428242912               0.265661706               0.000000000               0.452161941               0.281274471               0.000000000               0.476080971               0.296887235               0.000000000               0.500000000               0.312500000               0.000000000               0.110585458               0.073890841               0.000000000               0.134923867               0.092710163               0.000000000               0.159262276               0.111529486               0.000000000               0.183600685               0.130348808               0.000000000               0.207939094               0.149168131               0.000000000               0.232277503               0.167987453               0.000000000               0.256615912               0.186806776               0.000000000               0.280954320               0.205626098               0.000000000               0.305292729               0.224445420               0.000000000               0.329631138               0.243264743               0.000000000               0.353969547               0.262084065               0.000000000               0.378307956               0.280903388               0.000000000               0.402646365               0.299722710               0.000000000               0.426984773               0.318542033               0.000000000               0.451323182               0.337361355               0.000000000               0.475661591               0.356180678               0.000000000               0.500000000               0.375000000               0.000000000               0.102810390               0.084374307               0.000000000               0.127634741               0.106444663               0.000000000               0.152459092               0.128515018               0.000000000               0.177283442               0.150585374               0.000000000               0.202107793               0.172655730               0.000000000               0.226932143               0.194726086               0.000000000               0.251756494               0.216796442               0.000000000               0.276580845               0.238866798               0.000000000               0.301405195               0.260937153               0.000000000               0.326229546               0.283007509               0.000000000               0.351053896               0.305077865               0.000000000               0.375878247               0.327148221               0.000000000               0.400702598               0.349218577               0.000000000               0.425526948               0.371288933               0.000000000               0.450351299               0.393359288               0.000000000               0.475175649               0.415429644               0.000000000               0.500000000               0.437500000               0.000000000               0.094045202               0.094045202               0.000000000               0.119417377               0.119417377               0.000000000               0.144789552               0.144789552               0.000000000               0.170161727               0.170161727               0.000000000               0.195533901               0.195533901               0.000000000               0.220906076               0.220906076               0.000000000               0.246278251               0.246278251               0.000000000               0.271650426               0.271650426               0.000000000               0.297022601               0.297022601               0.000000000               0.322394776               0.322394776               0.000000000               0.347766951               0.347766951               0.000000000               0.373139126               0.373139126               0.000000000               0.398511300               0.398511300               0.000000000               0.423883475               0.423883475               0.000000000               0.449255650               0.449255650               0.000000000               0.474627825               0.474627825               0.000000000               0.500000000               0.500000000               0.000000000               0.084374307               0.102810390               0.000000000               0.106444663               0.127634741               0.000000000               0.128515018               0.152459092               0.000000000               0.150585374               0.177283442               0.000000000               0.172655730               0.202107793               0.000000000               0.194726086               0.226932143               0.000000000               0.216796442               0.251756494               0.000000000               0.238866798               0.276580845               0.000000000               0.260937153               0.301405195               0.000000000               0.283007509               0.326229546               0.000000000               0.305077865               0.351053896               0.000000000               0.327148221               0.375878247               0.000000000               0.349218577               0.400702598               0.000000000               0.371288933               0.425526948               0.000000000               0.393359288               0.450351299               0.000000000               0.415429644               0.475175649               0.000000000               0.437500000               0.500000000               0.000000000               0.073890841               0.110585458               0.000000000               0.092710163               0.134923867               0.000000000               0.111529486               0.159262276               0.000000000               0.130348808               0.183600685               0.000000000               0.149168131               0.207939094               0.000000000               0.167987453               0.232277503               0.000000000               0.186806776               0.256615912               0.000000000               0.205626098               0.280954320               0.000000000               0.224445420               0.305292729               0.000000000               0.243264743               0.329631138               0.000000000               0.262084065               0.353969547               0.000000000               0.280903388               0.378307956               0.000000000               0.299722710               0.402646365               0.000000000               0.318542033               0.426984773               0.000000000               0.337361355               0.451323182               0.000000000               0.356180678               0.475661591               0.000000000               0.375000000               0.500000000               0.000000000               0.062695766               0.117295528               0.000000000               0.078308531               0.141214558               0.000000000               0.093921295               0.165133587               0.000000000               0.109534060               0.189052617               0.000000000               0.125146824               0.212971646               0.000000000               0.140759589               0.236890676               0.000000000               0.156372354               0.260809705               0.000000000               0.171985118               0.284728735               0.000000000               0.187597883               0.308647764               0.000000000               0.203210648               0.332566794               0.000000000               0.218823412               0.356485823               0.000000000               0.234436177               0.380404853               0.000000000               0.250048941               0.404323882               0.000000000               0.265661706               0.428242912               0.000000000               0.281274471               0.452161941               0.000000000               0.296887235               0.476080971               0.000000000               0.312500000               0.500000000               0.000000000               0.050896897               0.122875978               0.000000000               0.063340840               0.146446229               0.000000000               0.075784784               0.170016481               0.000000000               0.088228728               0.193586732               0.000000000               0.100672672               0.217156983               0.000000000               0.113116616               0.240727235               0.000000000               0.125560560               0.264297486               0.000000000               0.138004504               0.287867738               0.000000000               0.150448448               0.311437989               0.000000000               0.162892392               0.335008240               0.000000000               0.175336336               0.358578492               0.000000000               0.187780280               0.382148743               0.000000000               0.200224224               0.405718994               0.000000000               0.212668168               0.429289246               0.000000000               0.225112112               0.452859497               0.000000000               0.237556056               0.476429749               0.000000000               0.250000000               0.500000000               0.000000000               0.038607862               0.127273065               0.000000000               0.047913621               0.150568498               0.000000000               0.057219379               0.173863932               0.000000000               0.066525138               0.197159365               0.000000000               0.075830897               0.220454798               0.000000000               0.085136655               0.243750232               0.000000000               0.094442414               0.267045665               0.000000000               0.103748172               0.290341099               0.000000000               0.113053931               0.313636532               0.000000000               0.122359690               0.336931966               0.000000000               0.131665448               0.360227399               0.000000000               0.140971207               0.383522833               0.000000000               0.150276966               0.406818266               0.000000000               0.159582724               0.430113700               0.000000000               0.168888483               0.453409133               0.000000000               0.178194241               0.476704567               0.000000000               0.187500000               0.500000000               0.000000000               0.025947013               0.130444442               0.000000000               0.032137825               0.153541665               0.000000000               0.038328636               0.176638887               0.000000000               0.044519448               0.199736109               0.000000000               0.050710260               0.222833332               0.000000000               0.056901071               0.245930554               0.000000000               0.063091883               0.269027776               0.000000000               0.069282695               0.292124999               0.000000000               0.075473506               0.315222221               0.000000000               0.081664318               0.338319444               0.000000000               0.087855130               0.361416666               0.000000000               0.094045942               0.384513888               0.000000000               0.100236753               0.407611111               0.000000000               0.106427565               0.430708333               0.000000000               0.112618377               0.453805555               0.000000000               0.118809188               0.476902778               0.000000000               0.125000000               0.500000000               0.000000000               0.013036280               0.132359569               0.000000000               0.016127762               0.155337096               0.000000000               0.019219245               0.178314623               0.000000000               0.022310727               0.201292150               0.000000000               0.025402210               0.224269676               0.000000000               0.028493692               0.247247203               0.000000000               0.031585175               0.270224730               0.000000000               0.034676657               0.293202257               0.000000000               0.037768140               0.316179784               0.000000000               0.040859622               0.339157311               0.000000000               0.043951105               0.362134838               0.000000000               0.047042587               0.385112365               0.000000000               0.050134070               0.408089892               0.000000000               0.053225552               0.431067419               0.000000000               0.056317035               0.454044946               0.000000000               0.059408517               0.477022473               0.000000000               0.062500000               0.500000000               0.000000000               0.000000000               0.133000000               0.000000000               0.000000000               0.155937500               0.000000000               0.000000000               0.178875000               0.000000000               0.000000000               0.201812500               0.000000000               0.000000000               0.224750000               0.000000000               0.000000000               0.247687500               0.000000000               0.000000000               0.270625000               0.000000000               0.000000000               0.293562500               0.000000000               0.000000000               0.316500000               0.000000000               0.000000000               0.339437500               0.000000000               0.000000000               0.362375000               0.000000000               0.000000000               0.385312500               0.000000000               0.000000000               0.408250000               0.000000000               0.000000000               0.431187500               0.000000000               0.000000000               0.454125000               0.000000000               0.000000000               0.477062500               0.000000000               0.000000000               0.500000000               0.000000000               0.133000000               0.000000000               0.000000000               0.155937500               0.000000000               0.000000000               0.178875000               0.000000000               0.000000000               0.201812500               0.000000000               0.000000000               0.224750000               0.000000000               0.000000000               0.247687500               0.000000000               0.000000000               0.270625000               0.000000000               0.000000000               0.293562500               0.000000000               0.000000000               0.316500000               0.000000000               0.000000000               0.339437500               0.000000000               0.000000000               0.362375000               0.000000000               0.000000000               0.385312500               0.000000000               0.000000000               0.408250000               0.000000000               0.000000000               0.431187500               0.000000000               0.000000000               0.454125000               0.000000000               0.000000000               0.477062500               0.000000000               0.000000000               0.500000000               0.000000000               0.000000000               0.132359569              -0.013036280               0.000000000               0.155337096              -0.016127762               0.000000000               0.178314623              -0.019219245               0.000000000               0.201292150              -0.022310727               0.000000000               0.224269676              -0.025402210               0.000000000               0.247247203              -0.028493692               0.000000000               0.270224730              -0.031585175               0.000000000               0.293202257              -0.034676657               0.000000000               0.316179784              -0.037768140               0.000000000               0.339157311              -0.040859622               0.000000000               0.362134838              -0.043951105               0.000000000               0.385112365              -0.047042587               0.000000000               0.408089892              -0.050134070               0.000000000               0.431067419              -0.053225552               0.000000000               0.454044946              -0.056317035               0.000000000               0.477022473              -0.059408517               0.000000000               0.500000000              -0.062500000               0.000000000               0.130444442              -0.025947013               0.000000000               0.153541665              -0.032137825               0.000000000               0.176638887              -0.038328636               0.000000000               0.199736109              -0.044519448               0.000000000               0.222833332              -0.050710260               0.000000000               0.245930554              -0.056901071               0.000000000               0.269027776              -0.063091883               0.000000000               0.292124999              -0.069282695               0.000000000               0.315222221              -0.075473506               0.000000000               0.338319444              -0.081664318               0.000000000               0.361416666              -0.087855130               0.000000000               0.384513888              -0.094045942               0.000000000               0.407611111              -0.100236753               0.000000000               0.430708333              -0.106427565               0.000000000               0.453805555              -0.112618377               0.000000000               0.476902778              -0.118809188               0.000000000               0.500000000              -0.125000000               0.000000000               0.127273065              -0.038607862               0.000000000               0.150568498              -0.047913621               0.000000000               0.173863932              -0.057219379               0.000000000               0.197159365              -0.066525138               0.000000000               0.220454798              -0.075830897               0.000000000               0.243750232              -0.085136655               0.000000000               0.267045665              -0.094442414               0.000000000               0.290341099              -0.103748172               0.000000000               0.313636532              -0.113053931               0.000000000               0.336931966              -0.122359690               0.000000000               0.360227399              -0.131665448               0.000000000               0.383522833              -0.140971207               0.000000000               0.406818266              -0.150276966               0.000000000               0.430113700              -0.159582724               0.000000000               0.453409133              -0.168888483               0.000000000               0.476704567              -0.178194241               0.000000000               0.500000000              -0.187500000               0.000000000               0.122875978              -0.050896897               0.000000000               0.146446229              -0.063340840               0.000000000               0.170016481              -0.075784784               0.000000000               0.193586732              -0.088228728               0.000000000               0.217156983              -0.100672672               0.000000000               0.240727235              -0.113116616               0.000000000               0.264297486              -0.125560560               0.000000000               0.287867738              -0.138004504               0.000000000               0.311437989              -0.150448448               0.000000000               0.335008240              -0.162892392               0.000000000               0.358578492              -0.175336336               0.000000000               0.382148743              -0.187780280               0.000000000               0.405718994              -0.200224224               0.000000000               0.429289246              -0.212668168               0.000000000               0.452859497              -0.225112112               0.000000000               0.476429749              -0.237556056               0.000000000               0.500000000              -0.250000000               0.000000000               0.117295528              -0.062695766               0.000000000               0.141214558              -0.078308531               0.000000000               0.165133587              -0.093921295               0.000000000               0.189052617              -0.109534060               0.000000000               0.212971646              -0.125146824               0.000000000               0.236890676              -0.140759589               0.000000000               0.260809705              -0.156372354               0.000000000               0.284728735              -0.171985118               0.000000000               0.308647764              -0.187597883               0.000000000               0.332566794              -0.203210648               0.000000000               0.356485823              -0.218823412               0.000000000               0.380404853              -0.234436177               0.000000000               0.404323882              -0.250048941               0.000000000               0.428242912              -0.265661706               0.000000000               0.452161941              -0.281274471               0.000000000               0.476080971              -0.296887235               0.000000000               0.500000000              -0.312500000               0.000000000               0.110585458              -0.073890841               0.000000000               0.134923867              -0.092710163               0.000000000               0.159262276              -0.111529486               0.000000000               0.183600685              -0.130348808               0.000000000               0.207939094              -0.149168131               0.000000000               0.232277503              -0.167987453               0.000000000               0.256615912              -0.186806776               0.000000000               0.280954320              -0.205626098               0.000000000               0.305292729              -0.224445420               0.000000000               0.329631138              -0.243264743               0.000000000               0.353969547              -0.262084065               0.000000000               0.378307956              -0.280903388               0.000000000               0.402646365              -0.299722710               0.000000000               0.426984773              -0.318542033               0.000000000               0.451323182              -0.337361355               0.000000000               0.475661591              -0.356180678               0.000000000               0.500000000              -0.375000000               0.000000000               0.102810390              -0.084374307               0.000000000               0.127634741              -0.106444663               0.000000000               0.152459092              -0.128515018               0.000000000               0.177283442              -0.150585374               0.000000000               0.202107793              -0.172655730               0.000000000               0.226932143              -0.194726086               0.000000000               0.251756494              -0.216796442               0.000000000               0.276580845              -0.238866798               0.000000000               0.301405195              -0.260937153               0.000000000               0.326229546              -0.283007509               0.000000000               0.351053896              -0.305077865               0.000000000               0.375878247              -0.327148221               0.000000000               0.400702598              -0.349218577               0.000000000               0.425526948              -0.371288933               0.000000000               0.450351299              -0.393359288               0.000000000               0.475175649              -0.415429644               0.000000000               0.500000000              -0.437500000               0.000000000               0.094045202              -0.094045202               0.000000000               0.119417377              -0.119417377               0.000000000               0.144789552              -0.144789552               0.000000000               0.170161727              -0.170161727               0.000000000               0.195533901              -0.195533901               0.000000000               0.220906076              -0.220906076               0.000000000               0.246278251              -0.246278251               0.000000000               0.271650426              -0.271650426               0.000000000               0.297022601              -0.297022601               0.000000000               0.322394776              -0.322394776               0.000000000               0.347766951              -0.347766951               0.000000000               0.373139126              -0.373139126               0.000000000               0.398511300              -0.398511300               0.000000000               0.423883475              -0.423883475               0.000000000               0.449255650              -0.449255650               0.000000000               0.474627825              -0.474627825               0.000000000               0.500000000              -0.500000000               0.000000000               0.084374307              -0.102810390               0.000000000               0.106444663              -0.127634741               0.000000000               0.128515018              -0.152459092               0.000000000               0.150585374              -0.177283442               0.000000000               0.172655730              -0.202107793               0.000000000               0.194726086              -0.226932143               0.000000000               0.216796442              -0.251756494               0.000000000               0.238866798              -0.276580845               0.000000000               0.260937153              -0.301405195               0.000000000               0.283007509              -0.326229546               0.000000000               0.305077865              -0.351053896               0.000000000               0.327148221              -0.375878247               0.000000000               0.349218577              -0.400702598               0.000000000               0.371288933              -0.425526948               0.000000000               0.393359288              -0.450351299               0.000000000               0.415429644              -0.475175649               0.000000000               0.437500000              -0.500000000               0.000000000               0.073890841              -0.110585458               0.000000000               0.092710163              -0.134923867               0.000000000               0.111529486              -0.159262276               0.000000000               0.130348808              -0.183600685               0.000000000               0.149168131              -0.207939094               0.000000000               0.167987453              -0.232277503               0.000000000               0.186806776              -0.256615912               0.000000000               0.205626098              -0.280954320               0.000000000               0.224445420              -0.305292729               0.000000000               0.243264743              -0.329631138               0.000000000               0.262084065              -0.353969547               0.000000000               0.280903388              -0.378307956               0.000000000               0.299722710              -0.402646365               0.000000000               0.318542033              -0.426984773               0.000000000               0.337361355              -0.451323182               0.000000000               0.356180678              -0.475661591               0.000000000               0.375000000              -0.500000000               0.000000000               0.062695766              -0.117295528               0.000000000               0.078308531              -0.141214558               0.000000000               0.093921295              -0.165133587               0.000000000               0.109534060              -0.189052617               0.000000000               0.125146824              -0.212971646               0.000000000               0.140759589              -0.236890676               0.000000000               0.156372354              -0.260809705               0.000000000               0.171985118              -0.284728735               0.000000000               0.187597883              -0.308647764               0.000000000               0.203210648              -0.332566794               0.000000000               0.218823412              -0.356485823               0.000000000               0.234436177              -0.380404853               0.000000000               0.250048941              -0.404323882               0.000000000               0.265661706              -0.428242912               0.000000000               0.281274471              -0.452161941               0.000000000               0.296887235              -0.476080971               0.000000000               0.312500000              -0.500000000               0.000000000               0.050896897              -0.122875978               0.000000000               0.063340840              -0.146446229               0.000000000               0.075784784              -0.170016481               0.000000000               0.088228728              -0.193586732               0.000000000               0.100672672              -0.217156983               0.000000000               0.113116616              -0.240727235               0.000000000               0.125560560              -0.264297486               0.000000000               0.138004504              -0.287867738               0.000000000               0.150448448              -0.311437989               0.000000000               0.162892392              -0.335008240               0.000000000               0.175336336              -0.358578492               0.000000000               0.187780280              -0.382148743               0.000000000               0.200224224              -0.405718994               0.000000000               0.212668168              -0.429289246               0.000000000               0.225112112              -0.452859497               0.000000000               0.237556056              -0.476429749               0.000000000               0.250000000              -0.500000000               0.000000000               0.038607862              -0.127273065               0.000000000               0.047913621              -0.150568498               0.000000000               0.057219379              -0.173863932               0.000000000               0.066525138              -0.197159365               0.000000000               0.075830897              -0.220454798               0.000000000               0.085136655              -0.243750232               0.000000000               0.094442414              -0.267045665               0.000000000               0.103748172              -0.290341099               0.000000000               0.113053931              -0.313636532               0.000000000               0.122359690              -0.336931966               0.000000000               0.131665448              -0.360227399               0.000000000               0.140971207              -0.383522833               0.000000000               0.150276966              -0.406818266               0.000000000               0.159582724              -0.430113700               0.000000000               0.168888483              -0.453409133               0.000000000               0.178194241              -0.476704567               0.000000000               0.187500000              -0.500000000               0.000000000               0.025947013              -0.130444442               0.000000000               0.032137825              -0.153541665               0.000000000               0.038328636              -0.176638887               0.000000000               0.044519448              -0.199736109               0.000000000               0.050710260              -0.222833332               0.000000000               0.056901071              -0.245930554               0.000000000               0.063091883              -0.269027776               0.000000000               0.069282695              -0.292124999               0.000000000               0.075473506              -0.315222221               0.000000000               0.081664318              -0.338319444               0.000000000               0.087855130              -0.361416666               0.000000000               0.094045942              -0.384513888               0.000000000               0.100236753              -0.407611111               0.000000000               0.106427565              -0.430708333               0.000000000               0.112618377              -0.453805555               0.000000000               0.118809188              -0.476902778               0.000000000               0.125000000              -0.500000000               0.000000000               0.013036280              -0.132359569               0.000000000               0.016127762              -0.155337096               0.000000000               0.019219245              -0.178314623               0.000000000               0.022310727              -0.201292150               0.000000000               0.025402210              -0.224269676               0.000000000               0.028493692              -0.247247203               0.000000000               0.031585175              -0.270224730               0.000000000               0.034676657              -0.293202257               0.000000000               0.037768140              -0.316179784               0.000000000               0.040859622              -0.339157311               0.000000000               0.043951105              -0.362134838               0.000000000               0.047042587              -0.385112365               0.000000000               0.050134070              -0.408089892               0.000000000               0.053225552              -0.431067419               0.000000000               0.056317035              -0.454044946               0.000000000               0.059408517              -0.477022473               0.000000000               0.062500000              -0.500000000               0.000000000               0.000000000              -0.133000000               0.000000000               0.000000000              -0.155937500               0.000000000               0.000000000              -0.178875000               0.000000000               0.000000000              -0.201812500               0.000000000               0.000000000              -0.224750000               0.000000000               0.000000000              -0.247687500               0.000000000               0.000000000              -0.270625000               0.000000000               0.000000000              -0.293562500               0.000000000               0.000000000              -0.316500000               0.000000000               0.000000000              -0.339437500               0.000000000               0.000000000              -0.362375000               0.000000000               0.000000000              -0.385312500               0.000000000               0.000000000              -0.408250000               0.000000000               0.000000000              -0.431187500               0.000000000               0.000000000              -0.454125000               0.000000000               0.000000000              -0.477062500               0.000000000               0.000000000              -0.500000000               0.000000000              -0.133000000               0.000000000               0.000000000              -0.155937500               0.000000000               0.000000000              -0.178875000               0.000000000               0.000000000              -0.201812500               0.000000000               0.000000000              -0.224750000               0.000000000               0.000000000              -0.247687500               0.000000000               0.000000000              -0.270625000               0.000000000               0.000000000              -0.293562500               0.000000000               0.000000000              -0.316500000               0.000000000               0.000000000              -0.339437500               0.000000000               0.000000000              -0.362375000               0.000000000               0.000000000              -0.385312500               0.000000000               0.000000000              -0.408250000               0.000000000               0.000000000              -0.431187500               0.000000000               0.000000000              -0.454125000               0.000000000               0.000000000              -0.477062500               0.000000000               0.000000000              -0.500000000               0.000000000               0.000000000              -0.132359569              -0.013036280               0.000000000              -0.155337096              -0.016127762               0.000000000              -0.178314623              -0.019219245               0.000000000              -0.201292150              -0.022310727               0.000000000              -0.224269676              -0.025402210               0.000000000              -0.247247203              -0.028493692               0.000000000              -0.270224730              -0.031585175               0.000000000              -0.293202257              -0.034676657               0.000000000              -0.316179784              -0.037768140               0.000000000              -0.339157311              -0.040859622               0.000000000              -0.362134838              -0.043951105               0.000000000              -0.385112365              -0.047042587               0.000000000              -0.408089892              -0.050134070               0.000000000              -0.431067419              -0.053225552               0.000000000              -0.454044946              -0.056317035               0.000000000              -0.477022473              -0.059408517               0.000000000              -0.500000000              -0.062500000               0.000000000              -0.130444442              -0.025947013               0.000000000              -0.153541665              -0.032137825               0.000000000              -0.176638887              -0.038328636               0.000000000              -0.199736109              -0.044519448               0.000000000              -0.222833332              -0.050710260               0.000000000              -0.245930554              -0.056901071               0.000000000              -0.269027776              -0.063091883               0.000000000              -0.292124999              -0.069282695               0.000000000              -0.315222221              -0.075473506               0.000000000              -0.338319444              -0.081664318               0.000000000              -0.361416666              -0.087855130               0.000000000              -0.384513888              -0.094045942               0.000000000              -0.407611111              -0.100236753               0.000000000              -0.430708333              -0.106427565               0.000000000              -0.453805555              -0.112618377               0.000000000              -0.476902778              -0.118809188               0.000000000              -0.500000000              -0.125000000               0.000000000              -0.127273065              -0.038607862               0.000000000              -0.150568498              -0.047913621               0.000000000              -0.173863932              -0.057219379               0.000000000              -0.197159365              -0.066525138               0.000000000              -0.220454798              -0.075830897               0.000000000              -0.243750232              -0.085136655               0.000000000              -0.267045665              -0.094442414               0.000000000              -0.290341099              -0.103748172               0.000000000              -0.313636532              -0.113053931               0.000000000              -0.336931966              -0.122359690               0.000000000              -0.360227399              -0.131665448               0.000000000              -0.383522833              -0.140971207               0.000000000              -0.406818266              -0.150276966               0.000000000              -0.430113700              -0.159582724               0.000000000              -0.453409133              -0.168888483               0.000000000              -0.476704567              -0.178194241               0.000000000              -0.500000000              -0.187500000               0.000000000              -0.122875978              -0.050896897               0.000000000              -0.146446229              -0.063340840               0.000000000              -0.170016481              -0.075784784               0.000000000              -0.193586732              -0.088228728               0.000000000              -0.217156983              -0.100672672               0.000000000              -0.240727235              -0.113116616               0.000000000              -0.264297486              -0.125560560               0.000000000              -0.287867738              -0.138004504               0.000000000              -0.311437989              -0.150448448               0.000000000              -0.335008240              -0.162892392               0.000000000              -0.358578492              -0.175336336               0.000000000              -0.382148743              -0.187780280               0.000000000              -0.405718994              -0.200224224               0.000000000              -0.429289246              -0.212668168               0.000000000              -0.452859497              -0.225112112               0.000000000              -0.476429749              -0.237556056               0.000000000              -0.500000000              -0.250000000               0.000000000              -0.117295528              -0.062695766               0.000000000              -0.141214558              -0.078308531               0.000000000              -0.165133587              -0.093921295               0.000000000              -0.189052617              -0.109534060               0.000000000              -0.212971646              -0.125146824               0.000000000              -0.236890676              -0.140759589               0.000000000              -0.260809705              -0.156372354               0.000000000              -0.284728735              -0.171985118               0.000000000              -0.308647764              -0.187597883               0.000000000              -0.332566794              -0.203210648               0.000000000              -0.356485823              -0.218823412               0.000000000              -0.380404853              -0.234436177               0.000000000              -0.404323882              -0.250048941               0.000000000              -0.428242912              -0.265661706               0.000000000              -0.452161941              -0.281274471               0.000000000              -0.476080971              -0.296887235               0.000000000              -0.500000000              -0.312500000               0.000000000              -0.110585458              -0.073890841               0.000000000              -0.134923867              -0.092710163               0.000000000              -0.159262276              -0.111529486               0.000000000              -0.183600685              -0.130348808               0.000000000              -0.207939094              -0.149168131               0.000000000              -0.232277503              -0.167987453               0.000000000              -0.256615912              -0.186806776               0.000000000              -0.280954320              -0.205626098               0.000000000              -0.305292729              -0.224445420               0.000000000              -0.329631138              -0.243264743               0.000000000              -0.353969547              -0.262084065               0.000000000              -0.378307956              -0.280903388               0.000000000              -0.402646365              -0.299722710               0.000000000              -0.426984773              -0.318542033               0.000000000              -0.451323182              -0.337361355               0.000000000              -0.475661591              -0.356180678               0.000000000              -0.500000000              -0.375000000               0.000000000              -0.102810390              -0.084374307               0.000000000              -0.127634741              -0.106444663               0.000000000              -0.152459092              -0.128515018               0.000000000              -0.177283442              -0.150585374               0.000000000              -0.202107793              -0.172655730               0.000000000              -0.226932143              -0.194726086               0.000000000              -0.251756494              -0.216796442               0.000000000              -0.276580845              -0.238866798               0.000000000              -0.301405195              -0.260937153               0.000000000              -0.326229546              -0.283007509               0.000000000              -0.351053896              -0.305077865               0.000000000              -0.375878247              -0.327148221               0.000000000              -0.400702598              -0.349218577               0.000000000              -0.425526948              -0.371288933               0.000000000              -0.450351299              -0.393359288               0.000000000              -0.475175649              -0.415429644               0.000000000              -0.500000000              -0.437500000               0.000000000              -0.094045202              -0.094045202               0.000000000              -0.119417377              -0.119417377               0.000000000              -0.144789552              -0.144789552               0.000000000              -0.170161727              -0.170161727               0.000000000              -0.195533901              -0.195533901               0.000000000              -0.220906076              -0.220906076               0.000000000              -0.246278251              -0.246278251               0.000000000              -0.271650426              -0.271650426               0.000000000              -0.297022601              -0.297022601               0.000000000              -0.322394776              -0.322394776               0.000000000              -0.347766951              -0.347766951               0.000000000              -0.373139126              -0.373139126               0.000000000              -0.398511300              -0.398511300               0.000000000              -0.423883475              -0.423883475               0.000000000              -0.449255650              -0.449255650               0.000000000              -0.474627825              -0.474627825               0.000000000              -0.500000000              -0.500000000               0.000000000              -0.084374307              -0.102810390               0.000000000              -0.106444663              -0.127634741               0.000000000              -0.128515018              -0.152459092               0.000000000              -0.150585374              -0.177283442               0.000000000              -0.172655730              -0.202107793               0.000000000              -0.194726086              -0.226932143               0.000000000              -0.216796442              -0.251756494               0.000000000              -0.238866798              -0.276580845               0.000000000              -0.260937153              -0.301405195               0.000000000              -0.283007509              -0.326229546               0.000000000              -0.305077865              -0.351053896               0.000000000              -0.327148221              -0.375878247               0.000000000              -0.349218577              -0.400702598               0.000000000              -0.371288933              -0.425526948               0.000000000              -0.393359288              -0.450351299               0.000000000              -0.415429644              -0.475175649               0.000000000              -0.437500000              -0.500000000               0.000000000              -0.073890841              -0.110585458               0.000000000              -0.092710163              -0.134923867               0.000000000              -0.111529486              -0.159262276               0.000000000              -0.130348808              -0.183600685               0.000000000              -0.149168131              -0.207939094               0.000000000              -0.167987453              -0.232277503               0.000000000              -0.186806776              -0.256615912               0.000000000              -0.205626098              -0.280954320               0.000000000              -0.224445420              -0.305292729               0.000000000              -0.243264743              -0.329631138               0.000000000              -0.262084065              -0.353969547               0.000000000              -0.280903388              -0.378307956               0.000000000              -0.299722710              -0.402646365               0.000000000              -0.318542033              -0.426984773               0.000000000              -0.337361355              -0.451323182               0.000000000              -0.356180678              -0.475661591               0.000000000              -0.375000000              -0.500000000               0.000000000              -0.062695766              -0.117295528               0.000000000              -0.078308531              -0.141214558               0.000000000              -0.093921295              -0.165133587               0.000000000              -0.109534060              -0.189052617               0.000000000              -0.125146824              -0.212971646               0.000000000              -0.140759589              -0.236890676               0.000000000              -0.156372354              -0.260809705               0.000000000              -0.171985118              -0.284728735               0.000000000              -0.187597883              -0.308647764               0.000000000              -0.203210648              -0.332566794               0.000000000              -0.218823412              -0.356485823               0.000000000              -0.234436177              -0.380404853               0.000000000              -0.250048941              -0.404323882               0.000000000              -0.265661706              -0.428242912               0.000000000              -0.281274471              -0.452161941               0.000000000              -0.296887235              -0.476080971               0.000000000              -0.312500000              -0.500000000               0.000000000              -0.050896897              -0.122875978               0.000000000              -0.063340840              -0.146446229               0.000000000              -0.075784784              -0.170016481               0.000000000              -0.088228728              -0.193586732               0.000000000              -0.100672672              -0.217156983               0.000000000              -0.113116616              -0.240727235               0.000000000              -0.125560560              -0.264297486               0.000000000              -0.138004504              -0.287867738               0.000000000              -0.150448448              -0.311437989               0.000000000              -0.162892392              -0.335008240               0.000000000              -0.175336336              -0.358578492               0.000000000              -0.187780280              -0.382148743               0.000000000              -0.200224224              -0.405718994               0.000000000              -0.212668168              -0.429289246               0.000000000              -0.225112112              -0.452859497               0.000000000              -0.237556056              -0.476429749               0.000000000              -0.250000000              -0.500000000               0.000000000              -0.038607862              -0.127273065               0.000000000              -0.047913621              -0.150568498               0.000000000              -0.057219379              -0.173863932               0.000000000              -0.066525138              -0.197159365               0.000000000              -0.075830897              -0.220454798               0.000000000              -0.085136655              -0.243750232               0.000000000              -0.094442414              -0.267045665               0.000000000              -0.103748172              -0.290341099               0.000000000              -0.113053931              -0.313636532               0.000000000              -0.122359690              -0.336931966               0.000000000              -0.131665448              -0.360227399               0.000000000              -0.140971207              -0.383522833               0.000000000              -0.150276966              -0.406818266               0.000000000              -0.159582724              -0.430113700               0.000000000              -0.168888483              -0.453409133               0.000000000              -0.178194241              -0.476704567               0.000000000              -0.187500000              -0.500000000               0.000000000              -0.025947013              -0.130444442               0.000000000              -0.032137825              -0.153541665               0.000000000              -0.038328636              -0.176638887               0.000000000              -0.044519448              -0.199736109               0.000000000              -0.050710260              -0.222833332               0.000000000              -0.056901071              -0.245930554               0.000000000              -0.063091883              -0.269027776               0.000000000              -0.069282695              -0.292124999               0.000000000              -0.075473506              -0.315222221               0.000000000              -0.081664318              -0.338319444               0.000000000              -0.087855130              -0.361416666               0.000000000              -0.094045942              -0.384513888               0.000000000              -0.100236753              -0.407611111               0.000000000              -0.106427565              -0.430708333               0.000000000              -0.112618377              -0.453805555               0.000000000              -0.118809188              -0.476902778               0.000000000              -0.125000000              -0.500000000               0.000000000              -0.013036280              -0.132359569               0.000000000              -0.016127762              -0.155337096               0.000000000              -0.019219245              -0.178314623               0.000000000              -0.022310727              -0.201292150               0.000000000              -0.025402210              -0.224269676               0.000000000              -0.028493692              -0.247247203               0.000000000              -0.031585175              -0.270224730               0.000000000              -0.034676657              -0.293202257               0.000000000              -0.037768140              -0.316179784               0.000000000              -0.040859622              -0.339157311               0.000000000              -0.043951105              -0.362134838               0.000000000              -0.047042587              -0.385112365               0.000000000              -0.050134070              -0.408089892               0.000000000              -0.053225552              -0.431067419               0.000000000              -0.056317035              -0.454044946               0.000000000              -0.059408517              -0.477022473               0.000000000              -0.062500000              -0.500000000               0.000000000               0.000000000              -0.133000000               0.000000000               0.000000000              -0.155937500               0.000000000               0.000000000              -0.178875000               0.000000000               0.000000000              -0.201812500               0.000000000               0.000000000              -0.224750000               0.000000000               0.000000000              -0.247687500               0.000000000               0.000000000              -0.270625000               0.000000000               0.000000000              -0.293562500               0.000000000               0.000000000              -0.316500000               0.000000000               0.000000000              -0.339437500               0.000000000               0.000000000              -0.362375000               0.000000000               0.000000000              -0.385312500               0.000000000               0.000000000              -0.408250000               0.000000000               0.000000000              -0.431187500               0.000000000               0.000000000              -0.454125000               0.000000000               0.000000000              -0.477062500               0.000000000               0.000000000              -0.500000000               0.000000000              -0.133000000               0.000000000               0.000000000              -0.155937500               0.000000000               0.000000000              -0.178875000               0.000000000               0.000000000              -0.201812500               0.000000000               0.000000000              -0.224750000               0.000000000               0.000000000              -0.247687500               0.000000000               0.000000000              -0.270625000               0.000000000               0.000000000              -0.293562500               0.000000000               0.000000000              -0.316500000               0.000000000               0.000000000              -0.339437500               0.000000000               0.000000000              -0.362375000               0.000000000               0.000000000              -0.385312500               0.000000000               0.000000000              -0.408250000               0.000000000               0.000000000              -0.431187500               0.000000000               0.000000000              -0.454125000               0.000000000               0.000000000              -0.477062500               0.000000000               0.000000000              -0.500000000               0.000000000               0.000000000              -0.132359569               0.013036280               0.000000000              -0.155337096               0.016127762               0.000000000              -0.178314623               0.019219245               0.000000000              -0.201292150               0.022310727               0.000000000              -0.224269676               0.025402210               0.000000000              -0.247247203               0.028493692               0.000000000              -0.270224730               0.031585175               0.000000000              -0.293202257               0.034676657               0.000000000              -0.316179784               0.037768140               0.000000000              -0.339157311               0.040859622               0.000000000              -0.362134838               0.043951105               0.000000000              -0.385112365               0.047042587               0.000000000              -0.408089892               0.050134070               0.000000000              -0.431067419               0.053225552               0.000000000              -0.454044946               0.056317035               0.000000000              -0.477022473               0.059408517               0.000000000              -0.500000000               0.062500000               0.000000000              -0.130444442               0.025947013               0.000000000              -0.153541665               0.032137825               0.000000000              -0.176638887               0.038328636               0.000000000              -0.199736109               0.044519448               0.000000000              -0.222833332               0.050710260               0.000000000              -0.245930554               0.056901071               0.000000000              -0.269027776               0.063091883               0.000000000              -0.292124999               0.069282695               0.000000000              -0.315222221               0.075473506               0.000000000              -0.338319444               0.081664318               0.000000000              -0.361416666               0.087855130               0.000000000              -0.384513888               0.094045942               0.000000000              -0.407611111               0.100236753               0.000000000              -0.430708333               0.106427565               0.000000000              -0.453805555               0.112618377               0.000000000              -0.476902778               0.118809188               0.000000000              -0.500000000               0.125000000               0.000000000              -0.127273065               0.038607862               0.000000000              -0.150568498               0.047913621               0.000000000              -0.173863932               0.057219379               0.000000000              -0.197159365               0.066525138               0.000000000              -0.220454798               0.075830897               0.000000000              -0.243750232               0.085136655               0.000000000              -0.267045665               0.094442414               0.000000000              -0.290341099               0.103748172               0.000000000              -0.313636532               0.113053931               0.000000000              -0.336931966               0.122359690               0.000000000              -0.360227399               0.131665448               0.000000000              -0.383522833               0.140971207               0.000000000              -0.406818266               0.150276966               0.000000000              -0.430113700               0.159582724               0.000000000              -0.453409133               0.168888483               0.000000000              -0.476704567               0.178194241               0.000000000              -0.500000000               0.187500000               0.000000000              -0.122875978               0.050896897               0.000000000              -0.146446229               0.063340840               0.000000000              -0.170016481               0.075784784               0.000000000              -0.193586732               0.088228728               0.000000000              -0.217156983               0.100672672               0.000000000              -0.240727235               0.113116616               0.000000000              -0.264297486               0.125560560               0.000000000              -0.287867738               0.138004504               0.000000000              -0.311437989               0.150448448               0.000000000              -0.335008240               0.162892392               0.000000000              -0.358578492               0.175336336               0.000000000              -0.382148743               0.187780280               0.000000000              -0.405718994               0.200224224               0.000000000              -0.429289246               0.212668168               0.000000000              -0.452859497               0.225112112               0.000000000              -0.476429749               0.237556056               0.000000000              -0.500000000               0.250000000               0.000000000              -0.117295528               0.062695766               0.000000000              -0.141214558               0.078308531               0.000000000              -0.165133587               0.093921295               0.000000000              -0.189052617               0.109534060               0.000000000              -0.212971646               0.125146824               0.000000000              -0.236890676               0.140759589               0.000000000              -0.260809705               0.156372354               0.000000000              -0.284728735               0.171985118               0.000000000              -0.308647764               0.187597883               0.000000000              -0.332566794               0.203210648               0.000000000              -0.356485823               0.218823412               0.000000000              -0.380404853               0.234436177               0.000000000              -0.404323882               0.250048941               0.000000000              -0.428242912               0.265661706               0.000000000              -0.452161941               0.281274471               0.000000000              -0.476080971               0.296887235               0.000000000              -0.500000000               0.312500000               0.000000000              -0.110585458               0.073890841               0.000000000              -0.134923867               0.092710163               0.000000000              -0.159262276               0.111529486               0.000000000              -0.183600685               0.130348808               0.000000000              -0.207939094               0.149168131               0.000000000              -0.232277503               0.167987453               0.000000000              -0.256615912               0.186806776               0.000000000              -0.280954320               0.205626098               0.000000000              -0.305292729               0.224445420               0.000000000              -0.329631138               0.243264743               0.000000000              -0.353969547               0.262084065               0.000000000              -0.378307956               0.280903388               0.000000000              -0.402646365               0.299722710               0.000000000              -0.426984773               0.318542033               0.000000000              -0.451323182               0.337361355               0.000000000              -0.475661591               0.356180678               0.000000000              -0.500000000               0.375000000               0.000000000              -0.102810390               0.084374307               0.000000000              -0.127634741               0.106444663               0.000000000              -0.152459092               0.128515018               0.000000000              -0.177283442               0.150585374               0.000000000              -0.202107793               0.172655730               0.000000000              -0.226932143               0.194726086               0.000000000              -0.251756494               0.216796442               0.000000000              -0.276580845               0.238866798               0.000000000              -0.301405195               0.260937153               0.000000000              -0.326229546               0.283007509               0.000000000              -0.351053896               0.305077865               0.000000000              -0.375878247               0.327148221               0.000000000              -0.400702598               0.349218577               0.000000000              -0.425526948               0.371288933               0.000000000              -0.450351299               0.393359288               0.000000000              -0.475175649               0.415429644               0.000000000              -0.500000000               0.437500000               0.000000000              -0.094045202               0.094045202               0.000000000              -0.119417377               0.119417377               0.000000000              -0.144789552               0.144789552               0.000000000              -0.170161727               0.170161727               0.000000000              -0.195533901               0.195533901               0.000000000              -0.220906076               0.220906076               0.000000000              -0.246278251               0.246278251               0.000000000              -0.271650426               0.271650426               0.000000000              -0.297022601               0.297022601               0.000000000              -0.322394776               0.322394776               0.000000000              -0.347766951               0.347766951               0.000000000              -0.373139126               0.373139126               0.000000000              -0.398511300               0.398511300               0.000000000              -0.423883475               0.423883475               0.000000000              -0.449255650               0.449255650               0.000000000              -0.474627825               0.474627825               0.000000000              -0.500000000               0.500000000               0.000000000              -0.084374307               0.102810390               0.000000000              -0.106444663               0.127634741               0.000000000              -0.128515018               0.152459092               0.000000000              -0.150585374               0.177283442               0.000000000              -0.172655730               0.202107793               0.000000000              -0.194726086               0.226932143               0.000000000              -0.216796442               0.251756494               0.000000000              -0.238866798               0.276580845               0.000000000              -0.260937153               0.301405195               0.000000000              -0.283007509               0.326229546               0.000000000              -0.305077865               0.351053896               0.000000000              -0.327148221               0.375878247               0.000000000              -0.349218577               0.400702598               0.000000000              -0.371288933               0.425526948               0.000000000              -0.393359288               0.450351299               0.000000000              -0.415429644               0.475175649               0.000000000              -0.437500000               0.500000000               0.000000000              -0.073890841               0.110585458               0.000000000              -0.092710163               0.134923867               0.000000000              -0.111529486               0.159262276               0.000000000              -0.130348808               0.183600685               0.000000000              -0.149168131               0.207939094               0.000000000              -0.167987453               0.232277503               0.000000000              -0.186806776               0.256615912               0.000000000              -0.205626098               0.280954320               0.000000000              -0.224445420               0.305292729               0.000000000              -0.243264743               0.329631138               0.000000000              -0.262084065               0.353969547               0.000000000              -0.280903388               0.378307956               0.000000000              -0.299722710               0.402646365               0.000000000              -0.318542033               0.426984773               0.000000000              -0.337361355               0.451323182               0.000000000              -0.356180678               0.475661591               0.000000000              -0.375000000               0.500000000               0.000000000              -0.062695766               0.117295528               0.000000000              -0.078308531               0.141214558               0.000000000              -0.093921295               0.165133587               0.000000000              -0.109534060               0.189052617               0.000000000              -0.125146824               0.212971646               0.000000000              -0.140759589               0.236890676               0.000000000              -0.156372354               0.260809705               0.000000000              -0.171985118               0.284728735               0.000000000              -0.187597883               0.308647764               0.000000000              -0.203210648               0.332566794               0.000000000              -0.218823412               0.356485823               0.000000000              -0.234436177               0.380404853               0.000000000              -0.250048941               0.404323882               0.000000000              -0.265661706               0.428242912               0.000000000              -0.281274471               0.452161941               0.000000000              -0.296887235               0.476080971               0.000000000              -0.312500000               0.500000000               0.000000000              -0.050896897               0.122875978               0.000000000              -0.063340840               0.146446229               0.000000000              -0.075784784               0.170016481               0.000000000              -0.088228728               0.193586732               0.000000000              -0.100672672               0.217156983               0.000000000              -0.113116616               0.240727235               0.000000000              -0.125560560               0.264297486               0.000000000              -0.138004504               0.287867738               0.000000000              -0.150448448               0.311437989               0.000000000              -0.162892392               0.335008240               0.000000000              -0.175336336               0.358578492               0.000000000              -0.187780280               0.382148743               0.000000000              -0.200224224               0.405718994               0.000000000              -0.212668168               0.429289246               0.000000000              -0.225112112               0.452859497               0.000000000              -0.237556056               0.476429749               0.000000000              -0.250000000               0.500000000               0.000000000              -0.038607862               0.127273065               0.000000000              -0.047913621               0.150568498               0.000000000              -0.057219379               0.173863932               0.000000000              -0.066525138               0.197159365               0.000000000              -0.075830897               0.220454798               0.000000000              -0.085136655               0.243750232               0.000000000              -0.094442414               0.267045665               0.000000000              -0.103748172               0.290341099               0.000000000              -0.113053931               0.313636532               0.000000000              -0.122359690               0.336931966               0.000000000              -0.131665448               0.360227399               0.000000000              -0.140971207               0.383522833               0.000000000              -0.150276966               0.406818266               0.000000000              -0.159582724               0.430113700               0.000000000              -0.168888483               0.453409133               0.000000000              -0.178194241               0.476704567               0.000000000              -0.187500000               0.500000000               0.000000000              -0.025947013               0.130444442               0.000000000              -0.032137825               0.153541665               0.000000000              -0.038328636               0.176638887               0.000000000              -0.044519448               0.199736109               0.000000000              -0.050710260               0.222833332               0.000000000              -0.056901071               0.245930554               0.000000000              -0.063091883               0.269027776               0.000000000              -0.069282695               0.292124999               0.000000000              -0.075473506               0.315222221               0.000000000              -0.081664318               0.338319444               0.000000000              -0.087855130               0.361416666               0.000000000              -0.094045942               0.384513888               0.000000000              -0.100236753               0.407611111               0.000000000              -0.106427565               0.430708333               0.000000000              -0.112618377               0.453805555               0.000000000              -0.118809188               0.476902778               0.000000000              -0.125000000               0.500000000               0.000000000              -0.013036280               0.132359569               0.000000000              -0.016127762               0.155337096               0.000000000              -0.019219245               0.178314623               0.000000000              -0.022310727               0.201292150               0.000000000              -0.025402210               0.224269676               0.000000000              -0.028493692               0.247247203               0.000000000              -0.031585175               0.270224730               0.000000000              -0.034676657               0.293202257               0.000000000              -0.037768140               0.316179784               0.000000000              -0.040859622               0.339157311               0.000000000              -0.043951105               0.362134838               0.000000000              -0.047042587               0.385112365               0.000000000              -0.050134070               0.408089892               0.000000000              -0.053225552               0.431067419               0.000000000              -0.056317035               0.454044946               0.000000000              -0.059408517               0.477022473               0.000000000              -0.062500000               0.500000000               0.000000000               0.000000000               0.133000000               0.000000000               0.000000000               0.155937500               0.000000000               0.000000000               0.178875000               0.000000000               0.000000000               0.201812500               0.000000000               0.000000000               0.224750000               0.000000000               0.000000000               0.247687500               0.000000000               0.000000000               0.270625000               0.000000000               0.000000000               0.293562500               0.000000000               0.000000000               0.316500000               0.000000000               0.000000000               0.339437500               0.000000000               0.000000000               0.362375000               0.000000000               0.000000000               0.385312500               0.000000000               0.000000000               0.408250000               0.000000000               0.000000000               0.431187500               0.000000000               0.000000000               0.454125000               0.000000000               0.000000000               0.477062500               0.000000000               0.000000000               0.500000000               0.000000000 </DataArray>
</Points>
<Cells>
<DataArray type="Int32"                                    Name="connectivity"                                                      NumberOfComponents=" 1" format="ascii">
         0          1         18         17          1          2         19         18          2          3         20         19          3          4         21         20          4          5         22         21          5          6         23         22          6          7         24         23          7          8         25         24          8          9         26         25          9         10         27         26         10         11         28         27         11         12         29         28         12         13         30         29         13         14         31         30         14         15         32         31         15         16         33         32         17         18         35         34         18         19         36         35         19         20         37         36         20         21         38         37         21         22         39         38         22         23         40         39         23         24         41         40         24         25         42         41         25         26         43         42         26         27         44         43         27         28         45         44         28         29         46         45         29         30         47         46         30         31         48         47         31         32         49         48         32         33         50         49         34         35         52         51         35         36         53         52         36         37         54         53         37         38         55         54         38         39         56         55         39         40         57         56         40         41         58         57         41         42         59         58         42         43         60         59         43         44         61         60         44         45         62         61         45         46         63         62         46         47         64         63         47         48         65         64         48         49         66         65         49         50         67         66         51         52         69         68         52         53         70         69         53         54         71         70         54         55         72         71         55         56         73         72         56         57         74         73         57         58         75         74         58         59         76         75         59         60         77         76         60         61         78         77         61         62         79         78         62         63         80         79         63         64         81         80         64         65         82         81         65         66         83         82         66         67         84         83         68         69         86         85         69         70         87         86         70         71         88         87         71         72         89         88         72         73         90         89         73         74         91         90         74         75         92         91         75         76         93         92         76         77         94         93         77         78         95         94         78         79         96         95         79         80         97         96         80         81         98         97         81         82         99         98         82         83        100         99         83         84        101        100         85         86        103        102         86         87        104        103         87         88        105        104         88         89        106        105         89         90        107        106         90         91        108        107         91         92        109        108         92         93        110        109         93         94        111        110         94         95        112        111         95         96        113        112         96         97        114        113         97         98        115        114         98         99        116        115         99        100        117        116        100        101        118        117        102        103        120        119        103        104        121        120        104        105        122        121        105        106        123        122        106        107        124        123        107        108        125        124        108        109        126        125        109        110        127        126        110        111        128        127        111        112        129        128        112        113        130        129        113        114        131        130        114        115        132        131        115        116        133        132        116        117        134        133        117        118        135        134        119        120        137        136        120        121        138        137        121        122        139        138        122        123        140        139        123        124        141        140        124        125        142        141        125        126        143        142        126        127        144        143        127        128        145        144        128        129        146        145        129        130        147        146        130        131        148        147        131        132        149        148        132        133        150        149        133        134        151        150        134        135        152        151        136        137        154        153        137        138        155        154        138        139        156        155        139        140        157        156        140        141        158        157        141        142        159        158        142        143        160        159        143        144        161        160        144        145        162        161        145        146        163        162        146        147        164        163        147        148        165        164        148        149        166        165        149        150        167        166        150        151        168        167        151        152        169        168        153        154        171        170        154        155        172        171        155        156        173        172        156        157        174        173        157        158        175        174        158        159        176        175        159        160        177        176        160        161        178        177        161        162        179        178        162        163        180        179        163        164        181        180        164        165        182        181        165        166        183        182        166        167        184        183        167        168        185        184        168        169        186        185        170        171        188        187        171        172        189        188        172        173        190        189        173        174        191        190        174        175        192        191        175        176        193        192        176        177        194        193        177        178        195        194        178        179        196        195        179        180        197        196        180        181        198        197        181        182        199        198        182        183        200        199        183        184        201        200        184        185        202        201        185        186        203        202        187        188        205        204        188        189        206        205        189        190        207        206        190        191        208        207        191        192        209        208        192        193        210        209        193        194        211        210        194        195        212        211        195        196        213        212        196        197        214        213        197        198        215        214        198        199        216        215        199        200        217        216        200        201        218        217        201        202        219        218        202        203        220        219        204        205        222        221        205        206        223        222        206        207        224        223        207        208        225        224        208        209        226        225        209        210        227        226        210        211        228        227        211        212        229        228        212        213        230        229        213        214        231        230        214        215        232        231        215        216        233        232        216        217        234        233        217        218        235        234        218        219        236        235        219        220        237        236        221        222        239        238        222        223        240        239        223        224        241        240        224        225        242        241        225        226        243        242        226        227        244        243        227        228        245        244        228        229        246        245        229        230        247        246        230        231        248        247        231        232        249        248        232        233        250        249        233        234        251        250        234        235        252        251        235        236        253        252        236        237        254        253        238        239        256        255        239        240        257        256        240        241        258        257        241        242        259        258        242        243        260        259        243        244        261        260        244        245        262        261        245        246        263        262        246        247        264        263        247        248        265        264        248        249        266        265        249        250        267        266        250        251        268        267        251        252        269        268        252        253        270        269        253        254        271        270        255        256        273        272        256        257        274        273        257        258        275        274        258        259        276        275        259        260        277        276        260        261        278        277        261        262        279        278        262        263        280        279        263        264        281        280        264        265        282        281        265        266        283        282        266        267        284        283        267        268        285        284        268        269        286        285        269        270        287        286        270        271        288        287        306        307          1          0        307        308          2          1        308        309          3          2        309        310          4          3        310        311          5          4        311        312          6          5        312        313          7          6        313        314          8          7        314        315          9          8        315        316         10          9        316        317         11         10        317        318         12         11        318        319         13         12        319        320         14         13        320        321         15         14        321        322         16         15        323        324        307        306        324        325        308        307        325        326        309        308        326        327        310        309        327        328        311        310        328        329        312        311        329        330        313        312        330        331        314        313        331        332        315        314        332        333        316        315        333        334        317        316        334        335        318        317        335        336        319        318        336        337        320        319        337        338        321        320        338        339        322        321        340        341        324        323        341        342        325        324        342        343        326        325        343        344        327        326        344        345        328        327        345        346        329        328        346        347        330        329        347        348        331        330        348        349        332        331        349        350        333        332        350        351        334        333        351        352        335        334        352        353        336        335        353        354        337        336        354        355        338        337        355        356        339        338        357        358        341        340        358        359        342        341        359        360        343        342        360        361        344        343        361        362        345        344        362        363        346        345        363        364        347        346        364        365        348        347        365        366        349        348        366        367        350        349        367        368        351        350        368        369        352        351        369        370        353        352        370        371        354        353        371        372        355        354        372        373        356        355        374        375        358        357        375        376        359        358        376        377        360        359        377        378        361        360        378        379        362        361        379        380        363        362        380        381        364        363        381        382        365        364        382        383        366        365        383        384        367        366        384        385        368        367        385        386        369        368        386        387        370        369        387        388        371        370        388        389        372        371        389        390        373        372        391        392        375        374        392        393        376        375        393        394        377        376        394        395        378        377        395        396        379        378        396        397        380        379        397        398        381        380        398        399        382        381        399        400        383        382        400        401        384        383        401        402        385        384        402        403        386        385        403        404        387        386        404        405        388        387        405        406        389        388        406        407        390        389        408        409        392        391        409        410        393        392        410        411        394        393        411        412        395        394        412        413        396        395        413        414        397        396        414        415        398        397        415        416        399        398        416        417        400        399        417        418        401        400        418        419        402        401        419        420        403        402        420        421        404        403        421        422        405        404        422        423        406        405        423        424        407        406        425        426        409        408        426        427        410        409        427        428        411        410        428        429        412        411        429        430        413        412        430        431        414        413        431        432        415        414        432        433        416        415        433        434        417        416        434        435        418        417        435        436        419        418        436        437        420        419        437        438        421        420        438        439        422        421        439        440        423        422        440        441        424        423        442        443        426        425        443        444        427        426        444        445        428        427        445        446        429        428        446        447        430        429        447        448        431        430        448        449        432        431        449        450        433        432        450        451        434        433        451        452        435        434        452        453        436        435        453        454        437        436        454        455        438        437        455        456        439        438        456        457        440        439        457        458        441        440        459        460        443        442        460        461        444        443        461        462        445        444        462        463        446        445        463        464        447        446        464        465        448        447        465        466        449        448        466        467        450        449        467        468        451        450        468        469        452        451        469        470        453        452        470        471        454        453        471        472        455        454        472        473        456        455        473        474        457        456        474        475        458        457        476        477        460        459        477        478        461        460        478        479        462        461        479        480        463        462        480        481        464        463        481        482        465        464        482        483        466        465        483        484        467        466        484        485        468        467        485        486        469        468        486        487        470        469        487        488        471        470        488        489        472        471        489        490        473        472        490        491        474        473        491        492        475        474        493        494        477        476        494        495        478        477        495        496        479        478        496        497        480        479        497        498        481        480        498        499        482        481        499        500        483        482        500        501        484        483        501        502        485        484        502        503        486        485        503        504        487        486        504        505        488        487        505        506        489        488        506        507        490        489        507        508        491        490        508        509        492        491        510        511        494        493        511        512        495        494        512        513        496        495        513        514        497        496        514        515        498        497        515        516        499        498        516        517        500        499        517        518        501        500        518        519        502        501        519        520        503        502        520        521        504        503        521        522        505        504        522        523        506        505        523        524        507        506        524        525        508        507        525        526        509        508        527        528        511        510        528        529        512        511        529        530        513        512        530        531        514        513        531        532        515        514        532        533        516        515        533        534        517        516        534        535        518        517        535        536        519        518        536        537        520        519        537        538        521        520        538        539        522        521        539        540        523        522        540        541        524        523        541        542        525        524        542        543        526        525        544        545        528        527        545        546        529        528        546        547        530        529        547        548        531        530        548        549        532        531        549        550        533        532        550        551        534        533        551        552        535        534        552        553        536        535        553        554        537        536        554        555        538        537        555        556        539        538        556        557        540        539        557        558        541        540        558        559        542        541        559        560        543        542        561        562        545        544        562        563        546        545        563        564        547        546        564        565        548        547        565        566        549        548        566        567        550        549        567        568        551        550        568        569        552        551        569        570        553        552        570        571        554        553        571        572        555        554        572        573        556        555        573        574        557        556        574        575        558        557        575        576        559        558        576        577        560        559        578        579        596        595        579        580        597        596        580        581        598        597        581        582        599        598        582        583        600        599        583        584        601        600        584        585        602        601        585        586        603        602        586        587        604        603        587        588        605        604        588        589        606        605        589        590        607        606        590        591        608        607        591        592        609        608        592        593        610        609        593        594        611        610        595        596        613        612        596        597        614        613        597        598        615        614        598        599        616        615        599        600        617        616        600        601        618        617        601        602        619        618        602        603        620        619        603        604        621        620        604        605        622        621        605        606        623        622        606        607        624        623        607        608        625        624        608        609        626        625        609        610        627        626        610        611        628        627        612        613        630        629        613        614        631        630        614        615        632        631        615        616        633        632        616        617        634        633        617        618        635        634        618        619        636        635        619        620        637        636        620        621        638        637        621        622        639        638        622        623        640        639        623        624        641        640        624        625        642        641        625        626        643        642        626        627        644        643        627        628        645        644        629        630        647        646        630        631        648        647        631        632        649        648        632        633        650        649        633        634        651        650        634        635        652        651        635        636        653        652        636        637        654        653        637        638        655        654        638        639        656        655        639        640        657        656        640        641        658        657        641        642        659        658        642        643        660        659        643        644        661        660        644        645        662        661        646        647        664        663        647        648        665        664        648        649        666        665        649        650        667        666        650        651        668        667        651        652        669        668        652        653        670        669        653        654        671        670        654        655        672        671        655        656        673        672        656        657        674        673        657        658        675        674        658        659        676        675        659        660        677        676        660        661        678        677        661        662        679        678        663        664        681        680        664        665        682        681        665        666        683        682        666        667        684        683        667        668        685        684        668        669        686        685        669        670        687        686        670        671        688        687        671        672        689        688        672        673        690        689        673        674        691        690        674        675        692        691        675        676        693        692        676        677        694        693        677        678        695        694        678        679        696        695        680        681        698        697        681        682        699        698        682        683        700        699        683        684        701        700        684        685        702        701        685        686        703        702        686        687        704        703        687        688        705        704        688        689        706        705        689        690        707        706        690        691        708        707        691        692        709        708        692        693        710        709        693        694        711        710        694        695        712        711        695        696        713        712        697        698        715        714        698        699        716        715        699        700        717        716        700        701        718        717        701        702        719        718        702        703        720        719        703        704        721        720        704        705        722        721        705        706        723        722        706        707        724        723        707        708        725        724        708        709        726        725        709        710        727        726        710        711        728        727        711        712        729        728        712        713        730        729        714        715        732        731        715        716        733        732        716        717        734        733        717        718        735        734        718        719        736        735        719        720        737        736        720        721        738        737        721        722        739        738        722        723        740        739        723        724        741        740        724        725        742        741        725        726        743        742        726        727        744        743        727        728        745        744        728        729        746        745        729        730        747        746        731        732        749        748        732        733        750        749        733        734        751        750        734        735        752        751        735        736        753        752        736        737        754        753        737        738        755        754        738        739        756        755        739        740        757        756        740        741        758        757        741        742        759        758        742        743        760        759        743        744        761        760        744        745        762        761        745        746        763        762        746        747        764        763        748        749        766        765        749        750        767        766        750        751        768        767        751        752        769        768        752        753        770        769        753        754        771        770        754        755        772        771        755        756        773        772        756        757        774        773        757        758        775        774        758        759        776        775        759        760        777        776        760        761        778        777        761        762        779        778        762        763        780        779        763        764        781        780        765        766        783        782        766        767        784        783        767        768        785        784        768        769        786        785        769        770        787        786        770        771        788        787        771        772        789        788        772        773        790        789        773        774        791        790        774        775        792        791        775        776        793        792        776        777        794        793        777        778        795        794        778        779        796        795        779        780        797        796        780        781        798        797        782        783        800        799        783        784        801        800        784        785        802        801        785        786        803        802        786        787        804        803        787        788        805        804        788        789        806        805        789        790        807        806        790        791        808        807        791        792        809        808        792        793        810        809        793        794        811        810        794        795        812        811        795        796        813        812        796        797        814        813        797        798        815        814        799        800        817        816        800        801        818        817        801        802        819        818        802        803        820        819        803        804        821        820        804        805        822        821        805        806        823        822        806        807        824        823        807        808        825        824        808        809        826        825        809        810        827        826        810        811        828        827        811        812        829        828        812        813        830        829        813        814        831        830        814        815        832        831        816        817        834        833        817        818        835        834        818        819        836        835        819        820        837        836        820        821        838        837        821        822        839        838        822        823        840        839        823        824        841        840        824        825        842        841        825        826        843        842        826        827        844        843        827        828        845        844        828        829        846        845        829        830        847        846        830        831        848        847        831        832        849        848        833        834        562        561        834        835        563        562        835        836        564        563        836        837        565        564        837        838        566        565        838        839        567        566        839        840        568        567        840        841        569        568        841        842        570        569        842        843        571        570        843        844        572        571        844        845        573        572        845        846        574        573        846        847        575        574        847        848        576        575        848        849        577        576        884        885        579        578        885        886        580        579        886        887        581        580        887        888        582        581        888        889        583        582        889        890        584        583        890        891        585        584        891        892        586        585        892        893        587        586        893        894        588        587        894        895        589        588        895        896        590        589        896        897        591        590        897        898        592        591        898        899        593        592        899        900        594        593        901        902        885        884        902        903        886        885        903        904        887        886        904        905        888        887        905        906        889        888        906        907        890        889        907        908        891        890        908        909        892        891        909        910        893        892        910        911        894        893        911        912        895        894        912        913        896        895        913        914        897        896        914        915        898        897        915        916        899        898        916        917        900        899        918        919        902        901        919        920        903        902        920        921        904        903        921        922        905        904        922        923        906        905        923        924        907        906        924        925        908        907        925        926        909        908        926        927        910        909        927        928        911        910        928        929        912        911        929        930        913        912        930        931        914        913        931        932        915        914        932        933        916        915        933        934        917        916        935        936        919        918        936        937        920        919        937        938        921        920        938        939        922        921        939        940        923        922        940        941        924        923        941        942        925        924        942        943        926        925        943        944        927        926        944        945        928        927        945        946        929        928        946        947        930        929        947        948        931        930        948        949        932        931        949        950        933        932        950        951        934        933        952        953        936        935        953        954        937        936        954        955        938        937        955        956        939        938        956        957        940        939        957        958        941        940        958        959        942        941        959        960        943        942        960        961        944        943        961        962        945        944        962        963        946        945        963        964        947        946        964        965        948        947        965        966        949        948        966        967        950        949        967        968        951        950        969        970        953        952        970        971        954        953        971        972        955        954        972        973        956        955        973        974        957        956        974        975        958        957        975        976        959        958        976        977        960        959        977        978        961        960        978        979        962        961        979        980        963        962        980        981        964        963        981        982        965        964        982        983        966        965        983        984        967        966        984        985        968        967        986        987        970        969        987        988        971        970        988        989        972        971        989        990        973        972        990        991        974        973        991        992        975        974        992        993        976        975        993        994        977        976        994        995        978        977        995        996        979        978        996        997        980        979        997        998        981        980        998        999        982        981        999       1000        983        982       1000       1001        984        983       1001       1002        985        984       1003       1004        987        986       1004       1005        988        987       1005       1006        989        988       1006       1007        990        989       1007       1008        991        990       1008       1009        992        991       1009       1010        993        992       1010       1011        994        993       1011       1012        995        994       1012       1013        996        995       1013       1014        997        996       1014       1015        998        997       1015       1016        999        998       1016       1017       1000        999       1017       1018       1001       1000       1018       1019       1002       1001       1020       1021       1004       1003       1021       1022       1005       1004       1022       1023       1006       1005       1023       1024       1007       1006       1024       1025       1008       1007       1025       1026       1009       1008       1026       1027       1010       1009       1027       1028       1011       1010       1028       1029       1012       1011       1029       1030       1013       1012       1030       1031       1014       1013       1031       1032       1015       1014       1032       1033       1016       1015       1033       1034       1017       1016       1034       1035       1018       1017       1035       1036       1019       1018       1037       1038       1021       1020       1038       1039       1022       1021       1039       1040       1023       1022       1040       1041       1024       1023       1041       1042       1025       1024       1042       1043       1026       1025       1043       1044       1027       1026       1044       1045       1028       1027       1045       1046       1029       1028       1046       1047       1030       1029       1047       1048       1031       1030       1048       1049       1032       1031       1049       1050       1033       1032       1050       1051       1034       1033       1051       1052       1035       1034       1052       1053       1036       1035       1054       1055       1038       1037       1055       1056       1039       1038       1056       1057       1040       1039       1057       1058       1041       1040       1058       1059       1042       1041       1059       1060       1043       1042       1060       1061       1044       1043       1061       1062       1045       1044       1062       1063       1046       1045       1063       1064       1047       1046       1064       1065       1048       1047       1065       1066       1049       1048       1066       1067       1050       1049       1067       1068       1051       1050       1068       1069       1052       1051       1069       1070       1053       1052       1071       1072       1055       1054       1072       1073       1056       1055       1073       1074       1057       1056       1074       1075       1058       1057       1075       1076       1059       1058       1076       1077       1060       1059       1077       1078       1061       1060       1078       1079       1062       1061       1079       1080       1063       1062       1080       1081       1064       1063       1081       1082       1065       1064       1082       1083       1066       1065       1083       1084       1067       1066       1084       1085       1068       1067       1085       1086       1069       1068       1086       1087       1070       1069       1088       1089       1072       1071       1089       1090       1073       1072       1090       1091       1074       1073       1091       1092       1075       1074       1092       1093       1076       1075       1093       1094       1077       1076       1094       1095       1078       1077       1095       1096       1079       1078       1096       1097       1080       1079       1097       1098       1081       1080       1098       1099       1082       1081       1099       1100       1083       1082       1100       1101       1084       1083       1101       1102       1085       1084       1102       1103       1086       1085       1103       1104       1087       1086       1105       1106       1089       1088       1106       1107       1090       1089       1107       1108       1091       1090       1108       1109       1092       1091       1109       1110       1093       1092       1110       1111       1094       1093       1111       1112       1095       1094       1112       1113       1096       1095       1113       1114       1097       1096       1114       1115       1098       1097       1115       1116       1099       1098       1116       1117       1100       1099       1117       1118       1101       1100       1118       1119       1102       1101       1119       1120       1103       1102       1120       1121       1104       1103       1122       1123       1106       1105       1123       1124       1107       1106       1124       1125       1108       1107       1125       1126       1109       1108       1126       1127       1110       1109       1127       1128       1111       1110       1128       1129       1112       1111       1129       1130       1113       1112       1130       1131       1114       1113       1131       1132       1115       1114       1132       1133       1116       1115       1133       1134       1117       1116       1134       1135       1118       1117       1135       1136       1119       1118       1136       1137       1120       1119       1137       1138       1121       1120        272        273       1123       1122        273        274       1124       1123        274        275       1125       1124        275        276       1126       1125        276        277       1127       1126        277        278       1128       1127        278        279       1129       1128        279        280       1130       1129        280        281       1131       1130        281        282       1132       1131        282        283       1133       1132        283        284       1134       1133        284        285       1135       1134        285        286       1136       1135        286        287       1137       1136        287        288       1138       1137 </DataArray>
<DataArray type="Int32"                                    Name="offsets"                                                      NumberOfComponents=" 1" format="ascii">
         4          8         12         16         20         24         28         32         36         40         44         48         52         56         60         64         68         72         76         80         84         88         92         96        100        104        108        112        116        120        124        128        132        136        140        144        148        152        156        160        164        168        172        176        180        184        188        192        196        200        204        208        212        216        220        224        228        232        236        240        244        248        252        256        260        264        268        272        276        280        284        288        292        296        300        304        308        312        316        320        324        328        332        336        340        344        348        352        356        360        364        368        372        376        380        384        388        392        396        400        404        408        412        416        420        424        428        432        436        440        444        448        452        456        460        464        468        472        476        480        484        488        492        496        500        504        508        512        516        520        524        528        532        536        540        544        548        552        556        560        564        568        572        576        580        584        588        592        596        600        604        608        612        616        620        624        628        632        636        640        644        648        652        656        660        664        668        672        676        680        684        688        692        696        700        704        708        712        716        720        724        728        732        736        740        744        748        752        756        760        764        768        772        776        780        784        788        792        796        800        804        808        812        816        820        824        828        832        836        840        844        848        852        856        860        864        868        872        876        880        884        888        892        896        900        904        908        912        916        920        924        928        932        936        940        944        948        952        956        960        964        968        972        976        980        984        988        992        996       1000       1004       1008       1012       1016       1020       1024       1028       1032       1036       1040       1044       1048       1052       1056       1060       1064       1068       1072       1076       1080       1084       1088       1092       1096       1100       1104       1108       1112       1116       1120       1124       1128       1132       1136       1140       1144       1148       1152       1156       1160       1164       1168       1172       1176       1180       1184       1188       1192       1196       1200       1204       1208       1212       1216       1220       1224       1228       1232       1236       1240       1244       1248       1252       1256       1260       1264       1268       1272       1276       1280       1284       1288       1292       1296       1300       1304       1308       1312       1316       1320       1324       1328       1332       1336       1340       1344       1348       1352       1356       1360       1364       1368       1372       1376       1380       1384       1388       1392       1396       1400       1404       1408       1412       1416       1420       1424       1428       1432       1436       1440       1444       1448       1452       1456       1460       1464       1468       1472       1476       1480       1484       1488       1492       1496       1500       1504       1508       1512       1516       1520       1524       1528       1532       1536       1540       1544       1548       1552       1556       1560       1564       1568       1572       1576       1580       1584       1588       1592       1596       1600       1604       1608       1612       1616       1620       1624       1628       1632       1636       1640       1644       1648       1652       1656       1660       1664       1668       1672       1676       1680       1684       1688       1692       1696       1700       1704       1708       1712       1716       1720       1724       1728       1732       1736       1740       1744       1748       1752       1756       1760       1764       1768       1772       1776       1780       1784       1788       1792       1796       1800       1804       1808       1812       1816       1820       1824       1828       1832       1836       1840       1844       1848       1852       1856       1860       1864       1868       1872       1876       1880       1884       1888       1892       1896       1900       1904       1908       1912       1916       1920       1924       1928       1932       1936       1940       1944       1948       1952       1956       1960       1964       1968       1972       1976       1980       1984       1988       1992       1996       2000       2004       2008       2012       2016       2020       2024       2028       2032       2036       2040       2044       2048       2052       2056       2060       2064       2068       2072       2076       2080       2084       2088       2092       2096       2100       2104       2108       2112       2116       2120       2124       2128       2132       2136       2140       2144       2148       2152       2156       2160       2164       2168       2172       2176       2180       2184       2188       2192       2196       2200       2204       2208       2212       2216       2220       2224       2228       2232       2236       2240       2244       2248       2252       2256       2260       2264       2268       2272       2276       2280       2284       2288       2292       2296       2300       2304       2308       2312       2316       2320       2324       2328       2332       2336       2340       2344       2348       2352       2356       2360       2364       2368       2372       2376       2380       2384       2388       2392       2396       2400       2404       2408       2412       2416       2420       2424       2428       2432       2436       2440       2444       2448       2452       2456       2460       2464       2468       2472       2476       2480       2484       2488       2492       2496       2500       2504       2508       2512       2516       2520       2524       2528       2532       2536       2540       2544       2548       2552       2556       2560       2564       2568       2572       2576       2580       2584       2588       2592       2596       2600       2604       2608       2612       2616       2620       2624       2628       2632       2636       2640       2644       2648       2652       2656       2660       2664       2668       2672       2676       2680       2684       2688       2692       2696       2700       2704       2708       2712       2716       2720       2724       2728       2732       2736       2740       2744       2748       2752       2756       2760       2764       2768       2772       2776       2780       2784       2788       2792       2796       2800       2804       2808       2812       2816       2820       2824       2828       2832       2836       2840       2844       2848       2852       2856       2860       2864       2868       2872       2876       2880       2884       2888       2892       2896       2900       2904       2908       2912       2916       2920       2924       2928       2932       2936       2940       2944       2948       2952       2956       2960       2964       2968       2972       2976       2980       2984       2988       2992       2996       3000       3004       3008       3012       3016       3020       3024       3028       3032       3036       3040       3044       3048       3052       3056       3060       3064       3068       3072       3076       3080       3084       3088       3092       3096       3100       3104       3108       3112       3116       3120       3124       3128       3132       3136       3140       3144       3148       3152       3156       3160       3164       3168       3172       3176       3180       3184       3188       3192       3196       3200       3204       3208       3212       3216       3220       3224       3228       3232       3236       3240       3244       3248       3252       3256       3260       3264       3268       3272       3276       3280       3284       3288       3292       3296       3300       3304       3308       3312       3316       3320       3324       3328       3332       3336       3340       3344       3348       3352       3356       3360       3364       3368       3372       3376       3380       3384       3388       3392       3396       3400       3404       3408       3412       3416       3420       3424       3428       3432       3436       3440       3444       3448       3452       3456       3460       3464       3468       3472       3476       3480       3484       3488       3492       3496       3500       3504       3508       3512       3516       3520       3524       3528       3532       3536       3540       3544       3548       3552       3556       3560       3564       3568       3572       3576       3580       3584       3588       3592       3596       3600       3604       3608       3612       3616       3620       3624       3628       3632       3636       3640       3644       3648       3652       3656       3660       3664       3668       3672       3676       3680       3684       3688       3692       3696       3700       3704       3708       3712       3716       3720       3724       3728       3732       3736       3740       3744       3748       3752       3756       3760       3764       3768       3772       3776       3780       3784       3788       3792       3796       3800       3804       3808       3812       3816       3820       3824       3828       3832       3836       3840       3844       3848       3852       3856       3860       3864       3868       3872       3876       3880       3884       3888       3892       3896       3900       3904       3908       3912       3916       3920       3924       3928       3932       3936       3940       3944       3948       3952       3956       3960       3964       3968       3972       3976       3980       3984       3988       3992       3996       4000       4004       4008       4012       4016       4020       4024       4028       4032       4036       4040       4044       4048       4052       4056       4060       4064       4068       4072       4076       4080       4084       4088       4092       4096 </DataArray>
<DataArray type="UInt8"                                    Name="types"                                                      NumberOfComponents=" 1" format="ascii">
         9          9          9          9          9          9          9          9          9          9          9          9          9          9          9          9          9          9          9          9          9          9          9          9          9          9          9          9          9          9          9          9          9          9          9          9          9          9          9          9          9          9          9          9          9          9          9          9          9          9          9          9          9          9          9          9          9          9          9          9          9          9          9          9          9          9          9          9          9          9          9          9          9          9          9          9          9          9          9          9          9          9          9          9          9          9          9          9          9          9          9          9          9          9          9          9          9          9          9          9          9          9          9          9          9          9          9          9          9          9          9          9          9          9          9          9          9          9          9          9          9          9          9          9          9          9          9          9          9          9          9          9          9          9          9          9          9          9          9          9          9          9          9          9          9          9          9          9          9          9          9          9          9          9          9          9          9          9          9          9          9          9          9          9          9          9          9          9          9          9          9          9          9          9          9          9          9          9          9          9          9          9          9          9          9          9          9          9          9          9          9          9          9          9          9          9          9          9          9          9          9          9          9          9          9          9          9          9          9          9          9          9          9          9          9          9          9          9          9          9          9          9          9          9          9          9          9          9          9          9          9          9          9          9          9          9          9          9          9          9          9          9          9          9          9          9          9          9          9          9          9          9          9          9          9          9          9          9          9          9          9          9          9          9          9          9          9          9          9          9          9          9          9          9          9          9          9          9          9          9          9          9          9          9          9          9          9          9          9          9          9          9          9          9          9          9          9          9          9          9          9          9          9          9          9          9          9          9          9          9          9          9          9          9          9          9          9          9          9          9          9          9          9          9          9          9          9          9          9          9          9          9          9          9          9          9          9          9          9          9          9          9          9          9          9          9          9          9          9          9          9          9          9          9          9          9          9          9          9          9          9          9          9          9          9          9          9          9          9          9          9          9          9          9          9          9          9          9          9          9          9          9          9          9          9          9          9          9          9          9          9          9          9          9          9          9          9          9          9          9          9          9          9          9          9          9          9          9          9          9          9          9          9          9          9          9          9          9          9          9          9          9          9          9          9          9          9          9          9          9          9          9          9          9          9          9          9          9          9          9          9          9          9          9          9          9          9          9          9          9          9          9          9          9          9          9          9          9          9          9          9          9          9          9          9          9          9          9          9          9          9          9          9          9          9          9          9          9          9          9          9          9          9          9          9          9          9          9          9          9          9          9          9          9          9          9          9          9          9          9          9          9          9          9          9          9          9          9          9          9          9          9          9          9          9          9          9          9          9          9          9          9          9          9          9          9          9          9          9          9          9          9          9          9          9          9          9          9          9          9          9          9          9          9          9          9          9          9          9          9          9          9          9          9          9          9          9          9          9          9          9          9          9          9          9          9          9          9          9          9          9          9          9          9          9          9          9          9          9          9          9          9          9          9          9          9          9          9          9          9          9          9          9          9          9          9          9          9          9          9          9          9          9          9          9          9          9          9          9          9          9          9          9          9          9          9          9          9          9          9          9          9          9          9          9          9          9          9          9          9          9          9          9          9          9          9          9          9          9          9          9          9          9          9          9          9          9          9          9          9          9          9          9          9          9          9          9          9          9          9          9          9          9          9          9          9          9          9          9          9          9          9          9          9          9          9          9          9          9          9          9          9          9          9          9          9          9          9          9          9          9          9          9          9          9          9          9          9          9          9          9          9          9          9          9          9          9          9          9          9          9          9          9          9          9          9          9          9          9          9          9          9          9          9          9          9          9          9          9          9          9          9          9          9          9          9          9          9          9          9          9          9          9          9          9          9          9          9          9          9          9          9          9          9          9          9          9          9          9          9          9          9          9          9          9          9          9          9          9          9          9          9          9          9          9          9          9          9          9          9          9          9          9          9          9          9          9          9          9          9          9          9          9          9          9          9          9          9          9          9          9          9          9          9          9          9          9          9          9          9          9          9          9          9          9          9          9          9          9          9          9          9          9          9          9          9          9          9          9          9          9          9          9          9          9          9          9          9          9          9          9          9          9          9          9          9          9          9          9          9          9          9          9          9          9          9          9          9          9          9          9          9          9          9          9          9          9          9          9          9          9          9          9          9          9          9          9          9          9          9          9          9          9          9          9          9          9          9          9          9          9          9          9          9          9          9          9          9          9          9          9          9          9          9          9          9          9          9          9          9          9          9          9          9          9          9          9          9          9          9          9          9          9          9          9          9          9          9          9          9          9          9          9          9          9          9          9          9          9          9          9          9          9          9          9          9          9          9          9          9          9          9          9          9          9          9          9          9          9          9          9          9          9          9          9          9          9          9          9          9          9          9          9          9          9          9          9          9          9          9          9          9          9          9          9          9          9          9          9          9          9          9          9          9          9          9          9          9          9          9          9          9          9          9          9          9          9          9          9          9          9          9          9          9          9          9          9          9          9          9          9          9          9          9 </DataArray>
</Cells>
<CellData>
<DataArray type="Int32"                                    Name="material"                                                      NumberOfComponents=" 1" format="ascii">
         1          1          1          1          1          1          1          1          1          1          1          1          1          1          1          1          1          1          1          1          1          1          1          1          1          1          1          1          1          1          1          1          1          1          1          1          1          1          1          1          1          1          1          1          1          1          1          1          1          1          1          1          1          1          1          1          1          1          1          1          1          1          1          1          1          1          1          1          1          1          1          1          1          1          1          1          1          1          1          1          1          1          1          1          1          1          1          1          1          1          1          1          1          1          1          1          1          1          1          1          1          1          1          1          1          1          1          1          1          1          1          1          1          1          1          1          1          1          1          1          1          1          1          1          1          1          1          1          1          1          1          1          1          1          1          1          1          1          1          1          1          1          1          1          1          1          1          1          1          1          1          1          1          1          1          1          1          1          1          1          1          1          1          1          1          1          1          1          1          1          1          1          1          1          1          1          1          1          1          1          1          1          1          1          1          1          1          1          1          1          1          1          1          1          1          1          1          1          1          1          1          1          1          1          1          1          1          1          1          1          1          1          1          1          1          1          1          1          1          1          1          1          1          1          1          1          1          1          1          1          1          1          1          1          1          1          1          1          1          1          1          1          1          1          1          1          1          1          1          1          1          1          1          1          1          1          1          1          1          1          1          1          1          1          1          1          1          1          1          1          1          1          1          1          1          1          1          1          1          1          1          1          1          1          1          1          1          1          1          1          1          1          1          1          1          1          1          1          1          1          1          1          1          1          1          1          1          1          1          1          1          1          1          1          1          1          1          1          1          1          1          1          1          1          1          1          1          1          1          1          1          1          1          1          1          1          1          1          1          1          1          1          1          1          1          1          1          1          1          1          1          1          1          1          1          1          1          1          1          1          1          1          1          1          1          1          1          1          1          1          1          1          1          1          1          1          1          1          1          1          1          1          1          1          1          1          1          1          1          1          1          1          1          1          1          1          1          1          1          1          1          1          1          1          1          1          1          1          1          1          1          1          1          1          1          1          1          1          1          1          1          1          1          1          1          1          1          1          1          1          1          1          1          1          1          1          1          1          1          1          1          1          1          1          1          1          1          1          1          1          1          1          1          1          1          1          1          1          1          1          1          1          1          1          1          1          1          1          1          1          1          1          1          1          1          1          1          1          1          1          1          1          1          1          1          1          1          1          1          1          1          1          1          1          1          1          1          1          1          1          1          1          1          1          1          1          1          1          1          1          1          1          1          1          1          1          1          1          1          1          1          1          1          1          1          1          1          1          1          1          1          1          1          1          1          1          1          1          1          1          1          1          1          1          1          1          1          1          1          1          1          1          1          1          1          1          1          1          1          1          1          1          1          1          1          1          1          1          1          1          1          1          1          1          1          1          1          1          1          1          1          1          1          1          1          1          1          1          1          1          1          1          1          1          1          1          1          1          1          1          1          1          1          1          1          1          1          1          1          1          1          1          1          1          1          1          1          1          1          1          1          1          1          1          1          1          1          1          1          1          1          1          1          1          1          1          1          1          1          1          1          1          1          1          1          1          1          1          1          1          1          1          1          1          1          1          1          1          1          1          1          1          1          1          1          1          1          1          1          1          1          1          1          1          1          1          1          1          1          1          1          1          1          1          1          1          1          1          1          1          1          1          1          1          1          1          1          1          1          1          1          1          1          1          1          1          1          1          1          1          1          1          1          1          1          1          1          1          1          1          1          1          1          1          1          1          1          1          1          1          1          1          1          1          1          1          1          1          1          1          1          1          1          1          1          1          1          1          1          1          1          1          1          1          1          1          1          1          1          1          1          1          1          1          1          1          1          1          1          1          1          1          1          1          1          1          1          1          1          1          1          1          1          1          1          1          1          1          1          1          1          1          1          1          1          1          1          1          1          1          1          1          1          1          1          1          1          1          1          1          1          1          1          1          1          1          1          1          1          1          1          1          1          1          1          1          1          1          1          1          1          1          1          1          1          1          1          1          1          1          1          1          1          1          1          1          1          1          1          1          1          1          1          1          1          1          1          1          1          1          1          1          1          1          1          1          1          1          1          1          1          1          1          1          1          1          1          1          1          1          1          1          1          1          1          1          1          1          1          1          1          1          1          1          1          1          1          1          1          1          1          1          1          1          1          1          1          1          1          1          1          1          1          1          1          1          1          1          1          1          1          1          1          1          1          1          1          1          1          1          1          1          1          1          1          1          1          1          1          1          1          1          1          1          1          1          1          1          1          1          1          1          1          1          1          1          1          1          1          1          1          1          1          1          1          1          1          1          1          1          1          1          1          1          1          1          1          1          1          1          1          1          1          1          1          1          1          1          1          1          1          1          1          1          1          1          1          1          1          1          1          1          1          1          1          1          1          1          1          1          1          1          1          1          1          1          1          1          1          1          1          1          1          1 </DataArray>
</CellData>
<PointData>
<DataArray type="Float64"                                    Name="u"                                                      NumberOfComponents=" 3" format="ascii">
             -0.000497729               0.000000000               0.999999984              -0.000541480              -0.000000000               0.999999984              -0.000561427               0.000000000               0.999999984              -0.000573068               0.000000000               0.999999984              -0.000582303               0.000000000               0.999999984              -0.000591454               0.000000000               0.999999984              -0.000601500               0.000000000               0.999999984              -0.000612630               0.000000000               0.999999984              -0.000624796               0.000000000               0.999999984              -0.000637923               0.000000000               0.999999984              -0.000651818               0.000000000               0.999999984              -0.000666338              -0.000000000               0.999999984              -0.000681200              -0.000000000               0.999999984              -0.000696223               0.000000000               0.999999984              -0.000711039              -0.000000000               0.999999984              -0.000725217               0.000000000               0.999999984              -0.000738353               0.000000000               0.999999984              -0.000494917               0.000111627               0.999999984              -0.000535724               0.000092684               0.999999984              -0.000553808               0.000085097               0.999999984              -0.000564290               0.000083223               0.999999984              -0.000572839               0.000084509               0.999999984              -0.000581574               0.000087458               0.999999984              -0.000591229               0.000091233               0.999999984              -0.000601961               0.000095449               0.999999984              -0.000613708               0.000099703               0.999999984              -0.000626328               0.000103740               0.999999984              -0.000639573               0.000107210               0.999999984              -0.000653173               0.000109995               0.999999984              -0.000666960               0.000111884               0.999999984              -0.000680794               0.000112531               0.999999984              -0.000694300               0.000111462               0.999999984              -0.000707163               0.000108136               0.999999984              -0.000719068               0.000101653               0.999999984              -0.000486494               0.000222106               0.999999984              -0.000518670               0.000184727               0.999999984              -0.000531620               0.000170491               0.999999984              -0.000539128               0.000167570               0.999999984              -0.000545903               0.000170642               0.999999984              -0.000553480               0.000176932               0.999999984              -0.000562166               0.000184752               0.999999984              -0.000572000               0.000193277               0.999999984              -0.000582675               0.000201782               0.999999984              -0.000593827               0.000209710               0.999999984              -0.000605246               0.000216518               0.999999984              -0.000616696               0.000222063               0.999999984              -0.000628034               0.000226147               0.999999984              -0.000639013               0.000228050               0.999999984              -0.000649411               0.000226955               0.999999984              -0.000659034               0.000222144               0.999999984              -0.000667767               0.000212751               0.999999984              -0.000472683               0.000330310               0.999999984              -0.000491276               0.000275561               0.999999984              -0.000496790               0.000256375               0.999999984              -0.000500366               0.000253762               0.999999984              -0.000504995               0.000259541               0.999999984              -0.000511229               0.000269613               0.999999984              -0.000518864               0.000281728               0.999999984              -0.000527493               0.000294635               0.999999984              -0.000536541               0.000307335               0.999999984              -0.000545756               0.000319068               0.999999984              -0.000554885               0.000329365               0.999999984              -0.000563635               0.000337906               0.999999984              -0.000571644               0.000344265               0.999999984              -0.000578780               0.000347917               0.999999984              -0.000584980               0.000348338               0.999999984              -0.000590373               0.000344946               0.999999984              -0.000595309               0.000337451               0.999999984              -0.000453741               0.000435137               0.999999984              -0.000454970               0.000364845               0.999999984              -0.000452277               0.000342721               0.999999984              -0.000452094               0.000341885               0.999999984              -0.000455053               0.000351231               0.999999984              -0.000460427               0.000365553               0.999999984              -0.000467205               0.000382083               0.999999984              -0.000474619               0.000399268               0.999999984              -0.000482165               0.000415967               0.999999984              -0.000489350               0.000431377               0.999999984              -0.000495811               0.000444976               0.999999984              -0.000501209               0.000456502               0.999999984              -0.000505524               0.000465666               0.999999984              -0.000508715               0.000472105               0.999999984              -0.000510940               0.000475812               0.999999984              -0.000512608               0.000476842               0.999999984              -0.000514085               0.000475213               0.999999984              -0.000430119               0.000535431               0.999999984              -0.000411768               0.000452371               0.999999984              -0.000401654               0.000429292               0.999999984              -0.000398918               0.000431374               0.999999984              -0.000401145               0.000444898               0.999999984              -0.000406236               0.000463680               0.999999984              -0.000412579               0.000484505               0.999999984              -0.000419139               0.000505722               0.999999984              -0.000425166               0.000526228               0.999999984              -0.000430165               0.000545142               0.999999984              -0.000433994               0.000561969               0.999999984              -0.000436375               0.000576625               0.999999984              -0.000437371               0.000588952               0.999999984              -0.000437152               0.000598907               0.999999984              -0.000435986               0.000606968               0.999999984              -0.000434161               0.000613292               0.999999984              -0.000431849               0.000617902               0.999999984              -0.000402314               0.000630177               0.999999984              -0.000364109               0.000537923               0.999999984              -0.000348474               0.000515588               0.999999984              -0.000344962               0.000521192               0.999999984              -0.000347629               0.000538939               0.999999984              -0.000353040               0.000562086               0.999999984              -0.000359240               0.000587183               0.999999984              -0.000364932               0.000612411               0.999999984              -0.000369505               0.000636511               0.999999984              -0.000372566               0.000658731               0.999999984              -0.000373681               0.000678744               0.999999984              -0.000372858               0.000696466               0.999999984              -0.000370380               0.000711895               0.999999984              -0.000366466               0.000725490               0.999999984              -0.000361363               0.000737718               0.999999984              -0.000355128               0.000748461               0.999999984              -0.000347585               0.000757146               0.999999984              -0.000370967               0.000718432               0.999999984              -0.000314416               0.000621256               0.999999984              -0.000295862               0.000600828               0.999999984              -0.000293523               0.000609900               0.999999984              -0.000297546               0.000631647               0.999999984              -0.000303772               0.000658999               0.999999984              -0.000309935               0.000688191               0.999999984              -0.000314844               0.000717200               0.999999984              -0.000317773               0.000744970               0.999999984              -0.000318144               0.000770483               0.999999984              -0.000315934               0.000793207               0.999999984              -0.000311314               0.000813415               0.999999984              -0.000304534               0.000831609               0.999999984              -0.000295954               0.000848283               0.999999984              -0.000285649               0.000863732               0.999999984              -0.000273640               0.000877593               0.999999984              -0.000260025               0.000889134               0.999999984              -0.000337307               0.000798658               0.999999984              -0.000264363               0.000702337               0.999999984              -0.000246585               0.000683925               0.999999984              -0.000246653               0.000696073               0.999999984              -0.000252635               0.000721544               0.999999984              -0.000259860               0.000752828               0.999999984              -0.000265986               0.000785959               0.999999984              -0.000269639               0.000818856               0.999999984              -0.000270135               0.000849867               0.999999984              -0.000267081               0.000877740               0.999999984              -0.000260462               0.000902645               0.999999984              -0.000250699               0.000925054               0.999999984              -0.000238374               0.000945706               0.999999984              -0.000224001               0.000964999               0.999999984              -0.000207889               0.000982770               0.999999984              -0.000190373               0.000998829               0.999999984              -0.000172010               0.001013167               0.999999984              -0.000302997               0.000873942               0.999999984              -0.000223272               0.000790523               0.999999984              -0.000202449               0.000767306               0.999999984              -0.000201154               0.000773540               0.999999984              -0.000206419               0.000794215               0.999999984              -0.000213421               0.000822140               0.999999984              -0.000219772               0.000853539               0.999999984              -0.000224038               0.000886058               0.999999984              -0.000225622               0.000917758               0.999999984              -0.000223748               0.000947562               0.999999984              -0.000218188               0.000974605               0.999999984              -0.000208947               0.000999038               0.999999984              -0.000196514               0.001021480               0.999999984              -0.000181704               0.001042466               0.999999984              -0.000165083               0.001062428               0.999999984              -0.000147404               0.001081150               0.999999984              -0.000129303               0.001098615               0.999999984              -0.000265325               0.000942047               0.999999984              -0.000184955               0.000875189               0.999999984              -0.000161158               0.000852223               0.999999984              -0.000157807               0.000854442               0.999999984              -0.000161790               0.000871142               0.999999984              -0.000168055               0.000896025               0.999999984              -0.000174133               0.000925546               0.999999984              -0.000178627               0.000957466               0.999999984              -0.000180866               0.000989598               0.999999984              -0.000180119               0.001020756               0.999999984              -0.000175750               0.001050059               0.999999984              -0.000167431               0.001076962               0.999999984              -0.000155219               0.001101556               0.999999984              -0.000139924               0.001124253               0.999999984              -0.000122176               0.001145741               0.999999984              -0.000102696               0.001166358               0.999999984              -0.000082316               0.001186400               0.999999984              -0.000225156               0.001001462               0.999999984              -0.000149310               0.000953911               0.999999984              -0.000123926               0.000934922               0.999999984              -0.000118351               0.000935899               0.999999984              -0.000120566               0.000950027               0.999999984              -0.000125516               0.000972635               0.999999984              -0.000130804               0.001000643               0.999999984              -0.000135104               0.001031828               0.999999984              -0.000137610               0.001064341               0.999999984              -0.000137563               0.001096809               0.999999984              -0.000134219               0.001128108               0.999999984              -0.000127074               0.001157859               0.999999984              -0.000115819               0.001185409               0.999999984              -0.000100610               0.001210735               0.999999984              -0.000081834               0.001234265               0.999999984              -0.000059932               0.001256756               0.999999984              -0.000035551               0.001278681               0.999999984              -0.000182810               0.001051352               0.999999984              -0.000116217               0.001023645               0.999999984              -0.000091354               0.001011303               0.999999984              -0.000084168               0.001013555               0.999999984              -0.000084505               0.001026927               0.999999984              -0.000087803               0.001048334               0.999999984              -0.000091852               0.001075530               0.999999984              -0.000095406               0.001106475               0.999999984              -0.000097828               0.001139349               0.999999984              -0.000098218               0.001173118               0.999999984              -0.000095574               0.001206628               0.999999984              -0.000089521               0.001239206               0.999999984              -0.000079813               0.001270224               0.999999984              -0.000065893               0.001299276               0.999999984              -0.000047246               0.001326269               0.999999984              -0.000023806               0.001351671               0.999999984               0.000004271               0.001375976               0.999999984              -0.000138708               0.001090885               0.999999984              -0.000085304               0.001081409               0.999999984              -0.000063466               0.001076981               0.999999984              -0.000055877               0.001082238               0.999999984              -0.000054799               0.001096418               0.999999984              -0.000056494               0.001117805               0.999999984              -0.000059145               0.001144914               0.999999984              -0.000061799               0.001175994               0.999999984              -0.000063737               0.001209557               0.999999984              -0.000064148               0.001244626               0.999999984              -0.000062124               0.001280247               0.999999984              -0.000057386               0.001315626               0.999999984              -0.000049636               0.001350078               0.999999984              -0.000037992               0.001383248               0.999999984              -0.000021530               0.001414696               0.999999984               0.000000699               0.001444318               0.999999984               0.000029283               0.001472236               0.999999984              -0.000093244               0.001119501               0.999999984              -0.000056010               0.001124617               0.999999984              -0.000039749               0.001127663               0.999999984              -0.000033357               0.001136470               0.999999984              -0.000031743               0.001152258               0.999999984              -0.000032255               0.001174378               0.999999984              -0.000033790               0.001201842               0.999999984              -0.000035515               0.001233337               0.999999984              -0.000036750               0.001267682               0.999999984              -0.000036950               0.001303974               0.999999984              -0.000035599               0.001341378               0.999999984              -0.000032430               0.001379214               0.999999984              -0.000026916               0.001416821               0.999999984              -0.000018468               0.001453770               0.999999984              -0.000006114               0.001489486               0.999999984               0.000011414               0.001523597               0.999999984               0.000035297               0.001555695               0.999999984              -0.000046837               0.001136842               0.999999984              -0.000027761               0.001151334               0.999999984              -0.000019105               0.001159712               0.999999984              -0.000015431               0.001171433               0.999999984              -0.000014281               0.001188694               0.999999984              -0.000014284               0.001211539               0.999999984              -0.000014960               0.001239486               0.999999984              -0.000015780               0.001271430               0.999999984              -0.000016363               0.001306382               0.999999984              -0.000016387               0.001343535               0.999999984              -0.000015756               0.001382152               0.999999984              -0.000014097               0.001421726               0.999999984              -0.000011271               0.001461618               0.999999984              -0.000006855               0.001501338               0.999999984              -0.000000068               0.001540247               0.999999984               0.000009630               0.001577780               0.999999984               0.000023176               0.001613179               0.999999984               0.000000000               0.001142579               0.999999984               0.000000000               0.001160323               0.999999984              -0.000000000               0.001170718               0.999999984              -0.000000000               0.001183540               0.999999984              -0.000000000               0.001201361               0.999999984              -0.000000000               0.001224487               0.999999984              -0.000000000               0.001252641               0.999999984               0.000000000               0.001284870               0.999999984              -0.000000000               0.001320053               0.999999984              -0.000000000               0.001357478               0.999999984               0.000000000               0.001396510               0.999999984               0.000000000               0.001436678               0.999999984               0.000000000               0.001477400               0.999999984               0.000000000               0.001518140               0.999999984              -0.000000000               0.001558220               0.999999984              -0.000000000               0.001596996               0.999999984               0.000000000               0.001633667               0.999999984              -0.000497729               0.000000000               0.999999984              -0.000541480              -0.000000000               0.999999984              -0.000561427               0.000000000               0.999999984              -0.000573068               0.000000000               0.999999984              -0.000582303               0.000000000               0.999999984              -0.000591454               0.000000000               0.999999984              -0.000601500               0.000000000               0.999999984              -0.000612630               0.000000000               0.999999984              -0.000624796               0.000000000               0.999999984              -0.000637923               0.000000000               0.999999984              -0.000651818               0.000000000               0.999999984              -0.000666338              -0.000000000               0.999999984              -0.000681200              -0.000000000               0.999999984              -0.000696223               0.000000000               0.999999984              -0.000711039              -0.000000000               0.999999984              -0.000725217               0.000000000               0.999999984              -0.000738353               0.000000000               0.999999984              -0.000494917              -0.000111627               0.999999984              -0.000535724              -0.000092684               0.999999984              -0.000553808              -0.000085097               0.999999984              -0.000564290              -0.000083223               0.999999984              -0.000572839              -0.000084509               0.999999984              -0.000581574              -0.000087458               0.999999984              -0.000591229              -0.000091233               0.999999984              -0.000601961              -0.000095449               0.999999984              -0.000613708              -0.000099703               0.999999984              -0.000626328              -0.000103740               0.999999984              -0.000639573              -0.000107210               0.999999984              -0.000653173              -0.000109995               0.999999984              -0.000666960              -0.000111884               0.999999984              -0.000680794              -0.000112531               0.999999984              -0.000694300              -0.000111462               0.999999984              -0.000707163              -0.000108136               0.999999984              -0.000719068              -0.000101653               0.999999984              -0.000486494              -0.000222106               0.999999984              -0.000518670              -0.000184727               0.999999984              -0.000531620              -0.000170491               0.999999984              -0.000539128              -0.000167570               0.999999984              -0.000545903              -0.000170642               0.999999984              -0.000553480              -0.000176932               0.999999984              -0.000562166              -0.000184752               0.999999984              -0.000572000              -0.000193277               0.999999984              -0.000582675              -0.000201782               0.999999984              -0.000593827              -0.000209710               0.999999984              -0.000605246              -0.000216518               0.999999984              -0.000616696              -0.000222063               0.999999984              -0.000628034              -0.000226147               0.999999984              -0.000639013              -0.000228050               0.999999984              -0.000649411              -0.000226955               0.999999984              -0.000659034              -0.000222144               0.999999984              -0.000667767              -0.000212751               0.999999984              -0.000472683              -0.000330310               0.999999984              -0.000491276              -0.000275561               0.999999984              -0.000496790              -0.000256375               0.999999984              -0.000500366              -0.000253762               0.999999984              -0.000504995              -0.000259541               0.999999984              -0.000511229              -0.000269613               0.999999984              -0.000518864              -0.000281728               0.999999984              -0.000527493              -0.000294635               0.999999984              -0.000536541              -0.000307335               0.999999984              -0.000545756              -0.000319068               0.999999984              -0.000554885              -0.000329365               0.999999984              -0.000563635              -0.000337906               0.999999984              -0.000571644              -0.000344265               0.999999984              -0.000578780              -0.000347917               0.999999984              -0.000584980              -0.000348338               0.999999984              -0.000590373              -0.000344946               0.999999984              -0.000595309              -0.000337451               0.999999984              -0.000453741              -0.000435137               0.999999984              -0.000454970              -0.000364845               0.999999984              -0.000452277              -0.000342721               0.999999984              -0.000452094              -0.000341885               0.999999984              -0.000455053              -0.000351231               0.999999984              -0.000460427              -0.000365553               0.999999984              -0.000467205              -0.000382083               0.999999984              -0.000474619              -0.000399268               0.999999984              -0.000482165              -0.000415967               0.999999984              -0.000489350              -0.000431377               0.999999984              -0.000495811              -0.000444976               0.999999984              -0.000501209              -0.000456502               0.999999984              -0.000505524              -0.000465666               0.999999984              -0.000508715              -0.000472105               0.999999984              -0.000510940              -0.000475812               0.999999984              -0.000512608              -0.000476842               0.999999984              -0.000514085              -0.000475213               0.999999984              -0.000430119              -0.000535431               0.999999984              -0.000411768              -0.000452371               0.999999984              -0.000401654              -0.000429292               0.999999984              -0.000398918              -0.000431374               0.999999984              -0.000401145              -0.000444898               0.999999984              -0.000406236              -0.000463680               0.999999984              -0.000412579              -0.000484505               0.999999984              -0.000419139              -0.000505722               0.999999984              -0.000425166              -0.000526228               0.999999984              -0.000430165              -0.000545142               0.999999984              -0.000433994              -0.000561969               0.999999984              -0.000436375              -0.000576625               0.999999984              -0.000437371              -0.000588952               0.999999984              -0.000437152              -0.000598907               0.999999984              -0.000435986              -0.000606968               0.999999984              -0.000434161              -0.000613292               0.999999984              -0.000431849              -0.000617902               0.999999984              -0.000402314              -0.000630177               0.999999984              -0.000364109              -0.000537923               0.999999984              -0.000348474              -0.000515588               0.999999984              -0.000344962              -0.000521192               0.999999984              -0.000347629              -0.000538939               0.999999984              -0.000353040              -0.000562086               0.999999984              -0.000359240              -0.000587183               0.999999984              -0.000364932              -0.000612411               0.999999984              -0.000369505              -0.000636511               0.999999984              -0.000372566              -0.000658731               0.999999984              -0.000373681              -0.000678744               0.999999984              -0.000372858              -0.000696466               0.999999984              -0.000370380              -0.000711895               0.999999984              -0.000366466              -0.000725490               0.999999984              -0.000361363              -0.000737718               0.999999984              -0.000355128              -0.000748461               0.999999984              -0.000347585              -0.000757146               0.999999984              -0.000370967              -0.000718432               0.999999984              -0.000314416              -0.000621256               0.999999984              -0.000295862              -0.000600828               0.999999984              -0.000293523              -0.000609900               0.999999984              -0.000297546              -0.000631647               0.999999984              -0.000303772              -0.000658999               0.999999984              -0.000309935              -0.000688191               0.999999984              -0.000314844              -0.000717200               0.999999984              -0.000317773              -0.000744970               0.999999984              -0.000318144              -0.000770483               0.999999984              -0.000315934              -0.000793207               0.999999984              -0.000311314              -0.000813415               0.999999984              -0.000304534              -0.000831609               0.999999984              -0.000295954              -0.000848283               0.999999984              -0.000285649              -0.000863732               0.999999984              -0.000273640              -0.000877593               0.999999984              -0.000260025              -0.000889134               0.999999984              -0.000337307              -0.000798658               0.999999984              -0.000264363              -0.000702337               0.999999984              -0.000246585              -0.000683925               0.999999984              -0.000246653              -0.000696073               0.999999984              -0.000252635              -0.000721544               0.999999984              -0.000259860              -0.000752828               0.999999984              -0.000265986              -0.000785959               0.999999984              -0.000269639              -0.000818856               0.999999984              -0.000270135              -0.000849867               0.999999984              -0.000267081              -0.000877740               0.999999984              -0.000260462              -0.000902645               0.999999984              -0.000250699              -0.000925054               0.999999984              -0.000238374              -0.000945706               0.999999984              -0.000224001              -0.000964999               0.999999984              -0.000207889              -0.000982770               0.999999984              -0.000190373              -0.000998829               0.999999984              -0.000172010              -0.001013167               0.999999984              -0.000302997              -0.000873942               0.999999984              -0.000223272              -0.000790523               0.999999984              -0.000202449              -0.000767306               0.999999984              -0.000201154              -0.000773540               0.999999984              -0.000206419              -0.000794215               0.999999984              -0.000213421              -0.000822140               0.999999984              -0.000219772              -0.000853539               0.999999984              -0.000224038              -0.000886058               0.999999984              -0.000225622              -0.000917758               0.999999984              -0.000223748              -0.000947562               0.999999984              -0.000218188              -0.000974605               0.999999984              -0.000208947              -0.000999038               0.999999984              -0.000196514              -0.001021480               0.999999984              -0.000181704              -0.001042466               0.999999984              -0.000165083              -0.001062428               0.999999984              -0.000147404              -0.001081150               0.999999984              -0.000129303              -0.001098615               0.999999984              -0.000265325              -0.000942047               0.999999984              -0.000184955              -0.000875189               0.999999984              -0.000161158              -0.000852223               0.999999984              -0.000157807              -0.000854442               0.999999984              -0.000161790              -0.000871142               0.999999984              -0.000168055              -0.000896025               0.999999984              -0.000174133              -0.000925546               0.999999984              -0.000178627              -0.000957466               0.999999984              -0.000180866              -0.000989598               0.999999984              -0.000180119              -0.001020756               0.999999984              -0.000175750              -0.001050059               0.999999984              -0.000167431              -0.001076962               0.999999984              -0.000155219              -0.001101556               0.999999984              -0.000139924              -0.001124253               0.999999984              -0.000122176              -0.001145741               0.999999984              -0.000102696              -0.001166358               0.999999984              -0.000082316              -0.001186400               0.999999984              -0.000225156              -0.001001462               0.999999984              -0.000149310              -0.000953911               0.999999984              -0.000123926              -0.000934922               0.999999984              -0.000118351              -0.000935899               0.999999984              -0.000120566              -0.000950027               0.999999984              -0.000125516              -0.000972635               0.999999984              -0.000130804              -0.001000643               0.999999984              -0.000135104              -0.001031828               0.999999984              -0.000137610              -0.001064341               0.999999984              -0.000137563              -0.001096809               0.999999984              -0.000134219              -0.001128108               0.999999984              -0.000127074              -0.001157859               0.999999984              -0.000115819              -0.001185409               0.999999984              -0.000100610              -0.001210735               0.999999984              -0.000081834              -0.001234265               0.999999984              -0.000059932              -0.001256756               0.999999984              -0.000035551              -0.001278681               0.999999984              -0.000182810              -0.001051352               0.999999984              -0.000116217              -0.001023645               0.999999984              -0.000091354              -0.001011303               0.999999984              -0.000084168              -0.001013555               0.999999984              -0.000084505              -0.001026927               0.999999984              -0.000087803              -0.001048334               0.999999984              -0.000091852              -0.001075530               0.999999984              -0.000095406              -0.001106475               0.999999984              -0.000097828              -0.001139349               0.999999984              -0.000098218              -0.001173118               0.999999984              -0.000095574              -0.001206628               0.999999984              -0.000089521              -0.001239206               0.999999984              -0.000079813              -0.001270224               0.999999984              -0.000065893              -0.001299276               0.999999984              -0.000047246              -0.001326269               0.999999984              -0.000023806              -0.001351671               0.999999984               0.000004271              -0.001375976               0.999999984              -0.000138708              -0.001090885               0.999999984              -0.000085304              -0.001081409               0.999999984              -0.000063466              -0.001076981               0.999999984              -0.000055877              -0.001082238               0.999999984              -0.000054799              -0.001096418               0.999999984              -0.000056494              -0.001117805               0.999999984              -0.000059145              -0.001144914               0.999999984              -0.000061799              -0.001175994               0.999999984              -0.000063737              -0.001209557               0.999999984              -0.000064148              -0.001244626               0.999999984              -0.000062124              -0.001280247               0.999999984              -0.000057386              -0.001315626               0.999999984              -0.000049636              -0.001350078               0.999999984              -0.000037992              -0.001383248               0.999999984              -0.000021530              -0.001414696               0.999999984               0.000000699              -0.001444318               0.999999984               0.000029283              -0.001472236               0.999999984              -0.000093244              -0.001119501               0.999999984              -0.000056010              -0.001124617               0.999999984              -0.000039749              -0.001127663               0.999999984              -0.000033357              -0.001136470               0.999999984              -0.000031743              -0.001152258               0.999999984              -0.000032255              -0.001174378               0.999999984              -0.000033790              -0.001201842               0.999999984              -0.000035515              -0.001233337               0.999999984              -0.000036750              -0.001267682               0.999999984              -0.000036950              -0.001303974               0.999999984              -0.000035599              -0.001341378               0.999999984              -0.000032430              -0.001379214               0.999999984              -0.000026916              -0.001416821               0.999999984              -0.000018468              -0.001453770               0.999999984              -0.000006114              -0.001489486               0.999999984               0.000011414              -0.001523597               0.999999984               0.000035297              -0.001555695               0.999999984              -0.000046837              -0.001136842               0.999999984              -0.000027761              -0.001151334               0.999999984              -0.000019105              -0.001159712               0.999999984              -0.000015431              -0.001171433               0.999999984              -0.000014281              -0.001188694               0.999999984              -0.000014284              -0.001211539               0.999999984              -0.000014960              -0.001239486               0.999999984              -0.000015780              -0.001271430               0.999999984              -0.000016363              -0.001306382               0.999999984              -0.000016387              -0.001343535               0.999999984              -0.000015756              -0.001382152               0.999999984              -0.000014097              -0.001421726               0.999999984              -0.000011271              -0.001461618               0.999999984              -0.000006855              -0.001501338               0.999999984              -0.000000068              -0.001540247               0.999999984               0.000009630              -0.001577780               0.999999984               0.000023176              -0.001613179               0.999999984              -0.000000000              -0.001142579               0.999999984              -0.000000000              -0.001160323               0.999999984              -0.000000000              -0.001170718               0.999999984               0.000000000              -0.001183540               0.999999984               0.000000000              -0.001201361               0.999999984              -0.000000000              -0.001224487               0.999999984               0.000000000              -0.001252641               0.999999984              -0.000000000              -0.001284870               0.999999984              -0.000000000              -0.001320053               0.999999984               0.000000000              -0.001357478               0.999999984               0.000000000              -0.001396510               0.999999984               0.000000000              -0.001436678               0.999999984               0.000000000              -0.001477400               0.999999984              -0.000000000              -0.001518140               0.999999984              -0.000000000              -0.001558220               0.999999984               0.000000000              -0.001596996               0.999999984              -0.000000000              -0.001633667               0.999999984               0.000497729               0.000000000               0.999999984               0.000541480               0.000000000               0.999999984               0.000561427               0.000000000               0.999999984               0.000573068               0.000000000               0.999999984               0.000582303               0.000000000               0.999999984               0.000591454               0.000000000               0.999999984               0.000601500               0.000000000               0.999999984               0.000612630               0.000000000               0.999999984               0.000624796               0.000000000               0.999999984               0.000637923               0.000000000               0.999999984               0.000651818               0.000000000               0.999999984               0.000666338               0.000000000               0.999999984               0.000681200               0.000000000               0.999999984               0.000696223               0.000000000               0.999999984               0.000711039               0.000000000               0.999999984               0.000725217              -0.000000000               0.999999984               0.000738353              -0.000000000               0.999999984               0.000494917              -0.000111627               0.999999984               0.000535724              -0.000092684               0.999999984               0.000553808              -0.000085097               0.999999984               0.000564290              -0.000083223               0.999999984               0.000572839              -0.000084509               0.999999984               0.000581574              -0.000087458               0.999999984               0.000591229              -0.000091233               0.999999984               0.000601961              -0.000095449               0.999999984               0.000613708              -0.000099703               0.999999984               0.000626328              -0.000103740               0.999999984               0.000639573              -0.000107210               0.999999984               0.000653173              -0.000109995               0.999999984               0.000666960              -0.000111884               0.999999984               0.000680794              -0.000112531               0.999999984               0.000694300              -0.000111462               0.999999984               0.000707163              -0.000108136               0.999999984               0.000719068              -0.000101653               0.999999984               0.000486494              -0.000222106               0.999999984               0.000518670              -0.000184727               0.999999984               0.000531620              -0.000170491               0.999999984               0.000539128              -0.000167570               0.999999984               0.000545903              -0.000170642               0.999999984               0.000553480              -0.000176932               0.999999984               0.000562166              -0.000184752               0.999999984               0.000572000              -0.000193277               0.999999984               0.000582675              -0.000201782               0.999999984               0.000593827              -0.000209710               0.999999984               0.000605246              -0.000216518               0.999999984               0.000616696              -0.000222063               0.999999984               0.000628034              -0.000226147               0.999999984               0.000639013              -0.000228050               0.999999984               0.000649411              -0.000226955               0.999999984               0.000659034              -0.000222144               0.999999984               0.000667767              -0.000212751               0.999999984               0.000472683              -0.000330310               0.999999984               0.000491276              -0.000275561               0.999999984               0.000496790              -0.000256375               0.999999984               0.000500366              -0.000253762               0.999999984               0.000504995              -0.000259541               0.999999984               0.000511229              -0.000269613               0.999999984               0.000518864              -0.000281728               0.999999984               0.000527493              -0.000294635               0.999999984               0.000536541              -0.000307335               0.999999984               0.000545756              -0.000319068               0.999999984               0.000554885              -0.000329365               0.999999984               0.000563635              -0.000337906               0.999999984               0.000571644              -0.000344265               0.999999984               0.000578780              -0.000347917               0.999999984               0.000584980              -0.000348338               0.999999984               0.000590373              -0.000344946               0.999999984               0.000595309              -0.000337451               0.999999984               0.000453741              -0.000435137               0.999999984               0.000454970              -0.000364845               0.999999984               0.000452277              -0.000342721               0.999999984               0.000452094              -0.000341885               0.999999984               0.000455053              -0.000351231               0.999999984               0.000460427              -0.000365553               0.999999984               0.000467205              -0.000382083               0.999999984               0.000474619              -0.000399268               0.999999984               0.000482165              -0.000415967               0.999999984               0.000489350              -0.000431377               0.999999984               0.000495811              -0.000444976               0.999999984               0.000501209              -0.000456502               0.999999984               0.000505524              -0.000465666               0.999999984               0.000508715              -0.000472105               0.999999984               0.000510940              -0.000475812               0.999999984               0.000512608              -0.000476842               0.999999984               0.000514085              -0.000475213               0.999999984               0.000430119              -0.000535431               0.999999984               0.000411768              -0.000452371               0.999999984               0.000401654              -0.000429292               0.999999984               0.000398918              -0.000431374               0.999999984               0.000401145              -0.000444898               0.999999984               0.000406236              -0.000463680               0.999999984               0.000412579              -0.000484505               0.999999984               0.000419139              -0.000505722               0.999999984               0.000425166              -0.000526228               0.999999984               0.000430165              -0.000545142               0.999999984               0.000433994              -0.000561969               0.999999984               0.000436375              -0.000576625               0.999999984               0.000437371              -0.000588952               0.999999984               0.000437152              -0.000598907               0.999999984               0.000435986              -0.000606968               0.999999984               0.000434161              -0.000613292               0.999999984               0.000431849              -0.000617902               0.999999984               0.000402314              -0.000630177               0.999999984               0.000364109              -0.000537923               0.999999984               0.000348474              -0.000515588               0.999999984               0.000344962              -0.000521192               0.999999984               0.000347629              -0.000538939               0.999999984               0.000353040              -0.000562086               0.999999984               0.000359240              -0.000587183               0.999999984               0.000364932              -0.000612411               0.999999984               0.000369505              -0.000636511               0.999999984               0.000372566              -0.000658731               0.999999984               0.000373681              -0.000678744               0.999999984               0.000372858              -0.000696466               0.999999984               0.000370380              -0.000711895               0.999999984               0.000366466              -0.000725490               0.999999984               0.000361363              -0.000737718               0.999999984               0.000355128              -0.000748461               0.999999984               0.000347585              -0.000757146               0.999999984               0.000370967              -0.000718432               0.999999984               0.000314416              -0.000621256               0.999999984               0.000295862              -0.000600828               0.999999984               0.000293523              -0.000609900               0.999999984               0.000297546              -0.000631647               0.999999984               0.000303772              -0.000658999               0.999999984               0.000309935              -0.000688191               0.999999984               0.000314844              -0.000717200               0.999999984               0.000317773              -0.000744970               0.999999984               0.000318144              -0.000770483               0.999999984               0.000315934              -0.000793207               0.999999984               0.000311314              -0.000813415               0.999999984               0.000304534              -0.000831609               0.999999984               0.000295954              -0.000848283               0.999999984               0.000285649              -0.000863732               0.999999984               0.000273640              -0.000877593               0.999999984               0.000260025              -0.000889134               0.999999984               0.000337307              -0.000798658               0.999999984               0.000264363              -0.000702337               0.999999984               0.000246585              -0.000683925               0.999999984               0.000246653              -0.000696073               0.999999984               0.000252635              -0.000721544               0.999999984               0.000259860              -0.000752828               0.999999984               0.000265986              -0.000785959               0.999999984               0.000269639              -0.000818856               0.999999984               0.000270135              -0.000849867               0.999999984               0.000267081              -0.000877740               0.999999984               0.000260462              -0.000902645               0.999999984               0.000250699              -0.000925054               0.999999984               0.000238374              -0.000945706               0.999999984               0.000224001              -0.000964999               0.999999984               0.000207889              -0.000982770               0.999999984               0.000190373              -0.000998829               0.999999984               0.000172010              -0.001013167               0.999999984               0.000302997              -0.000873942               0.999999984               0.000223272              -0.000790523               0.999999984               0.000202449              -0.000767306               0.999999984               0.000201154              -0.000773540               0.999999984               0.000206419              -0.000794215               0.999999984               0.000213421              -0.000822140               0.999999984               0.000219772              -0.000853539               0.999999984               0.000224038              -0.000886058               0.999999984               0.000225622              -0.000917758               0.999999984               0.000223748              -0.000947562               0.999999984               0.000218188              -0.000974605               0.999999984               0.000208947              -0.000999038               0.999999984               0.000196514              -0.001021480               0.999999984               0.000181704              -0.001042466               0.999999984               0.000165083              -0.001062428               0.999999984               0.000147404              -0.001081150               0.999999984               0.000129303              -0.001098615               0.999999984               0.000265325              -0.000942047               0.999999984               0.000184955              -0.000875189               0.999999984               0.000161158              -0.000852223               0.999999984               0.000157807              -0.000854442               0.999999984               0.000161790              -0.000871142               0.999999984               0.000168055              -0.000896025               0.999999984               0.000174133              -0.000925546               0.999999984               0.000178627              -0.000957466               0.999999984               0.000180866              -0.000989598               0.999999984               0.000180119              -0.001020756               0.999999984               0.000175750              -0.001050059               0.999999984               0.000167431              -0.001076962               0.999999984               0.000155219              -0.001101556               0.999999984               0.000139924              -0.001124253               0.999999984               0.000122176              -0.001145741               0.999999984               0.000102696              -0.001166358               0.999999984               0.000082316              -0.001186400               0.999999984               0.000225156              -0.001001462               0.999999984               0.000149310              -0.000953911               0.999999984               0.000123926              -0.000934922               0.999999984               0.000118351              -0.000935899               0.999999984               0.000120566              -0.000950027               0.999999984               0.000125516              -0.000972635               0.999999984               0.000130804              -0.001000643               0.999999984               0.000135104              -0.001031828               0.999999984               0.000137610              -0.001064341               0.999999984               0.000137563              -0.001096809               0.999999984               0.000134219              -0.001128108               0.999999984               0.000127074              -0.001157859               0.999999984               0.000115819              -0.001185409               0.999999984               0.000100610              -0.001210735               0.999999984               0.000081834              -0.001234265               0.999999984               0.000059932              -0.001256756               0.999999984               0.000035551              -0.001278681               0.999999984               0.000182810              -0.001051352               0.999999984               0.000116217              -0.001023645               0.999999984               0.000091354              -0.001011303               0.999999984               0.000084168              -0.001013555               0.999999984               0.000084505              -0.001026927               0.999999984               0.000087803              -0.001048334               0.999999984               0.000091852              -0.001075530               0.999999984               0.000095406              -0.001106475               0.999999984               0.000097828              -0.001139349               0.999999984               0.000098218              -0.001173118               0.999999984               0.000095574              -0.001206628               0.999999984               0.000089521              -0.001239206               0.999999984               0.000079813              -0.001270224               0.999999984               0.000065893              -0.001299276               0.999999984               0.000047246              -0.001326269               0.999999984               0.000023806              -0.001351671               0.999999984              -0.000004271              -0.001375976               0.999999984               0.000138708              -0.001090885               0.999999984               0.000085304              -0.001081409               0.999999984               0.000063466              -0.001076981               0.999999984               0.000055877              -0.001082238               0.999999984               0.000054799              -0.001096418               0.999999984               0.000056494              -0.001117805               0.999999984               0.000059145              -0.001144914               0.999999984               0.000061799              -0.001175994               0.999999984               0.000063737              -0.001209557               0.999999984               0.000064148              -0.001244626               0.999999984               0.000062124              -0.001280247               0.999999984               0.000057386              -0.001315626               0.999999984               0.000049636              -0.001350078               0.999999984               0.000037992              -0.001383248               0.999999984               0.000021530              -0.001414696               0.999999984              -0.000000699              -0.001444318               0.999999984              -0.000029283              -0.001472236               0.999999984               0.000093244              -0.001119501               0.999999984               0.000056010              -0.001124617               0.999999984               0.000039749              -0.001127663               0.999999984               0.000033357              -0.001136470               0.999999984               0.000031743              -0.001152258               0.999999984               0.000032255              -0.001174378               0.999999984               0.000033790              -0.001201842               0.999999984               0.000035515              -0.001233337               0.999999984               0.000036750              -0.001267682               0.999999984               0.000036950              -0.001303974               0.999999984               0.000035599              -0.001341378               0.999999984               0.000032430              -0.001379214               0.999999984               0.000026916              -0.001416821               0.999999984               0.000018468              -0.001453770               0.999999984               0.000006114              -0.001489486               0.999999984              -0.000011414              -0.001523597               0.999999984              -0.000035297              -0.001555695               0.999999984               0.000046837              -0.001136842               0.999999984               0.000027761              -0.001151334               0.999999984               0.000019105              -0.001159712               0.999999984               0.000015431              -0.001171433               0.999999984               0.000014281              -0.001188694               0.999999984               0.000014284              -0.001211539               0.999999984               0.000014960              -0.001239486               0.999999984               0.000015780              -0.001271430               0.999999984               0.000016363              -0.001306382               0.999999984               0.000016387              -0.001343535               0.999999984               0.000015756              -0.001382152               0.999999984               0.000014097              -0.001421726               0.999999984               0.000011271              -0.001461618               0.999999984               0.000006855              -0.001501338               0.999999984               0.000000068              -0.001540247               0.999999984              -0.000009630              -0.001577780               0.999999984              -0.000023176              -0.001613179               0.999999984              -0.000000000              -0.001142579               0.999999984              -0.000000000              -0.001160323               0.999999984              -0.000000000              -0.001170718               0.999999984               0.000000000              -0.001183540               0.999999984               0.000000000              -0.001201361               0.999999984              -0.000000000              -0.001224487               0.999999984               0.000000000              -0.001252641               0.999999984              -0.000000000              -0.001284870               0.999999984              -0.000000000              -0.001320053               0.999999984               0.000000000              -0.001357478               0.999999984               0.000000000              -0.001396510               0.999999984               0.000000000              -0.001436678               0.999999984               0.000000000              -0.001477400               0.999999984              -0.000000000              -0.001518140               0.999999984              -0.000000000              -0.001558220               0.999999984               0.000000000              -0.001596996               0.999999984              -0.000000000              -0.001633667               0.999999984               0.000497729               0.000000000               0.999999984               0.000541480               0.000000000               0.999999984               0.000561427               0.000000000               0.999999984               0.000573068               0.000000000               0.999999984               0.000582303               0.000000000               0.999999984               0.000591454               0.000000000               0.999999984               0.000601500               0.000000000               0.999999984               0.000612630               0.000000000               0.999999984               0.000624796               0.000000000               0.999999984               0.000637923               0.000000000               0.999999984               0.000651818               0.000000000               0.999999984               0.000666338               0.000000000               0.999999984               0.000681200               0.000000000               0.999999984               0.000696223               0.000000000               0.999999984               0.000711039               0.000000000               0.999999984               0.000725217              -0.000000000               0.999999984               0.000738353              -0.000000000               0.999999984               0.000494917               0.000111627               0.999999984               0.000535724               0.000092684               0.999999984               0.000553808               0.000085097               0.999999984               0.000564290               0.000083223               0.999999984               0.000572839               0.000084509               0.999999984               0.000581574               0.000087458               0.999999984               0.000591229               0.000091233               0.999999984               0.000601961               0.000095449               0.999999984               0.000613708               0.000099703               0.999999984               0.000626328               0.000103740               0.999999984               0.000639573               0.000107210               0.999999984               0.000653173               0.000109995               0.999999984               0.000666960               0.000111884               0.999999984               0.000680794               0.000112531               0.999999984               0.000694300               0.000111462               0.999999984               0.000707163               0.000108136               0.999999984               0.000719068               0.000101653               0.999999984               0.000486494               0.000222106               0.999999984               0.000518670               0.000184727               0.999999984               0.000531620               0.000170491               0.999999984               0.000539128               0.000167570               0.999999984               0.000545903               0.000170642               0.999999984               0.000553480               0.000176932               0.999999984               0.000562166               0.000184752               0.999999984               0.000572000               0.000193277               0.999999984               0.000582675               0.000201782               0.999999984               0.000593827               0.000209710               0.999999984               0.000605246               0.000216518               0.999999984               0.000616696               0.000222063               0.999999984               0.000628034               0.000226147               0.999999984               0.000639013               0.000228050               0.999999984               0.000649411               0.000226955               0.999999984               0.000659034               0.000222144               0.999999984               0.000667767               0.000212751               0.999999984               0.000472683               0.000330310               0.999999984               0.000491276               0.000275561               0.999999984               0.000496790               0.000256375               0.999999984               0.000500366               0.000253762               0.999999984               0.000504995               0.000259541               0.999999984               0.000511229               0.000269613               0.999999984               0.000518864               0.000281728               0.999999984               0.000527493               0.000294635               0.999999984               0.000536541               0.000307335               0.999999984               0.000545756               0.000319068               0.999999984               0.000554885               0.000329365               0.999999984               0.000563635               0.000337906               0.999999984               0.000571644               0.000344265               0.999999984               0.000578780               0.000347917               0.999999984               0.000584980               0.000348338               0.999999984               0.000590373               0.000344946               0.999999984               0.000595309               0.000337451               0.999999984               0.000453741               0.000435137               0.999999984               0.000454970               0.000364845               0.999999984               0.000452277               0.000342721               0.999999984               0.000452094               0.000341885               0.999999984               0.000455053               0.000351231               0.999999984               0.000460427               0.000365553               0.999999984               0.000467205               0.000382083               0.999999984               0.000474619               0.000399268               0.999999984               0.000482165               0.000415967               0.999999984               0.000489350               0.000431377               0.999999984               0.000495811               0.000444976               0.999999984               0.000501209               0.000456502               0.999999984               0.000505524               0.000465666               0.999999984               0.000508715               0.000472105               0.999999984               0.000510940               0.000475812               0.999999984               0.000512608               0.000476842               0.999999984               0.000514085               0.000475213               0.999999984               0.000430119               0.000535431               0.999999984               0.000411768               0.000452371               0.999999984               0.000401654               0.000429292               0.999999984               0.000398918               0.000431374               0.999999984               0.000401145               0.000444898               0.999999984               0.000406236               0.000463680               0.999999984               0.000412579               0.000484505               0.999999984               0.000419139               0.000505722               0.999999984               0.000425166               0.000526228               0.999999984               0.000430165               0.000545142               0.999999984               0.000433994               0.000561969               0.999999984               0.000436375               0.000576625               0.999999984               0.000437371               0.000588952               0.999999984               0.000437152               0.000598907               0.999999984               0.000435986               0.000606968               0.999999984               0.000434161               0.000613292               0.999999984               0.000431849               0.000617902               0.999999984               0.000402314               0.000630177               0.999999984               0.000364109               0.000537923               0.999999984               0.000348474               0.000515588               0.999999984               0.000344962               0.000521192               0.999999984               0.000347629               0.000538939               0.999999984               0.000353040               0.000562086               0.999999984               0.000359240               0.000587183               0.999999984               0.000364932               0.000612411               0.999999984               0.000369505               0.000636511               0.999999984               0.000372566               0.000658731               0.999999984               0.000373681               0.000678744               0.999999984               0.000372858               0.000696466               0.999999984               0.000370380               0.000711895               0.999999984               0.000366466               0.000725490               0.999999984               0.000361363               0.000737718               0.999999984               0.000355128               0.000748461               0.999999984               0.000347585               0.000757146               0.999999984               0.000370967               0.000718432               0.999999984               0.000314416               0.000621256               0.999999984               0.000295862               0.000600828               0.999999984               0.000293523               0.000609900               0.999999984               0.000297546               0.000631647               0.999999984               0.000303772               0.000658999               0.999999984               0.000309935               0.000688191               0.999999984               0.000314844               0.000717200               0.999999984               0.000317773               0.000744970               0.999999984               0.000318144               0.000770483               0.999999984               0.000315934               0.000793207               0.999999984               0.000311314               0.000813415               0.999999984               0.000304534               0.000831609               0.999999984               0.000295954               0.000848283               0.999999984               0.000285649               0.000863732               0.999999984               0.000273640               0.000877593               0.999999984               0.000260025               0.000889134               0.999999984               0.000337307               0.000798658               0.999999984               0.000264363               0.000702337               0.999999984               0.000246585               0.000683925               0.999999984               0.000246653               0.000696073               0.999999984               0.000252635               0.000721544               0.999999984               0.000259860               0.000752828               0.999999984               0.000265986               0.000785959               0.999999984               0.000269639               0.000818856               0.999999984               0.000270135               0.000849867               0.999999984               0.000267081               0.000877740               0.999999984               0.000260462               0.000902645               0.999999984               0.000250699               0.000925054               0.999999984               0.000238374               0.000945706               0.999999984               0.000224001               0.000964999               0.999999984               0.000207889               0.000982770               0.999999984               0.000190373               0.000998829               0.999999984               0.000172010               0.001013167               0.999999984               0.000302997               0.000873942               0.999999984               0.000223272               0.000790523               0.999999984               0.000202449               0.000767306               0.999999984               0.000201154               0.000773540               0.999999984               0.000206419               0.000794215               0.999999984               0.000213421               0.000822140               0.999999984               0.000219772               0.000853539               0.999999984               0.000224038               0.000886058               0.999999984               0.000225622               0.000917758               0.999999984               0.000223748               0.000947562               0.999999984               0.000218188               0.000974605               0.999999984               0.000208947               0.000999038               0.999999984               0.000196514               0.001021480               0.999999984               0.000181704               0.001042466               0.999999984               0.000165083               0.001062428               0.999999984               0.000147404               0.001081150               0.999999984               0.000129303               0.001098615               0.999999984               0.000265325               0.000942047               0.999999984               0.000184955               0.000875189               0.999999984               0.000161158               0.000852223               0.999999984               0.000157807               0.000854442               0.999999984               0.000161790               0.000871142               0.999999984               0.000168055               0.000896025               0.999999984               0.000174133               0.000925546               0.999999984               0.000178627               0.000957466               0.999999984               0.000180866               0.000989598               0.999999984               0.000180119               0.001020756               0.999999984               0.000175750               0.001050059               0.999999984               0.000167431               0.001076962               0.999999984               0.000155219               0.001101556               0.999999984               0.000139924               0.001124253               0.999999984               0.000122176               0.001145741               0.999999984               0.000102696               0.001166358               0.999999984               0.000082316               0.001186400               0.999999984               0.000225156               0.001001462               0.999999984               0.000149310               0.000953911               0.999999984               0.000123926               0.000934922               0.999999984               0.000118351               0.000935899               0.999999984               0.000120566               0.000950027               0.999999984               0.000125516               0.000972635               0.999999984               0.000130804               0.001000643               0.999999984               0.000135104               0.001031828               0.999999984               0.000137610               0.001064341               0.999999984               0.000137563               0.001096809               0.999999984               0.000134219               0.001128108               0.999999984               0.000127074               0.001157859               0.999999984               0.000115819               0.001185409               0.999999984               0.000100610               0.001210735               0.999999984               0.000081834               0.001234265               0.999999984               0.000059932               0.001256756               0.999999984               0.000035551               0.001278681               0.999999984               0.000182810               0.001051352               0.999999984               0.000116217               0.001023645               0.999999984               0.000091354               0.001011303               0.999999984               0.000084168               0.001013555               0.999999984               0.000084505               0.001026927               0.999999984               0.000087803               0.001048334               0.999999984               0.000091852               0.001075530               0.999999984               0.000095406               0.001106475               0.999999984               0.000097828               0.001139349               0.999999984               0.000098218               0.001173118               0.999999984               0.000095574               0.001206628               0.999999984               0.000089521               0.001239206               0.999999984               0.000079813               0.001270224               0.999999984               0.000065893               0.001299276               0.999999984               0.000047246               0.001326269               0.999999984               0.000023806               0.001351671               0.999999984              -0.000004271               0.001375976               0.999999984               0.000138708               0.001090885               0.999999984               0.000085304               0.001081409               0.999999984               0.000063466               0.001076981               0.999999984               0.000055877               0.001082238               0.999999984               0.000054799               0.001096418               0.999999984               0.000056494               0.001117805               0.999999984               0.000059145               0.001144914               0.999999984               0.000061799               0.001175994               0.999999984               0.000063737               0.001209557               0.999999984               0.000064148               0.001244626               0.999999984               0.000062124               0.001280247               0.999999984               0.000057386               0.001315626               0.999999984               0.000049636               0.001350078               0.999999984               0.000037992               0.001383248               0.999999984               0.000021530               0.001414696               0.999999984              -0.000000699               0.001444318               0.999999984              -0.000029283               0.001472236               0.999999984               0.000093244               0.001119501               0.999999984               0.000056010               0.001124617               0.999999984               0.000039749               0.001127663               0.999999984               0.000033357               0.001136470               0.999999984               0.000031743               0.001152258               0.999999984               0.000032255               0.001174378               0.999999984               0.000033790               0.001201842               0.999999984               0.000035515               0.001233337               0.999999984               0.000036750               0.001267682               0.999999984               0.000036950               0.001303974               0.999999984               0.000035599               0.001341378               0.999999984               0.000032430               0.001379214               0.999999984               0.000026916               0.001416821               0.999999984               0.000018468               0.001453770               0.999999984               0.000006114               0.001489486               0.999999984              -0.000011414               0.001523597               0.999999984              -0.000035297               0.001555695               0.999999984               0.000046837               0.001136842               0.999999984               0.000027761               0.001151334               0.999999984               0.000019105               0.001159712               0.999999984               0.000015431               0.001171433               0.999999984               0.000014281               0.001188694               0.999999984               0.000014284               0.001211539               0.999999984               0.000014960               0.001239486               0.999999984               0.000015780               0.001271430               0.999999984               0.000016363               0.001306382               0.999999984               0.000016387               0.001343535               0.999999984               0.000015756               0.001382152               0.999999984               0.000014097               0.001421726               0.999999984               0.000011271               0.001461618               0.999999984               0.000006855               0.001501338               0.999999984               0.000000068               0.001540247               0.999999984              -0.000009630               0.001577780               0.999999984              -0.000023176               0.001613179               0.999999984               0.000000000               0.001142579               0.999999984               0.000000000               0.001160323               0.999999984              -0.000000000               0.001170718               0.999999984              -0.000000000               0.001183540               0.999999984              -0.000000000               0.001201361               0.999999984              -0.000000000               0.001224487               0.999999984              -0.000000000               0.001252641               0.999999984               0.000000000               0.001284870               0.999999984              -0.000000000               0.001320053               0.999999984              -0.000000000               0.001357478               0.999999984               0.000000000               0.001396510               0.999999984               0.000000000               0.001436678               0.999999984               0.000000000               0.001477400               0.999999984               0.000000000               0.001518140               0.999999984              -0.000000000               0.001558220               0.999999984              -0.000000000               0.001596996               0.999999984               0.000000000               0.001633667               0.999999984 </DataArray>
<DataArray type="Float64"                                    Name="defo"                                                      NumberOfComponents=" 3" format="ascii">
             -0.000497729               0.000000000               0.999999984              -0.000541480              -0.000000000               0.999999984              -0.000561427               0.000000000               0.999999984              -0.000573068               0.000000000               0.999999984              -0.000582303               0.000000000               0.999999984              -0.000591454               0.000000000               0.999999984              -0.000601500               0.000000000               0.999999984              -0.000612630               0.000000000               0.999999984              -0.000624796               0.000000000               0.999999984              -0.000637923               0.000000000               0.999999984              -0.000651818               0.000000000               0.999999984              -0.000666338              -0.000000000               0.999999984              -0.000681200              -0.000000000               0.999999984              -0.000696223               0.000000000               0.999999984              -0.000711039              -0.000000000               0.999999984              -0.000725217               0.000000000               0.999999984              -0.000738353               0.000000000               0.999999984              -0.000494917               0.000111627               0.999999984              -0.000535724               0.000092684               0.999999984              -0.000553808               0.000085097               0.999999984              -0.000564290               0.000083223               0.999999984              -0.000572839               0.000084509               0.999999984              -0.000581574               0.000087458               0.999999984              -0.000591229               0.000091233               0.999999984              -0.000601961               0.000095449               0.999999984              -0.000613708               0.000099703               0.999999984              -0.000626328               0.000103740               0.999999984              -0.000639573               0.000107210               0.999999984              -0.000653173               0.000109995               0.999999984              -0.000666960               0.000111884               0.999999984              -0.000680794               0.000112531               0.999999984              -0.000694300               0.000111462               0.999999984              -0.000707163               0.000108136               0.999999984              -0.000719068               0.000101653               0.999999984              -0.000486494               0.000222106               0.999999984              -0.000518670               0.000184727               0.999999984              -0.000531620               0.000170491               0.999999984              -0.000539128               0.000167570               0.999999984              -0.000545903               0.000170642               0.999999984              -0.000553480               0.000176932               0.999999984              -0.000562166               0.000184752               0.999999984              -0.000572000               0.000193277               0.999999984              -0.000582675               0.000201782               0.999999984              -0.000593827               0.000209710               0.999999984              -0.000605246               0.000216518               0.999999984              -0.000616696               0.000222063               0.999999984              -0.000628034               0.000226147               0.999999984              -0.000639013               0.000228050               0.999999984              -0.000649411               0.000226955               0.999999984              -0.000659034               0.000222144               0.999999984              -0.000667767               0.000212751               0.999999984              -0.000472683               0.000330310               0.999999984              -0.000491276               0.000275561               0.999999984              -0.000496790               0.000256375               0.999999984              -0.000500366               0.000253762               0.999999984              -0.000504995               0.000259541               0.999999984              -0.000511229               0.000269613               0.999999984              -0.000518864               0.000281728               0.999999984              -0.000527493               0.000294635               0.999999984              -0.000536541               0.000307335               0.999999984              -0.000545756               0.000319068               0.999999984              -0.000554885               0.000329365               0.999999984              -0.000563635               0.000337906               0.999999984              -0.000571644               0.000344265               0.999999984              -0.000578780               0.000347917               0.999999984              -0.000584980               0.000348338               0.999999984              -0.000590373               0.000344946               0.999999984              -0.000595309               0.000337451               0.999999984              -0.000453741               0.000435137               0.999999984              -0.000454970               0.000364845               0.999999984              -0.000452277               0.000342721               0.999999984              -0.000452094               0.000341885               0.999999984              -0.000455053               0.000351231               0.999999984              -0.000460427               0.000365553               0.999999984              -0.000467205               0.000382083               0.999999984              -0.000474619               0.000399268               0.999999984              -0.000482165               0.000415967               0.999999984              -0.000489350               0.000431377               0.999999984              -0.000495811               0.000444976               0.999999984              -0.000501209               0.000456502               0.999999984              -0.000505524               0.000465666               0.999999984              -0.000508715               0.000472105               0.999999984              -0.000510940               0.000475812               0.999999984              -0.000512608               0.000476842               0.999999984              -0.000514085               0.000475213               0.999999984              -0.000430119               0.000535431               0.999999984              -0.000411768               0.000452371               0.999999984              -0.000401654               0.000429292               0.999999984              -0.000398918               0.000431374               0.999999984              -0.000401145               0.000444898               0.999999984              -0.000406236               0.000463680               0.999999984              -0.000412579               0.000484505               0.999999984              -0.000419139               0.000505722               0.999999984              -0.000425166               0.000526228               0.999999984              -0.000430165               0.000545142               0.999999984              -0.000433994               0.000561969               0.999999984              -0.000436375               0.000576625               0.999999984              -0.000437371               0.000588952               0.999999984              -0.000437152               0.000598907               0.999999984              -0.000435986               0.000606968               0.999999984              -0.000434161               0.000613292               0.999999984              -0.000431849               0.000617902               0.999999984              -0.000402314               0.000630177               0.999999984              -0.000364109               0.000537923               0.999999984              -0.000348474               0.000515588               0.999999984              -0.000344962               0.000521192               0.999999984              -0.000347629               0.000538939               0.999999984              -0.000353040               0.000562086               0.999999984              -0.000359240               0.000587183               0.999999984              -0.000364932               0.000612411               0.999999984              -0.000369505               0.000636511               0.999999984              -0.000372566               0.000658731               0.999999984              -0.000373681               0.000678744               0.999999984              -0.000372858               0.000696466               0.999999984              -0.000370380               0.000711895               0.999999984              -0.000366466               0.000725490               0.999999984              -0.000361363               0.000737718               0.999999984              -0.000355128               0.000748461               0.999999984              -0.000347585               0.000757146               0.999999984              -0.000370967               0.000718432               0.999999984              -0.000314416               0.000621256               0.999999984              -0.000295862               0.000600828               0.999999984              -0.000293523               0.000609900               0.999999984              -0.000297546               0.000631647               0.999999984              -0.000303772               0.000658999               0.999999984              -0.000309935               0.000688191               0.999999984              -0.000314844               0.000717200               0.999999984              -0.000317773               0.000744970               0.999999984              -0.000318144               0.000770483               0.999999984              -0.000315934               0.000793207               0.999999984              -0.000311314               0.000813415               0.999999984              -0.000304534               0.000831609               0.999999984              -0.000295954               0.000848283               0.999999984              -0.000285649               0.000863732               0.999999984              -0.000273640               0.000877593               0.999999984              -0.000260025               0.000889134               0.999999984              -0.000337307               0.000798658               0.999999984              -0.000264363               0.000702337               0.999999984              -0.000246585               0.000683925               0.999999984              -0.000246653               0.000696073               0.999999984              -0.000252635               0.000721544               0.999999984              -0.000259860               0.000752828               0.999999984              -0.000265986               0.000785959               0.999999984              -0.000269639               0.000818856               0.999999984              -0.000270135               0.000849867               0.999999984              -0.000267081               0.000877740               0.999999984              -0.000260462               0.000902645               0.999999984              -0.000250699               0.000925054               0.999999984              -0.000238374               0.000945706               0.999999984              -0.000224001               0.000964999               0.999999984              -0.000207889               0.000982770               0.999999984              -0.000190373               0.000998829               0.999999984              -0.000172010               0.001013167               0.999999984              -0.000302997               0.000873942               0.999999984              -0.000223272               0.000790523               0.999999984              -0.000202449               0.000767306               0.999999984              -0.000201154               0.000773540               0.999999984              -0.000206419               0.000794215               0.999999984              -0.000213421               0.000822140               0.999999984              -0.000219772               0.000853539               0.999999984              -0.000224038               0.000886058               0.999999984              -0.000225622               0.000917758               0.999999984              -0.000223748               0.000947562               0.999999984              -0.000218188               0.000974605               0.999999984              -0.000208947               0.000999038               0.999999984              -0.000196514               0.001021480               0.999999984              -0.000181704               0.001042466               0.999999984              -0.000165083               0.001062428               0.999999984              -0.000147404               0.001081150               0.999999984              -0.000129303               0.001098615               0.999999984              -0.000265325               0.000942047               0.999999984              -0.000184955               0.000875189               0.999999984              -0.000161158               0.000852223               0.999999984              -0.000157807               0.000854442               0.999999984              -0.000161790               0.000871142               0.999999984              -0.000168055               0.000896025               0.999999984              -0.000174133               0.000925546               0.999999984              -0.000178627               0.000957466               0.999999984              -0.000180866               0.000989598               0.999999984              -0.000180119               0.001020756               0.999999984              -0.000175750               0.001050059               0.999999984              -0.000167431               0.001076962               0.999999984              -0.000155219               0.001101556               0.999999984              -0.000139924               0.001124253               0.999999984              -0.000122176               0.001145741               0.999999984              -0.000102696               0.001166358               0.999999984              -0.000082316               0.001186400               0.999999984              -0.000225156               0.001001462               0.999999984              -0.000149310               0.000953911               0.999999984              -0.000123926               0.000934922               0.999999984              -0.000118351               0.000935899               0.999999984              -0.000120566               0.000950027               0.999999984              -0.000125516               0.000972635               0.999999984              -0.000130804               0.001000643               0.999999984              -0.000135104               0.001031828               0.999999984              -0.000137610               0.001064341               0.999999984              -0.000137563               0.001096809               0.999999984              -0.000134219               0.001128108               0.999999984              -0.000127074               0.001157859               0.999999984              -0.000115819               0.001185409               0.999999984              -0.000100610               0.001210735               0.999999984              -0.000081834               0.001234265               0.999999984              -0.000059932               0.001256756               0.999999984              -0.000035551               0.001278681               0.999999984              -0.000182810               0.001051352               0.999999984              -0.000116217               0.001023645               0.999999984              -0.000091354               0.001011303               0.999999984              -0.000084168               0.001013555               0.999999984              -0.000084505               0.001026927               0.999999984              -0.000087803               0.001048334               0.999999984              -0.000091852               0.001075530               0.999999984              -0.000095406               0.001106475               0.999999984              -0.000097828               0.001139349               0.999999984              -0.000098218               0.001173118               0.999999984              -0.000095574               0.001206628               0.999999984              -0.000089521               0.001239206               0.999999984              -0.000079813               0.001270224               0.999999984              -0.000065893               0.001299276               0.999999984              -0.000047246               0.001326269               0.999999984              -0.000023806               0.001351671               0.999999984               0.000004271               0.001375976               0.999999984              -0.000138708               0.001090885               0.999999984              -0.000085304               0.001081409               0.999999984              -0.000063466               0.001076981               0.999999984              -0.000055877               0.001082238               0.999999984              -0.000054799               0.001096418               0.999999984              -0.000056494               0.001117805               0.999999984              -0.000059145               0.001144914               0.999999984              -0.000061799               0.001175994               0.999999984              -0.000063737               0.001209557               0.999999984              -0.000064148               0.001244626               0.999999984              -0.000062124               0.001280247               0.999999984              -0.000057386               0.001315626               0.999999984              -0.000049636               0.001350078               0.999999984              -0.000037992               0.001383248               0.999999984              -0.000021530               0.001414696               0.999999984               0.000000699               0.001444318               0.999999984               0.000029283               0.001472236               0.999999984              -0.000093244               0.001119501               0.999999984              -0.000056010               0.001124617               0.999999984              -0.000039749               0.001127663               0.999999984              -0.000033357               0.001136470               0.999999984              -0.000031743               0.001152258               0.999999984              -0.000032255               0.001174378               0.999999984              -0.000033790               0.001201842               0.999999984              -0.000035515               0.001233337               0.999999984              -0.000036750               0.001267682               0.999999984              -0.000036950               0.001303974               0.999999984              -0.000035599               0.001341378               0.999999984              -0.000032430               0.001379214               0.999999984              -0.000026916               0.001416821               0.999999984              -0.000018468               0.001453770               0.999999984              -0.000006114               0.001489486               0.999999984               0.000011414               0.001523597               0.999999984               0.000035297               0.001555695               0.999999984              -0.000046837               0.001136842               0.999999984              -0.000027761               0.001151334               0.999999984              -0.000019105               0.001159712               0.999999984              -0.000015431               0.001171433               0.999999984              -0.000014281               0.001188694               0.999999984              -0.000014284               0.001211539               0.999999984              -0.000014960               0.001239486               0.999999984              -0.000015780               0.001271430               0.999999984              -0.000016363               0.001306382               0.999999984              -0.000016387               0.001343535               0.999999984              -0.000015756               0.001382152               0.999999984              -0.000014097               0.001421726               0.999999984              -0.000011271               0.001461618               0.999999984              -0.000006855               0.001501338               0.999999984              -0.000000068               0.001540247               0.999999984               0.000009630               0.001577780               0.999999984               0.000023176               0.001613179               0.999999984               0.000000000               0.001142579               0.999999984               0.000000000               0.001160323               0.999999984              -0.000000000               0.001170718               0.999999984              -0.000000000               0.001183540               0.999999984              -0.000000000               0.001201361               0.999999984              -0.000000000               0.001224487               0.999999984              -0.000000000               0.001252641               0.999999984               0.000000000               0.001284870               0.999999984              -0.000000000               0.001320053               0.999999984              -0.000000000               0.001357478               0.999999984               0.000000000               0.001396510               0.999999984               0.000000000               0.001436678               0.999999984               0.000000000               0.001477400               0.999999984               0.000000000               0.001518140               0.999999984              -0.000000000               0.001558220               0.999999984              -0.000000000               0.001596996               0.999999984               0.000000000               0.001633667               0.999999984              -0.000497729               0.000000000               0.999999984              -0.000541480              -0.000000000               0.999999984              -0.000561427               0.000000000               0.999999984              -0.000573068               0.000000000               0.999999984              -0.000582303               0.000000000               0.999999984              -0.000591454               0.000000000               0.999999984              -0.000601500               0.000000000               0.999999984              -0.000612630               0.000000000               0.999999984              -0.000624796               0.000000000               0.999999984              -0.000637923               0.000000000               0.999999984              -0.000651818               0.000000000               0.999999984              -0.000666338              -0.000000000               0.999999984              -0.000681200              -0.000000000               0.999999984              -0.000696223               0.000000000               0.999999984              -0.000711039              -0.000000000               0.999999984              -0.000725217               0.000000000               0.999999984              -0.000738353               0.000000000               0.999999984              -0.000494917              -0.000111627               0.999999984              -0.000535724              -0.000092684               0.999999984              -0.000553808              -0.000085097               0.999999984              -0.000564290              -0.000083223               0.999999984              -0.000572839              -0.000084509               0.999999984              -0.000581574              -0.000087458               0.999999984              -0.000591229              -0.000091233               0.999999984              -0.000601961              -0.000095449               0.999999984              -0.000613708              -0.000099703               0.999999984              -0.000626328              -0.000103740               0.999999984              -0.000639573              -0.000107210               0.999999984              -0.000653173              -0.000109995               0.999999984              -0.000666960              -0.000111884               0.999999984              -0.000680794              -0.000112531               0.999999984              -0.000694300              -0.000111462               0.999999984              -0.000707163              -0.000108136               0.999999984              -0.000719068              -0.000101653               0.999999984              -0.000486494              -0.000222106               0.999999984              -0.000518670              -0.000184727               0.999999984              -0.000531620              -0.000170491               0.999999984              -0.000539128              -0.000167570               0.999999984              -0.000545903              -0.000170642               0.999999984              -0.000553480              -0.000176932               0.999999984              -0.000562166              -0.000184752               0.999999984              -0.000572000              -0.000193277               0.999999984              -0.000582675              -0.000201782               0.999999984              -0.000593827              -0.000209710               0.999999984              -0.000605246              -0.000216518               0.999999984              -0.000616696              -0.000222063               0.999999984              -0.000628034              -0.000226147               0.999999984              -0.000639013              -0.000228050               0.999999984              -0.000649411              -0.000226955               0.999999984              -0.000659034              -0.000222144               0.999999984              -0.000667767              -0.000212751               0.999999984              -0.000472683              -0.000330310               0.999999984              -0.000491276              -0.000275561               0.999999984              -0.000496790              -0.000256375               0.999999984              -0.000500366              -0.000253762               0.999999984              -0.000504995              -0.000259541               0.999999984              -0.000511229              -0.000269613               0.999999984              -0.000518864              -0.000281728               0.999999984              -0.000527493              -0.000294635               0.999999984              -0.000536541              -0.000307335               0.999999984              -0.000545756              -0.000319068               0.999999984              -0.000554885              -0.000329365               0.999999984              -0.000563635              -0.000337906               0.999999984              -0.000571644              -0.000344265               0.999999984              -0.000578780              -0.000347917               0.999999984              -0.000584980              -0.000348338               0.999999984              -0.000590373              -0.000344946               0.999999984              -0.000595309              -0.000337451               0.999999984              -0.000453741              -0.000435137               0.999999984              -0.000454970              -0.000364845               0.999999984              -0.000452277              -0.000342721               0.999999984              -0.000452094              -0.000341885               0.999999984              -0.000455053              -0.000351231               0.999999984              -0.000460427              -0.000365553               0.999999984              -0.000467205              -0.000382083               0.999999984              -0.000474619              -0.000399268               0.999999984              -0.000482165              -0.000415967               0.999999984              -0.000489350              -0.000431377               0.999999984              -0.000495811              -0.000444976               0.999999984              -0.000501209              -0.000456502               0.999999984              -0.000505524              -0.000465666               0.999999984              -0.000508715              -0.000472105               0.999999984              -0.000510940              -0.000475812               0.999999984              -0.000512608              -0.000476842               0.999999984              -0.000514085              -0.000475213               0.999999984              -0.000430119              -0.000535431               0.999999984              -0.000411768              -0.000452371               0.999999984              -0.000401654              -0.000429292               0.999999984              -0.000398918              -0.000431374               0.999999984              -0.000401145              -0.000444898               0.999999984              -0.000406236              -0.000463680               0.999999984              -0.000412579              -0.000484505               0.999999984              -0.000419139              -0.000505722               0.999999984              -0.000425166              -0.000526228               0.999999984              -0.000430165              -0.000545142               0.999999984              -0.000433994              -0.000561969               0.999999984              -0.000436375              -0.000576625               0.999999984              -0.000437371              -0.000588952               0.999999984              -0.000437152              -0.000598907               0.999999984              -0.000435986              -0.000606968               0.999999984              -0.000434161              -0.000613292               0.999999984              -0.000431849              -0.000617902               0.999999984              -0.000402314              -0.000630177               0.999999984              -0.000364109              -0.000537923               0.999999984              -0.000348474              -0.000515588               0.999999984              -0.000344962              -0.000521192               0.999999984              -0.000347629              -0.000538939               0.999999984              -0.000353040              -0.000562086               0.999999984              -0.000359240              -0.000587183               0.999999984              -0.000364932              -0.000612411               0.999999984              -0.000369505              -0.000636511               0.999999984              -0.000372566              -0.000658731               0.999999984              -0.000373681              -0.000678744               0.999999984              -0.000372858              -0.000696466               0.999999984              -0.000370380              -0.000711895               0.999999984              -0.000366466              -0.000725490               0.999999984              -0.000361363              -0.000737718               0.999999984              -0.000355128              -0.000748461               0.999999984              -0.000347585              -0.000757146               0.999999984              -0.000370967              -0.000718432               0.999999984              -0.000314416              -0.000621256               0.999999984              -0.000295862              -0.000600828               0.999999984              -0.000293523              -0.000609900               0.999999984              -0.000297546              -0.000631647               0.999999984              -0.000303772              -0.000658999               0.999999984              -0.000309935              -0.000688191               0.999999984              -0.000314844              -0.000717200               0.999999984              -0.000317773              -0.000744970               0.999999984              -0.000318144              -0.000770483               0.999999984              -0.000315934              -0.000793207               0.999999984              -0.000311314              -0.000813415               0.999999984              -0.000304534              -0.000831609               0.999999984              -0.000295954              -0.000848283               0.999999984              -0.000285649              -0.000863732               0.999999984              -0.000273640              -0.000877593               0.999999984              -0.000260025              -0.000889134               0.999999984              -0.000337307              -0.000798658               0.999999984              -0.000264363              -0.000702337               0.999999984              -0.000246585              -0.000683925               0.999999984              -0.000246653              -0.000696073               0.999999984              -0.000252635              -0.000721544               0.999999984              -0.000259860              -0.000752828               0.999999984              -0.000265986              -0.000785959               0.999999984              -0.000269639              -0.000818856               0.999999984              -0.000270135              -0.000849867               0.999999984              -0.000267081              -0.000877740               0.999999984              -0.000260462              -0.000902645               0.999999984              -0.000250699              -0.000925054               0.999999984              -0.000238374              -0.000945706               0.999999984              -0.000224001              -0.000964999               0.999999984              -0.000207889              -0.000982770               0.999999984              -0.000190373              -0.000998829               0.999999984              -0.000172010              -0.001013167               0.999999984              -0.000302997              -0.000873942               0.999999984              -0.000223272              -0.000790523               0.999999984              -0.000202449              -0.000767306               0.999999984              -0.000201154              -0.000773540               0.999999984              -0.000206419              -0.000794215               0.999999984              -0.000213421              -0.000822140               0.999999984              -0.000219772              -0.000853539               0.999999984              -0.000224038              -0.000886058               0.999999984              -0.000225622              -0.000917758               0.999999984              -0.000223748              -0.000947562               0.999999984              -0.000218188              -0.000974605               0.999999984              -0.000208947              -0.000999038               0.999999984              -0.000196514              -0.001021480               0.999999984              -0.000181704              -0.001042466               0.999999984              -0.000165083              -0.001062428               0.999999984              -0.000147404              -0.001081150               0.999999984              -0.000129303              -0.001098615               0.999999984              -0.000265325              -0.000942047               0.999999984              -0.000184955              -0.000875189               0.999999984              -0.000161158              -0.000852223               0.999999984              -0.000157807              -0.000854442               0.999999984              -0.000161790              -0.000871142               0.999999984              -0.000168055              -0.000896025               0.999999984              -0.000174133              -0.000925546               0.999999984              -0.000178627              -0.000957466               0.999999984              -0.000180866              -0.000989598               0.999999984              -0.000180119              -0.001020756               0.999999984              -0.000175750              -0.001050059               0.999999984              -0.000167431              -0.001076962               0.999999984              -0.000155219              -0.001101556               0.999999984              -0.000139924              -0.001124253               0.999999984              -0.000122176              -0.001145741               0.999999984              -0.000102696              -0.001166358               0.999999984              -0.000082316              -0.001186400               0.999999984              -0.000225156              -0.001001462               0.999999984              -0.000149310              -0.000953911               0.999999984              -0.000123926              -0.000934922               0.999999984              -0.000118351              -0.000935899               0.999999984              -0.000120566              -0.000950027               0.999999984              -0.000125516              -0.000972635               0.999999984              -0.000130804              -0.001000643               0.999999984              -0.000135104              -0.001031828               0.999999984              -0.000137610              -0.001064341               0.999999984              -0.000137563              -0.001096809               0.999999984              -0.000134219              -0.001128108               0.999999984              -0.000127074              -0.001157859               0.999999984              -0.000115819              -0.001185409               0.999999984              -0.000100610              -0.001210735               0.999999984              -0.000081834              -0.001234265               0.999999984              -0.000059932              -0.001256756               0.999999984              -0.000035551              -0.001278681               0.999999984              -0.000182810              -0.001051352               0.999999984              -0.000116217              -0.001023645               0.999999984              -0.000091354              -0.001011303               0.999999984              -0.000084168              -0.001013555               0.999999984              -0.000084505              -0.001026927               0.999999984              -0.000087803              -0.001048334               0.999999984              -0.000091852              -0.001075530               0.999999984              -0.000095406              -0.001106475               0.999999984              -0.000097828              -0.001139349               0.999999984              -0.000098218              -0.001173118               0.999999984              -0.000095574              -0.001206628               0.999999984              -0.000089521              -0.001239206               0.999999984              -0.000079813              -0.001270224               0.999999984              -0.000065893              -0.001299276               0.999999984              -0.000047246              -0.001326269               0.999999984              -0.000023806              -0.001351671               0.999999984               0.000004271              -0.001375976               0.999999984              -0.000138708              -0.001090885               0.999999984              -0.000085304              -0.001081409               0.999999984              -0.000063466              -0.001076981               0.999999984              -0.000055877              -0.001082238               0.999999984              -0.000054799              -0.001096418               0.999999984              -0.000056494              -0.001117805               0.999999984              -0.000059145              -0.001144914               0.999999984              -0.000061799              -0.001175994               0.999999984              -0.000063737              -0.001209557               0.999999984              -0.000064148              -0.001244626               0.999999984              -0.000062124              -0.001280247               0.999999984              -0.000057386              -0.001315626               0.999999984              -0.000049636              -0.001350078               0.999999984              -0.000037992              -0.001383248               0.999999984              -0.000021530              -0.001414696               0.999999984               0.000000699              -0.001444318               0.999999984               0.000029283              -0.001472236               0.999999984              -0.000093244              -0.001119501               0.999999984              -0.000056010              -0.001124617               0.999999984              -0.000039749              -0.001127663               0.999999984              -0.000033357              -0.001136470               0.999999984              -0.000031743              -0.001152258               0.999999984              -0.000032255              -0.001174378               0.999999984              -0.000033790              -0.001201842               0.999999984              -0.000035515              -0.001233337               0.999999984              -0.000036750              -0.001267682               0.999999984              -0.000036950              -0.001303974               0.999999984              -0.000035599              -0.001341378               0.999999984              -0.000032430              -0.001379214               0.999999984              -0.000026916              -0.001416821               0.999999984              -0.000018468              -0.001453770               0.999999984              -0.000006114              -0.001489486               0.999999984               0.000011414              -0.001523597               0.999999984               0.000035297              -0.001555695               0.999999984              -0.000046837              -0.001136842               0.999999984              -0.000027761              -0.001151334               0.999999984              -0.000019105              -0.001159712               0.999999984              -0.000015431              -0.001171433               0.999999984              -0.000014281              -0.001188694               0.999999984              -0.000014284              -0.001211539               0.999999984              -0.000014960              -0.001239486               0.999999984              -0.000015780              -0.001271430               0.999999984              -0.000016363              -0.001306382               0.999999984              -0.000016387              -0.001343535               0.999999984              -0.000015756              -0.001382152               0.999999984              -0.000014097              -0.001421726               0.999999984              -0.000011271              -0.001461618               0.999999984              -0.000006855              -0.001501338               0.999999984              -0.000000068              -0.001540247               0.999999984               0.000009630              -0.001577780               0.999999984               0.000023176              -0.001613179               0.999999984              -0.000000000              -0.001142579               0.999999984              -0.000000000              -0.001160323               0.999999984              -0.000000000              -0.001170718               0.999999984               0.000000000              -0.001183540               0.999999984               0.000000000              -0.001201361               0.999999984              -0.000000000              -0.001224487               0.999999984               0.000000000              -0.001252641               0.999999984              -0.000000000              -0.001284870               0.999999984              -0.000000000              -0.001320053               0.999999984               0.000000000              -0.001357478               0.999999984               0.000000000              -0.001396510               0.999999984               0.000000000              -0.001436678               0.999999984               0.000000000              -0.001477400               0.999999984              -0.000000000              -0.001518140               0.999999984              -0.000000000              -0.001558220               0.999999984               0.000000000              -0.001596996               0.999999984              -0.000000000              -0.001633667               0.999999984               0.000497729               0.000000000               0.999999984               0.000541480               0.000000000               0.999999984               0.000561427               0.000000000               0.999999984               0.000573068               0.000000000               0.999999984               0.000582303               0.000000000               0.999999984               0.000591454               0.000000000               0.999999984               0.000601500               0.000000000               0.999999984               0.000612630               0.000000000               0.999999984               0.000624796               0.000000000               0.999999984               0.000637923               0.000000000               0.999999984               0.000651818               0.000000000               0.999999984               0.000666338               0.000000000               0.999999984               0.000681200               0.000000000               0.999999984               0.000696223               0.000000000               0.999999984               0.000711039               0.000000000               0.999999984               0.000725217              -0.000000000               0.999999984               0.000738353              -0.000000000               0.999999984               0.000494917              -0.000111627               0.999999984               0.000535724              -0.000092684               0.999999984               0.000553808              -0.000085097               0.999999984               0.000564290              -0.000083223               0.999999984               0.000572839              -0.000084509               0.999999984               0.000581574              -0.000087458               0.999999984               0.000591229              -0.000091233               0.999999984               0.000601961              -0.000095449               0.999999984               0.000613708              -0.000099703               0.999999984               0.000626328              -0.000103740               0.999999984               0.000639573              -0.000107210               0.999999984               0.000653173              -0.000109995               0.999999984               0.000666960              -0.000111884               0.999999984               0.000680794              -0.000112531               0.999999984               0.000694300              -0.000111462               0.999999984               0.000707163              -0.000108136               0.999999984               0.000719068              -0.000101653               0.999999984               0.000486494              -0.000222106               0.999999984               0.000518670              -0.000184727               0.999999984               0.000531620              -0.000170491               0.999999984               0.000539128              -0.000167570               0.999999984               0.000545903              -0.000170642               0.999999984               0.000553480              -0.000176932               0.999999984               0.000562166              -0.000184752               0.999999984               0.000572000              -0.000193277               0.999999984               0.000582675              -0.000201782               0.999999984               0.000593827              -0.000209710               0.999999984               0.000605246              -0.000216518               0.999999984               0.000616696              -0.000222063               0.999999984               0.000628034              -0.000226147               0.999999984               0.000639013              -0.000228050               0.999999984               0.000649411              -0.000226955               0.999999984               0.000659034              -0.000222144               0.999999984               0.000667767              -0.000212751               0.999999984               0.000472683              -0.000330310               0.999999984               0.000491276              -0.000275561               0.999999984               0.000496790              -0.000256375               0.999999984               0.000500366              -0.000253762               0.999999984               0.000504995              -0.000259541               0.999999984               0.000511229              -0.000269613               0.999999984               0.000518864              -0.000281728               0.999999984               0.000527493              -0.000294635               0.999999984               0.000536541              -0.000307335               0.999999984               0.000545756              -0.000319068               0.999999984               0.000554885              -0.000329365               0.999999984               0.000563635              -0.000337906               0.999999984               0.000571644              -0.000344265               0.999999984               0.000578780              -0.000347917               0.999999984               0.000584980              -0.000348338               0.999999984               0.000590373              -0.000344946               0.999999984               0.000595309              -0.000337451               0.999999984               0.000453741              -0.000435137               0.999999984               0.000454970              -0.000364845               0.999999984               0.000452277              -0.000342721               0.999999984               0.000452094              -0.000341885               0.999999984               0.000455053              -0.000351231               0.999999984               0.000460427              -0.000365553               0.999999984               0.000467205              -0.000382083               0.999999984               0.000474619              -0.000399268               0.999999984               0.000482165              -0.000415967               0.999999984               0.000489350              -0.000431377               0.999999984               0.000495811              -0.000444976               0.999999984               0.000501209              -0.000456502               0.999999984               0.000505524              -0.000465666               0.999999984               0.000508715              -0.000472105               0.999999984               0.000510940              -0.000475812               0.999999984               0.000512608              -0.000476842               0.999999984               0.000514085              -0.000475213               0.999999984               0.000430119              -0.000535431               0.999999984               0.000411768              -0.000452371               0.999999984               0.000401654              -0.000429292               0.999999984               0.000398918              -0.000431374               0.999999984               0.000401145              -0.000444898               0.999999984               0.000406236              -0.000463680               0.999999984               0.000412579              -0.000484505               0.999999984               0.000419139              -0.000505722               0.999999984               0.000425166              -0.000526228               0.999999984               0.000430165              -0.000545142               0.999999984               0.000433994              -0.000561969               0.999999984               0.000436375              -0.000576625               0.999999984               0.000437371              -0.000588952               0.999999984               0.000437152              -0.000598907               0.999999984               0.000435986              -0.000606968               0.999999984               0.000434161              -0.000613292               0.999999984               0.000431849              -0.000617902               0.999999984               0.000402314              -0.000630177               0.999999984               0.000364109              -0.000537923               0.999999984               0.000348474              -0.000515588               0.999999984               0.000344962              -0.000521192               0.999999984               0.000347629              -0.000538939               0.999999984               0.000353040              -0.000562086               0.999999984               0.000359240              -0.000587183               0.999999984               0.000364932              -0.000612411               0.999999984               0.000369505              -0.000636511               0.999999984               0.000372566              -0.000658731               0.999999984               0.000373681              -0.000678744               0.999999984               0.000372858              -0.000696466               0.999999984               0.000370380              -0.000711895               0.999999984               0.000366466              -0.000725490               0.999999984               0.000361363              -0.000737718               0.999999984               0.000355128              -0.000748461               0.999999984               0.000347585              -0.000757146               0.999999984               0.000370967              -0.000718432               0.999999984               0.000314416              -0.000621256               0.999999984               0.000295862              -0.000600828               0.999999984               0.000293523              -0.000609900               0.999999984               0.000297546              -0.000631647               0.999999984               0.000303772              -0.000658999               0.999999984               0.000309935              -0.000688191               0.999999984               0.000314844              -0.000717200               0.999999984               0.000317773              -0.000744970               0.999999984               0.000318144              -0.000770483               0.999999984               0.000315934              -0.000793207               0.999999984               0.000311314              -0.000813415               0.999999984               0.000304534              -0.000831609               0.999999984               0.000295954              -0.000848283               0.999999984               0.000285649              -0.000863732               0.999999984               0.000273640              -0.000877593               0.999999984               0.000260025              -0.000889134               0.999999984               0.000337307              -0.000798658               0.999999984               0.000264363              -0.000702337               0.999999984               0.000246585              -0.000683925               0.999999984               0.000246653              -0.000696073               0.999999984               0.000252635              -0.000721544               0.999999984               0.000259860              -0.000752828               0.999999984               0.000265986              -0.000785959               0.999999984               0.000269639              -0.000818856               0.999999984               0.000270135              -0.000849867               0.999999984               0.000267081              -0.000877740               0.999999984               0.000260462              -0.000902645               0.999999984               0.000250699              -0.000925054               0.999999984               0.000238374              -0.000945706               0.999999984               0.000224001              -0.000964999               0.999999984               0.000207889              -0.000982770               0.999999984               0.000190373              -0.000998829               0.999999984               0.000172010              -0.001013167               0.999999984               0.000302997              -0.000873942               0.999999984               0.000223272              -0.000790523               0.999999984               0.000202449              -0.000767306               0.999999984               0.000201154              -0.000773540               0.999999984               0.000206419              -0.000794215               0.999999984               0.000213421              -0.000822140               0.999999984               0.000219772              -0.000853539               0.999999984               0.000224038              -0.000886058               0.999999984               0.000225622              -0.000917758               0.999999984               0.000223748              -0.000947562               0.999999984               0.000218188              -0.000974605               0.999999984               0.000208947              -0.000999038               0.999999984               0.000196514              -0.001021480               0.999999984               0.000181704              -0.001042466               0.999999984               0.000165083              -0.001062428               0.999999984               0.000147404              -0.001081150               0.999999984               0.000129303              -0.001098615               0.999999984               0.000265325              -0.000942047               0.999999984               0.000184955              -0.000875189               0.999999984               0.000161158              -0.000852223               0.999999984               0.000157807              -0.000854442               0.999999984               0.000161790              -0.000871142               0.999999984               0.000168055              -0.000896025               0.999999984               0.000174133              -0.000925546               0.999999984               0.000178627              -0.000957466               0.999999984               0.000180866              -0.000989598               0.999999984               0.000180119              -0.001020756               0.999999984               0.000175750              -0.001050059               0.999999984               0.000167431              -0.001076962               0.999999984               0.000155219              -0.001101556               0.999999984               0.000139924              -0.001124253               0.999999984               0.000122176              -0.001145741               0.999999984               0.000102696              -0.001166358               0.999999984               0.000082316              -0.001186400               0.999999984               0.000225156              -0.001001462               0.999999984               0.000149310              -0.000953911               0.999999984               0.000123926              -0.000934922               0.999999984               0.000118351              -0.000935899               0.999999984               0.000120566              -0.000950027               0.999999984               0.000125516              -0.000972635               0.999999984               0.000130804              -0.001000643               0.999999984               0.000135104              -0.001031828               0.999999984               0.000137610              -0.001064341               0.999999984               0.000137563              -0.001096809               0.999999984               0.000134219              -0.001128108               0.999999984               0.000127074              -0.001157859               0.999999984               0.000115819              -0.001185409               0.999999984               0.000100610              -0.001210735               0.999999984               0.000081834              -0.001234265               0.999999984               0.000059932              -0.001256756               0.999999984               0.000035551              -0.001278681               0.999999984               0.000182810              -0.001051352               0.999999984               0.000116217              -0.001023645               0.999999984               0.000091354              -0.001011303               0.999999984               0.000084168              -0.001013555               0.999999984               0.000084505              -0.001026927               0.999999984               0.000087803              -0.001048334               0.999999984               0.000091852              -0.001075530               0.999999984               0.000095406              -0.001106475               0.999999984               0.000097828              -0.001139349               0.999999984               0.000098218              -0.001173118               0.999999984               0.000095574              -0.001206628               0.999999984               0.000089521              -0.001239206               0.999999984               0.000079813              -0.001270224               0.999999984               0.000065893              -0.001299276               0.999999984               0.000047246              -0.001326269               0.999999984               0.000023806              -0.001351671               0.999999984              -0.000004271              -0.001375976               0.999999984               0.000138708              -0.001090885               0.999999984               0.000085304              -0.001081409               0.999999984               0.000063466              -0.001076981               0.999999984               0.000055877              -0.001082238               0.999999984               0.000054799              -0.001096418               0.999999984               0.000056494              -0.001117805               0.999999984               0.000059145              -0.001144914               0.999999984               0.000061799              -0.001175994               0.999999984               0.000063737              -0.001209557               0.999999984               0.000064148              -0.001244626               0.999999984               0.000062124              -0.001280247               0.999999984               0.000057386              -0.001315626               0.999999984               0.000049636              -0.001350078               0.999999984               0.000037992              -0.001383248               0.999999984               0.000021530              -0.001414696               0.999999984              -0.000000699              -0.001444318               0.999999984              -0.000029283              -0.001472236               0.999999984               0.000093244              -0.001119501               0.999999984               0.000056010              -0.001124617               0.999999984               0.000039749              -0.001127663               0.999999984               0.000033357              -0.001136470               0.999999984               0.000031743              -0.001152258               0.999999984               0.000032255              -0.001174378               0.999999984               0.000033790              -0.001201842               0.999999984               0.000035515              -0.001233337               0.999999984               0.000036750              -0.001267682               0.999999984               0.000036950              -0.001303974               0.999999984               0.000035599              -0.001341378               0.999999984               0.000032430              -0.001379214               0.999999984               0.000026916              -0.001416821               0.999999984               0.000018468              -0.001453770               0.999999984               0.000006114              -0.001489486               0.999999984              -0.000011414              -0.001523597               0.999999984              -0.000035297              -0.001555695               0.999999984               0.000046837              -0.001136842               0.999999984               0.000027761              -0.001151334               0.999999984               0.000019105              -0.001159712               0.999999984               0.000015431              -0.001171433               0.999999984               0.000014281              -0.001188694               0.999999984               0.000014284              -0.001211539               0.999999984               0.000014960              -0.001239486               0.999999984               0.000015780              -0.001271430               0.999999984               0.000016363              -0.001306382               0.999999984               0.000016387              -0.001343535               0.999999984               0.000015756              -0.001382152               0.999999984               0.000014097              -0.001421726               0.999999984               0.000011271              -0.001461618               0.999999984               0.000006855              -0.001501338               0.999999984               0.000000068              -0.001540247               0.999999984              -0.000009630              -0.001577780               0.999999984              -0.000023176              -0.001613179               0.999999984              -0.000000000              -0.001142579               0.999999984              -0.000000000              -0.001160323               0.999999984              -0.000000000              -0.001170718               0.999999984               0.000000000              -0.001183540               0.999999984               0.000000000              -0.001201361               0.999999984              -0.000000000              -0.001224487               0.999999984               0.000000000              -0.001252641               0.999999984              -0.000000000              -0.001284870               0.999999984              -0.000000000              -0.001320053               0.999999984               0.000000000              -0.001357478               0.999999984               0.000000000              -0.001396510               0.999999984               0.000000000              -0.001436678               0.999999984               0.000000000              -0.001477400               0.999999984              -0.000000000              -0.001518140               0.999999984              -0.000000000              -0.001558220               0.999999984               0.000000000              -0.001596996               0.999999984              -0.000000000              -0.001633667               0.999999984               0.000497729               0.000000000               0.999999984               0.000541480               0.000000000               0.999999984               0.000561427               0.000000000               0.999999984               0.000573068               0.000000000               0.999999984               0.000582303               0.000000000               0.999999984               0.000591454               0.000000000               0.999999984               0.000601500               0.000000000               0.999999984               0.000612630               0.000000000               0.999999984               0.000624796               0.000000000               0.999999984               0.000637923               0.000000000               0.999999984               0.000651818               0.000000000               0.999999984               0.000666338               0.000000000               0.999999984               0.000681200               0.000000000               0.999999984               0.000696223               0.000000000               0.999999984               0.000711039               0.000000000               0.999999984               0.000725217              -0.000000000               0.999999984               0.000738353              -0.000000000               0.999999984               0.000494917               0.000111627               0.999999984               0.000535724               0.000092684               0.999999984               0.000553808               0.000085097               0.999999984               0.000564290               0.000083223               0.999999984               0.000572839               0.000084509               0.999999984               0.000581574               0.000087458               0.999999984               0.000591229               0.000091233               0.999999984               0.000601961               0.000095449               0.999999984               0.000613708               0.000099703               0.999999984               0.000626328               0.000103740               0.999999984               0.000639573               0.000107210               0.999999984               0.000653173               0.000109995               0.999999984               0.000666960               0.000111884               0.999999984               0.000680794               0.000112531               0.999999984               0.000694300               0.000111462               0.999999984               0.000707163               0.000108136               0.999999984               0.000719068               0.000101653               0.999999984               0.000486494               0.000222106               0.999999984               0.000518670               0.000184727               0.999999984               0.000531620               0.000170491               0.999999984               0.000539128               0.000167570               0.999999984               0.000545903               0.000170642               0.999999984               0.000553480               0.000176932               0.999999984               0.000562166               0.000184752               0.999999984               0.000572000               0.000193277               0.999999984               0.000582675               0.000201782               0.999999984               0.000593827               0.000209710               0.999999984               0.000605246               0.000216518               0.999999984               0.000616696               0.000222063               0.999999984               0.000628034               0.000226147               0.999999984               0.000639013               0.000228050               0.999999984               0.000649411               0.000226955               0.999999984               0.000659034               0.000222144               0.999999984               0.000667767               0.000212751               0.999999984               0.000472683               0.000330310               0.999999984               0.000491276               0.000275561               0.999999984               0.000496790               0.000256375               0.999999984               0.000500366               0.000253762               0.999999984               0.000504995               0.000259541               0.999999984               0.000511229               0.000269613               0.999999984               0.000518864               0.000281728               0.999999984               0.000527493               0.000294635               0.999999984               0.000536541               0.000307335               0.999999984               0.000545756               0.000319068               0.999999984               0.000554885               0.000329365               0.999999984               0.000563635               0.000337906               0.999999984               0.000571644               0.000344265               0.999999984               0.000578780               0.000347917               0.999999984               0.000584980               0.000348338               0.999999984               0.000590373               0.000344946               0.999999984               0.000595309               0.000337451               0.999999984               0.000453741               0.000435137               0.999999984               0.000454970               0.000364845               0.999999984               0.000452277               0.000342721               0.999999984               0.000452094               0.000341885               0.999999984               0.000455053               0.000351231               0.999999984               0.000460427               0.000365553               0.999999984               0.000467205               0.000382083               0.999999984               0.000474619               0.000399268               0.999999984               0.000482165               0.000415967               0.999999984               0.000489350               0.000431377               0.999999984               0.000495811               0.000444976               0.999999984               0.000501209               0.000456502               0.999999984               0.000505524               0.000465666               0.999999984               0.000508715               0.000472105               0.999999984               0.000510940               0.000475812               0.999999984               0.000512608               0.000476842               0.999999984               0.000514085               0.000475213               0.999999984               0.000430119               0.000535431               0.999999984               0.000411768               0.000452371               0.999999984               0.000401654               0.000429292               0.999999984               0.000398918               0.000431374               0.999999984               0.000401145               0.000444898               0.999999984               0.000406236               0.000463680               0.999999984               0.000412579               0.000484505               0.999999984               0.000419139               0.000505722               0.999999984               0.000425166               0.000526228               0.999999984               0.000430165               0.000545142               0.999999984               0.000433994               0.000561969               0.999999984               0.000436375               0.000576625               0.999999984               0.000437371               0.000588952               0.999999984               0.000437152               0.000598907               0.999999984               0.000435986               0.000606968               0.999999984               0.000434161               0.000613292               0.999999984               0.000431849               0.000617902               0.999999984               0.000402314               0.000630177               0.999999984               0.000364109               0.000537923               0.999999984               0.000348474               0.000515588               0.999999984               0.000344962               0.000521192               0.999999984               0.000347629               0.000538939               0.999999984               0.000353040               0.000562086               0.999999984               0.000359240               0.000587183               0.999999984               0.000364932               0.000612411               0.999999984               0.000369505               0.000636511               0.999999984               0.000372566               0.000658731               0.999999984               0.000373681               0.000678744               0.999999984               0.000372858               0.000696466               0.999999984               0.000370380               0.000711895               0.999999984               0.000366466               0.000725490               0.999999984               0.000361363               0.000737718               0.999999984               0.000355128               0.000748461               0.999999984               0.000347585               0.000757146               0.999999984               0.000370967               0.000718432               0.999999984               0.000314416               0.000621256               0.999999984               0.000295862               0.000600828               0.999999984               0.000293523               0.000609900               0.999999984               0.000297546               0.000631647               0.999999984               0.000303772               0.000658999               0.999999984               0.000309935               0.000688191               0.999999984               0.000314844               0.000717200               0.999999984               0.000317773               0.000744970               0.999999984               0.000318144               0.000770483               0.999999984               0.000315934               0.000793207               0.999999984               0.000311314               0.000813415               0.999999984               0.000304534               0.000831609               0.999999984               0.000295954               0.000848283               0.999999984               0.000285649               0.000863732               0.999999984               0.000273640               0.000877593               0.999999984               0.000260025               0.000889134               0.999999984               0.000337307               0.000798658               0.999999984               0.000264363               0.000702337               0.999999984               0.000246585               0.000683925               0.999999984               0.000246653               0.000696073               0.999999984               0.000252635               0.000721544               0.999999984               0.000259860               0.000752828               0.999999984               0.000265986               0.000785959               0.999999984               0.000269639               0.000818856               0.999999984               0.000270135               0.000849867               0.999999984               0.000267081               0.000877740               0.999999984               0.000260462               0.000902645               0.999999984               0.000250699               0.000925054               0.999999984               0.000238374               0.000945706               0.999999984               0.000224001               0.000964999               0.999999984               0.000207889               0.000982770               0.999999984               0.000190373               0.000998829               0.999999984               0.000172010               0.001013167               0.999999984               0.000302997               0.000873942               0.999999984               0.000223272               0.000790523               0.999999984               0.000202449               0.000767306               0.999999984               0.000201154               0.000773540               0.999999984               0.000206419               0.000794215               0.999999984               0.000213421               0.000822140               0.999999984               0.000219772               0.000853539               0.999999984               0.000224038               0.000886058               0.999999984               0.000225622               0.000917758               0.999999984               0.000223748               0.000947562               0.999999984               0.000218188               0.000974605               0.999999984               0.000208947               0.000999038               0.999999984               0.000196514               0.001021480               0.999999984               0.000181704               0.001042466               0.999999984               0.000165083               0.001062428               0.999999984               0.000147404               0.001081150               0.999999984               0.000129303               0.001098615               0.999999984               0.000265325               0.000942047               0.999999984               0.000184955               0.000875189               0.999999984               0.000161158               0.000852223               0.999999984               0.000157807               0.000854442               0.999999984               0.000161790               0.000871142               0.999999984               0.000168055               0.000896025               0.999999984               0.000174133               0.000925546               0.999999984               0.000178627               0.000957466               0.999999984               0.000180866               0.000989598               0.999999984               0.000180119               0.001020756               0.999999984               0.000175750               0.001050059               0.999999984               0.000167431               0.001076962               0.999999984               0.000155219               0.001101556               0.999999984               0.000139924               0.001124253               0.999999984               0.000122176               0.001145741               0.999999984               0.000102696               0.001166358               0.999999984               0.000082316               0.001186400               0.999999984               0.000225156               0.001001462               0.999999984               0.000149310               0.000953911               0.999999984               0.000123926               0.000934922               0.999999984               0.000118351               0.000935899               0.999999984               0.000120566               0.000950027               0.999999984               0.000125516               0.000972635               0.999999984               0.000130804               0.001000643               0.999999984               0.000135104               0.001031828               0.999999984               0.000137610               0.001064341               0.999999984               0.000137563               0.001096809               0.999999984               0.000134219               0.001128108               0.999999984               0.000127074               0.001157859               0.999999984               0.000115819               0.001185409               0.999999984               0.000100610               0.001210735               0.999999984               0.000081834               0.001234265               0.999999984               0.000059932               0.001256756               0.999999984               0.000035551               0.001278681               0.999999984               0.000182810               0.001051352               0.999999984               0.000116217               0.001023645               0.999999984               0.000091354               0.001011303               0.999999984               0.000084168               0.001013555               0.999999984               0.000084505               0.001026927               0.999999984               0.000087803               0.001048334               0.999999984               0.000091852               0.001075530               0.999999984               0.000095406               0.001106475               0.999999984               0.000097828               0.001139349               0.999999984               0.000098218               0.001173118               0.999999984               0.000095574               0.001206628               0.999999984               0.000089521               0.001239206               0.999999984               0.000079813               0.001270224               0.999999984               0.000065893               0.001299276               0.999999984               0.000047246               0.001326269               0.999999984               0.000023806               0.001351671               0.999999984              -0.000004271               0.001375976               0.999999984               0.000138708               0.001090885               0.999999984               0.000085304               0.001081409               0.999999984               0.000063466               0.001076981               0.999999984               0.000055877               0.001082238               0.999999984               0.000054799               0.001096418               0.999999984               0.000056494               0.001117805               0.999999984               0.000059145               0.001144914               0.999999984               0.000061799               0.001175994               0.999999984               0.000063737               0.001209557               0.999999984               0.000064148               0.001244626               0.999999984               0.000062124               0.001280247               0.999999984               0.000057386               0.001315626               0.999999984               0.000049636               0.001350078               0.999999984               0.000037992               0.001383248               0.999999984               0.000021530               0.001414696               0.999999984              -0.000000699               0.001444318               0.999999984              -0.000029283               0.001472236               0.999999984               0.000093244               0.001119501               0.999999984               0.000056010               0.001124617               0.999999984               0.000039749               0.001127663               0.999999984               0.000033357               0.001136470               0.999999984               0.000031743               0.001152258               0.999999984               0.000032255               0.001174378               0.999999984               0.000033790               0.001201842               0.999999984               0.000035515               0.001233337               0.999999984               0.000036750               0.001267682               0.999999984               0.000036950               0.001303974               0.999999984               0.000035599               0.001341378               0.999999984               0.000032430               0.001379214               0.999999984               0.000026916               0.001416821               0.999999984               0.000018468               0.001453770               0.999999984               0.000006114               0.001489486               0.999999984              -0.000011414               0.001523597               0.999999984              -0.000035297               0.001555695               0.999999984               0.000046837               0.001136842               0.999999984               0.000027761               0.001151334               0.999999984               0.000019105               0.001159712               0.999999984               0.000015431               0.001171433               0.999999984               0.000014281               0.001188694               0.999999984               0.000014284               0.001211539               0.999999984               0.000014960               0.001239486               0.999999984               0.000015780               0.001271430               0.999999984               0.000016363               0.001306382               0.999999984               0.000016387               0.001343535               0.999999984               0.000015756               0.001382152               0.999999984               0.000014097               0.001421726               0.999999984               0.000011271               0.001461618               0.999999984               0.000006855               0.001501338               0.999999984               0.000000068               0.001540247               0.999999984              -0.000009630               0.001577780               0.999999984              -0.000023176               0.001613179               0.999999984               0.000000000               0.001142579               0.999999984               0.000000000               0.001160323               0.999999984              -0.000000000               0.001170718               0.999999984              -0.000000000               0.001183540               0.999999984              -0.000000000               0.001201361               0.999999984              -0.000000000               0.001224487               0.999999984              -0.000000000               0.001252641               0.999999984               0.000000000               0.001284870               0.999999984              -0.000000000               0.001320053               0.999999984              -0.000000000               0.001357478               0.999999984               0.000000000               0.001396510               0.999999984               0.000000000               0.001436678               0.999999984               0.000000000               0.001477400               0.999999984               0.000000000               0.001518140               0.999999984              -0.000000000               0.001558220               0.999999984              -0.000000000               0.001596996               0.999999984               0.000000000               0.001633667               0.999999984 </DataArray>
<DataArray type="Float64"                                    Name="stress"                                                      NumberOfComponents="10" format="ascii">
              0.001843742               0.020506541               0.000000000              -0.001871910               0.007459415               0.005587505               0.000000000               0.000000000               0.000000000               0.000000000               0.001846862               0.016208319               0.000000000              -0.001333463               0.005847207               0.004513743               0.000000000               0.000000000               0.000000000               0.000000000               0.002449085               0.012734731               0.000000000              -0.000673433               0.004469346               0.003795913               0.000000000               0.000000000               0.000000000               0.000000000               0.002381250               0.010793130               0.000000000              -0.000456171               0.003749731               0.003293560               0.000000000               0.000000000               0.000000000               0.000000000               0.002108924               0.009597674              -0.000000000              -0.000408862               0.003335480               0.002926618               0.000000000               0.000000000               0.000000000               0.000000000               0.001787866               0.008790243               0.000000000              -0.000428330               0.003072828               0.002644499               0.000000000               0.000000000               0.000000000               0.000000000               0.001477790               0.008199046               0.000000000              -0.000470708               0.002889891               0.002419182               0.000000000               0.000000000               0.000000000               0.000000000               0.001204583               0.007740472              -0.000000000              -0.000515839               0.002752078               0.002236239               0.000000000               0.000000000               0.000000000               0.000000000               0.000964917               0.007357477              -0.000000000              -0.000557839               0.002638414               0.002080575               0.000000000               0.000000000               0.000000000               0.000000000               0.000756400               0.007015426              -0.000000000              -0.000593277               0.002536211               0.001942934               0.000000000               0.000000000               0.000000000               0.000000000               0.000575447               0.006688809              -0.000000000              -0.000620307               0.002436350               0.001816043               0.000000000               0.000000000               0.000000000               0.000000000               0.000420063               0.006366026              -0.000000000              -0.000638228               0.002334730               0.001696502               0.000000000               0.000000000               0.000000000               0.000000000               0.000285219               0.006034607               0.000000000              -0.000647367               0.002227305               0.001579937               0.000000000               0.000000000               0.000000000               0.000000000               0.000174311               0.005681189              -0.000000000              -0.000644780               0.002108637               0.001463857               0.000000000               0.000000000               0.000000000               0.000000000               0.000095426               0.005291431              -0.000000000              -0.000625642               0.001972340               0.001346698               0.000000000               0.000000000               0.000000000               0.000000000               0.000041893               0.004844035               0.000000000              -0.000589793               0.001811260               0.001221467               0.000000000               0.000000000               0.000000000               0.000000000              -0.000015933               0.004498288              -0.000000000              -0.000568260               0.001688834               0.001120575               0.000000000               0.000000000               0.000000000               0.000000000               0.001916558               0.020097412              -0.001416471              -0.001793463               0.007296891               0.005503428               0.000000000               0.000000000               0.000000000               0.000000000               0.001822029               0.015942566              -0.000739947              -0.001309557               0.005750654               0.004441097               0.000000000               0.000000000               0.000000000               0.000000000               0.002320434               0.012621736              -0.000065799              -0.000707552               0.004443054               0.003735502               0.000000000               0.000000000               0.000000000               0.000000000               0.002210765               0.010759664               0.000221318              -0.000515920               0.003758492               0.003242572               0.000000000               0.000000000               0.000000000               0.000000000               0.001925212               0.009601632               0.000340817              -0.000478248               0.003359928               0.002881680               0.000000000               0.000000000               0.000000000               0.000000000               0.001611683               0.008815466               0.000381974              -0.000497551               0.003104310               0.002606759               0.000000000               0.000000000               0.000000000               0.000000000               0.001317810               0.008236058               0.000390626              -0.000535327               0.002923768               0.002388440               0.000000000               0.000000000               0.000000000               0.000000000               0.001060297               0.007780395               0.000383727              -0.000574937               0.002785085               0.002210148               0.000000000               0.000000000               0.000000000               0.000000000               0.000838595               0.007396333               0.000368430              -0.000610067               0.002668775               0.002058708               0.000000000               0.000000000               0.000000000               0.000000000               0.000648769               0.007050417               0.000348598              -0.000638012               0.002562786               0.001924774               0.000000000               0.000000000               0.000000000               0.000000000               0.000488937               0.006722086               0.000327628              -0.000656908               0.002459642               0.001802735               0.000000000               0.000000000               0.000000000               0.000000000               0.000353710               0.006402092               0.000307601              -0.000667619               0.002356549               0.001688930               0.000000000               0.000000000               0.000000000               0.000000000               0.000236041               0.006080696               0.000281430              -0.000671570               0.002250735               0.001579165               0.000000000               0.000000000               0.000000000               0.000000000               0.000141824               0.005744964               0.000242909              -0.000664935               0.002136614               0.001471679               0.000000000               0.000000000               0.000000000               0.000000000               0.000075812               0.005381749               0.000188107              -0.000644288               0.002008661               0.001364373               0.000000000               0.000000000               0.000000000               0.000000000               0.000031510               0.004977835               0.000108652              -0.000610412               0.001862732               0.001252320               0.000000000               0.000000000               0.000000000               0.000000000              -0.000016482               0.004676899               0.000066976              -0.000590792               0.001755881               0.001165090               0.000000000               0.000000000               0.000000000               0.000000000               0.002101744               0.018924897              -0.002640556              -0.001577455               0.006834054               0.005256599               0.000000000               0.000000000               0.000000000               0.000000000               0.001734321               0.015183398              -0.001380013              -0.001247552               0.005476932               0.004229381               0.000000000               0.000000000               0.000000000               0.000000000               0.001941723               0.012295534              -0.000135768              -0.000808793               0.004368068               0.003559275               0.000000000               0.000000000               0.000000000               0.000000000               0.001727318               0.010654348               0.000374543              -0.000684048               0.003779430               0.003095382               0.000000000               0.000000000               0.000000000               0.000000000               0.001423009               0.009604513               0.000581353              -0.000666934               0.003423784               0.002756849               0.000000000               0.000000000               0.000000000               0.000000000               0.001133460               0.008869909               0.000651958              -0.000683690               0.003184503               0.002500814               0.000000000               0.000000000               0.000000000               0.000000000               0.000881285               0.008314925               0.000662941              -0.000708882               0.003007908               0.002299026               0.000000000               0.000000000               0.000000000               0.000000000               0.000671602               0.007866791               0.000647931              -0.000731497               0.002866070               0.002134573               0.000000000               0.000000000               0.000000000               0.000000000               0.000505237               0.007483178               0.000619393              -0.000745932               0.002743012               0.001997080               0.000000000               0.000000000               0.000000000               0.000000000               0.000369563               0.007135122               0.000581939              -0.000753302               0.002629451               0.001876149               0.000000000               0.000000000               0.000000000               0.000000000               0.000259868               0.006810935               0.000541484              -0.000753915               0.002521594               0.001767679               0.000000000               0.000000000               0.000000000               0.000000000               0.000172170               0.006501616               0.000502117              -0.000748136               0.002416562               0.001668426               0.000000000               0.000000000               0.000000000               0.000000000               0.000101811               0.006198696               0.000453868              -0.000736656               0.002311764               0.001575107               0.000000000               0.000000000               0.000000000               0.000000000               0.000051488               0.005899063               0.000384827              -0.000718073               0.002205692               0.001487619               0.000000000               0.000000000               0.000000000               0.000000000               0.000021050               0.005602246               0.000290089              -0.000692385               0.002098192               0.001405806               0.000000000               0.000000000               0.000000000               0.000000000               0.000005690               0.005309372               0.000163287              -0.000661536               0.001990285               0.001328749               0.000000000               0.000000000               0.000000000               0.000000000              -0.000016348               0.005115552               0.000096983              -0.000645573               0.001920358               0.001274785               0.000000000               0.000000000               0.000000000               0.000000000               0.002304749               0.017139197              -0.003527887              -0.001278118               0.006139047               0.004860929               0.000000000               0.000000000               0.000000000               0.000000000               0.001556761               0.014040208              -0.001853600              -0.001171239               0.005070435               0.003899197               0.000000000               0.000000000               0.000000000               0.000000000               0.001358130               0.011797473              -0.000222186              -0.000965383               0.004254246               0.003288863               0.000000000               0.000000000               0.000000000               0.000000000               0.001020112               0.010467446               0.000412868              -0.000925887               0.003797743               0.002871856               0.000000000               0.000000000               0.000000000               0.000000000               0.000716609               0.009569072               0.000656715              -0.000927403               0.003498793               0.002571390               0.000000000               0.000000000               0.000000000               0.000000000               0.000478450               0.008904020               0.000735648              -0.000933581               0.003279171               0.002345589               0.000000000               0.000000000               0.000000000               0.000000000               0.000299097               0.008379061               0.000745862              -0.000935219               0.003104732               0.002169513               0.000000000               0.000000000               0.000000000               0.000000000               0.000170606               0.007941239               0.000726577              -0.000928676               0.002956612               0.002027936               0.000000000               0.000000000               0.000000000               0.000000000               0.000081096               0.007558463               0.000689145              -0.000914395               0.002824261               0.001909866               0.000000000               0.000000000               0.000000000               0.000000000               0.000014133               0.007211413               0.000641725              -0.000896125               0.002702489               0.001806364               0.000000000               0.000000000               0.000000000               0.000000000              -0.000030096               0.006894896               0.000591992              -0.000873146               0.002589324               0.001716178               0.000000000               0.000000000               0.000000000               0.000000000              -0.000050012               0.006603365               0.000540520              -0.000844173               0.002482490               0.001638317               0.000000000               0.000000000               0.000000000               0.000000000              -0.000051849               0.006331447               0.000478414              -0.000810872               0.002380752               0.001569880               0.000000000               0.000000000               0.000000000               0.000000000              -0.000041711               0.006084307               0.000397977              -0.000776178               0.002286808               0.001510630               0.000000000               0.000000000               0.000000000               0.000000000              -0.000025251               0.005874674               0.000293016              -0.000743802               0.002206139               0.001462337               0.000000000               0.000000000               0.000000000               0.000000000              -0.000012751               0.005712285               0.000159879              -0.000718815               0.002143681               0.001424866               0.000000000               0.000000000               0.000000000               0.000000000              -0.000012551               0.005630799               0.000088648              -0.000708555               0.002113099               0.001404544               0.000000000               0.000000000               0.000000000               0.000000000               0.002408945               0.014945194              -0.004005047              -0.000964796               0.005303279               0.004338483               0.000000000               0.000000000               0.000000000               0.000000000               0.001263623               0.012658691              -0.002140688              -0.001108476               0.004589013               0.003480537               0.000000000               0.000000000               0.000000000               0.000000000               0.000642875               0.011183176              -0.000347898              -0.001156816               0.004113293               0.002956477               0.000000000               0.000000000               0.000000000               0.000000000               0.000218151               0.010194017               0.000310511              -0.001192442               0.003795453               0.002603010               0.000000000               0.000000000               0.000000000               0.000000000              -0.000048696               0.009455683               0.000551297              -0.001200218               0.003551936               0.002351717               0.000000000               0.000000000               0.000000000               0.000000000              -0.000201369               0.008867293               0.000627381              -0.001183922               0.003350376               0.002166453               0.000000000               0.000000000               0.000000000               0.000000000              -0.000279315               0.008374883               0.000638196              -0.001151601               0.003175467               0.002023866               0.000000000               0.000000000               0.000000000               0.000000000              -0.000313549               0.007947614               0.000619989              -0.001111030               0.003019521               0.001908491               0.000000000               0.000000000               0.000000000               0.000000000              -0.000317378               0.007570108               0.000583611              -0.001065278               0.002878437               0.001813159               0.000000000               0.000000000               0.000000000               0.000000000              -0.000300883               0.007231442               0.000538045              -0.001016759               0.002749376               0.001732617               0.000000000               0.000000000               0.000000000               0.000000000              -0.000263633               0.006928343               0.000490013              -0.000964903               0.002631059               0.001666156               0.000000000               0.000000000               0.000000000               0.000000000              -0.000212889               0.006659803               0.000438603              -0.000912307               0.002524014               0.001611708               0.000000000               0.000000000               0.000000000               0.000000000              -0.000156873               0.006426045               0.000375114              -0.000862081               0.002429354               0.001567273               0.000000000               0.000000000               0.000000000               0.000000000              -0.000098255               0.006234784               0.000299396              -0.000816192               0.002350304               0.001534113               0.000000000               0.000000000               0.000000000               0.000000000              -0.000049789               0.006096267               0.000211677              -0.000780702               0.002292303               0.001511601               0.000000000               0.000000000               0.000000000               0.000000000              -0.000019402               0.006015291               0.000109261              -0.000759185               0.002258139               0.001498953               0.000000000               0.000000000               0.000000000               0.000000000              -0.000007829               0.005989985               0.000054791              -0.000751682               0.002247202               0.001495520               0.000000000               0.000000000               0.000000000               0.000000000               0.002316784               0.012567860              -0.004077777              -0.000702190               0.004423307               0.003721117               0.000000000               0.000000000               0.000000000               0.000000000               0.000855152               0.011183781              -0.002264323              -0.001077289               0.004086986               0.003009696               0.000000000               0.000000000               0.000000000               0.000000000              -0.000113999               0.010504752              -0.000531847              -0.001355840               0.003953496               0.002597655               0.000000000               0.000000000               0.000000000               0.000000000              -0.000546739               0.009837853               0.000076570              -0.001434755               0.003757503               0.002322748               0.000000000               0.000000000               0.000000000               0.000000000              -0.000727485               0.009242923               0.000298341              -0.001428169               0.003557000               0.002128831               0.000000000               0.000000000               0.000000000               0.000000000              -0.000774983               0.008724350               0.000374737              -0.001381159               0.003368474               0.001987315               0.000000000               0.000000000               0.000000000               0.000000000              -0.000747452               0.008271156               0.000392890              -0.001314186               0.003195086               0.001880901               0.000000000               0.000000000               0.000000000               0.000000000              -0.000682436               0.007869274               0.000386182              -0.001239570               0.003036255               0.001796685               0.000000000               0.000000000               0.000000000               0.000000000              -0.000596172               0.007508845               0.000362730              -0.001162167               0.002890312               0.001728145               0.000000000               0.000000000               0.000000000               0.000000000              -0.000500609               0.007185607               0.000327808              -0.001085927               0.002757154               0.001671227               0.000000000               0.000000000               0.000000000               0.000000000              -0.000398594               0.006900926               0.000290355              -0.001012086               0.002637648               0.001625562               0.000000000               0.000000000               0.000000000               0.000000000              -0.000296720               0.006652969               0.000250050              -0.000942889               0.002531930               0.001589042               0.000000000               0.000000000               0.000000000               0.000000000              -0.000206659               0.006441374               0.000202852              -0.000882667               0.002441326               0.001558659               0.000000000               0.000000000               0.000000000               0.000000000              -0.000128177               0.006277167               0.000154413              -0.000832710               0.002369938               0.001537228               0.000000000               0.000000000               0.000000000               0.000000000              -0.000067166               0.006160061               0.000105666              -0.000795193               0.002318397               0.001523204               0.000000000               0.000000000               0.000000000               0.000000000              -0.000026460               0.006077503               0.000052232              -0.000769608               0.002282350               0.001512742               0.000000000               0.000000000               0.000000000               0.000000000              -0.000020151               0.006029777               0.000030098              -0.000761277               0.002263665               0.001502388               0.000000000               0.000000000               0.000000000               0.000000000               0.001968668               0.010211902              -0.003813922              -0.000538240               0.003583346               0.003045106               0.000000000               0.000000000               0.000000000               0.000000000               0.000354964               0.009736205              -0.002267003              -0.001083913               0.003606673               0.002522760               0.000000000               0.000000000               0.000000000               0.000000000              -0.000823062               0.009797029              -0.000775987              -0.001533273               0.003776735               0.002243462               0.000000000               0.000000000               0.000000000               0.000000000              -0.001178556               0.009401587              -0.000253545              -0.001617153               0.003672882               0.002055729               0.000000000               0.000000000               0.000000000               0.000000000              -0.001230985               0.008929141              -0.000044598              -0.001577758               0.003502270               0.001924512               0.000000000               0.000000000               0.000000000               0.000000000              -0.001159425               0.008481229               0.000045365              -0.001494934               0.003325359               0.001830425               0.000000000               0.000000000               0.000000000               0.000000000              -0.001030196               0.008076039               0.000083723              -0.001395825               0.003157261               0.001761436               0.000000000               0.000000000               0.000000000               0.000000000              -0.000879125               0.007708775               0.000096694              -0.001293266               0.003000654               0.001707389               0.000000000               0.000000000               0.000000000               0.000000000              -0.000724848               0.007375659               0.000091518              -0.001193773               0.002856453               0.001662680               0.000000000               0.000000000               0.000000000               0.000000000              -0.000571556               0.007072503               0.000078214              -0.001098394               0.002723609               0.001625215               0.000000000               0.000000000               0.000000000               0.000000000              -0.000428390               0.006795392               0.000065977              -0.001010068               0.002601797               0.001591729               0.000000000               0.000000000               0.000000000               0.000000000              -0.000309816               0.006545594               0.000054339              -0.000934378               0.002493302               0.001558924               0.000000000               0.000000000               0.000000000               0.000000000              -0.000217753               0.006332594               0.000044664              -0.000873230               0.002401920               0.001528690               0.000000000               0.000000000               0.000000000               0.000000000              -0.000145293               0.006162120               0.000041946              -0.000824748               0.002328935               0.001504188               0.000000000               0.000000000               0.000000000               0.000000000              -0.000089896               0.006023267               0.000040159              -0.000786617               0.002269941               0.001483324               0.000000000               0.000000000               0.000000000               0.000000000              -0.000042784               0.005901508               0.000026411              -0.000753731               0.002218393               0.001464662               0.000000000               0.000000000               0.000000000               0.000000000              -0.000040165               0.005814461               0.000027141              -0.000741868               0.002185424               0.001443556               0.000000000               0.000000000               0.000000000               0.000000000               0.001386705               0.008026459              -0.003299651              -0.000483295               0.002836557               0.002353262               0.000000000               0.000000000               0.000000000               0.000000000              -0.000209008               0.008404293              -0.002189483              -0.001128913               0.003177707               0.002048794               0.000000000               0.000000000               0.000000000               0.000000000              -0.001414842               0.009075695              -0.001071178              -0.001665024               0.003580209               0.001915186               0.000000000               0.000000000               0.000000000               0.000000000              -0.001621418               0.008898464              -0.000629253              -0.001720335               0.003539570               0.001819235               0.000000000               0.000000000               0.000000000               0.000000000              -0.001528607               0.008541284              -0.000412713              -0.001640884               0.003394028               0.001753143               0.000000000               0.000000000               0.000000000               0.000000000              -0.001342867               0.008165415              -0.000294941              -0.001524248               0.003229861               0.001705612               0.000000000               0.000000000               0.000000000               0.000000000              -0.001126570               0.007810148              -0.000227515              -0.001398729               0.003069600               0.001670871               0.000000000               0.000000000               0.000000000               0.000000000              -0.000910188               0.007481618              -0.000185583              -0.001276520               0.002919354               0.001642835               0.000000000               0.000000000               0.000000000               0.000000000              -0.000706155               0.007169191              -0.000159543              -0.001160954               0.002776691               0.001615737               0.000000000               0.000000000               0.000000000               0.000000000              -0.000528220               0.006862335              -0.000140512              -0.001055872               0.002639379               0.001583508               0.000000000               0.000000000               0.000000000               0.000000000              -0.000386853               0.006572192              -0.000118252              -0.000966592               0.002512906               0.001546314               0.000000000               0.000000000               0.000000000               0.000000000              -0.000281821               0.006312383              -0.000087736              -0.000894729               0.002402349               0.001507621               0.000000000               0.000000000               0.000000000               0.000000000              -0.000209038               0.006091608              -0.000051149              -0.000839838               0.002310462               0.001470624               0.000000000               0.000000000               0.000000000               0.000000000              -0.000155075               0.005904211              -0.000011905              -0.000796178               0.002233443               0.001437265               0.000000000               0.000000000               0.000000000               0.000000000              -0.000106767               0.005736579               0.000019482              -0.000757108               0.002164543               0.001407435               0.000000000               0.000000000               0.000000000               0.000000000              -0.000057903               0.005586091               0.000025196              -0.000719973               0.002102003               0.001382030               0.000000000               0.000000000               0.000000000               0.000000000              -0.000047228               0.005490834               0.000029244              -0.000704063               0.002064947               0.001360884               0.000000000               0.000000000               0.000000000               0.000000000               0.000671222               0.006170874              -0.002634089              -0.000519652               0.002230154               0.001710502               0.000000000               0.000000000               0.000000000               0.000000000              -0.000751848               0.007215375              -0.002079748              -0.001183863               0.002799721               0.001615858               0.000000000               0.000000000               0.000000000               0.000000000              -0.001851041               0.008375273              -0.001415152              -0.001741046               0.003372078               0.001631032               0.000000000               0.000000000               0.000000000               0.000000000              -0.001895868               0.008424791              -0.001024346              -0.001764045               0.003396251               0.001632206               0.000000000               0.000000000               0.000000000               0.000000000              -0.001686866               0.008197218              -0.000783023              -0.001657223               0.003284786               0.001627563               0.000000000               0.000000000               0.000000000               0.000000000              -0.001417567               0.007902172              -0.000626351              -0.001519356               0.003140483               0.001621127               0.000000000               0.000000000               0.000000000               0.000000000              -0.001135609               0.007608528              -0.000519639              -0.001376916               0.002995123               0.001618207               0.000000000               0.000000000               0.000000000               0.000000000              -0.000871441               0.007315851              -0.000442646              -0.001241269               0.002852349               0.001611080               0.000000000               0.000000000               0.000000000               0.000000000              -0.000640688               0.007000249              -0.000383996              -0.001115286               0.002705155               0.001589869               0.000000000               0.000000000               0.000000000               0.000000000              -0.000448585               0.006681192              -0.000330124              -0.001003366               0.002561497               0.001558131               0.000000000               0.000000000               0.000000000               0.000000000              -0.000305433               0.006381492              -0.000268623              -0.000912222               0.002431217               0.001518995               0.000000000               0.000000000               0.000000000               0.000000000              -0.000214992               0.006114575              -0.000197177              -0.000844942               0.002319819               0.001474877               0.000000000               0.000000000               0.000000000               0.000000000              -0.000167744               0.005883463              -0.000122631              -0.000798335               0.002227246               0.001428911               0.000000000               0.000000000               0.000000000               0.000000000              -0.000146575               0.005674696              -0.000055257              -0.000764301               0.002146313               0.001382013               0.000000000               0.000000000               0.000000000               0.000000000              -0.000134788               0.005476802              -0.000005979              -0.000735144               0.002070631               0.001335487               0.000000000               0.000000000               0.000000000               0.000000000              -0.000120216               0.005295507               0.000014437              -0.000707017               0.002000824               0.001293806               0.000000000               0.000000000               0.000000000               0.000000000              -0.000106448               0.005205127               0.000017072              -0.000690557               0.001965211               0.001274653               0.000000000               0.000000000               0.000000000               0.000000000              -0.000200468               0.004439414              -0.001916498              -0.000630102               0.001689823               0.001059721               0.000000000               0.000000000               0.000000000               0.000000000              -0.001192593               0.005849400              -0.001951225              -0.001178395               0.002342578               0.001164183               0.000000000               0.000000000               0.000000000               0.000000000              -0.002076885               0.007362258              -0.001785827              -0.001699110               0.003020431               0.001321321               0.000000000               0.000000000               0.000000000               0.000000000              -0.002036823               0.007731411              -0.001459796              -0.001730231               0.003153855               0.001423624               0.000000000               0.000000000               0.000000000               0.000000000              -0.001777963               0.007719742              -0.001192290              -0.001631700               0.003117122               0.001485421               0.000000000               0.000000000               0.000000000               0.000000000              -0.001477573               0.007580527              -0.000991692              -0.001501652               0.003027367               0.001525715               0.000000000               0.000000000               0.000000000               0.000000000              -0.001177953               0.007403066              -0.000838538              -0.001367112               0.002923368               0.001556256               0.000000000               0.000000000               0.000000000               0.000000000              -0.000905088               0.007182638              -0.000721289              -0.001237235               0.002806600               0.001569366               0.000000000               0.000000000               0.000000000               0.000000000              -0.000668240               0.006913981              -0.000623934              -0.001114835               0.002676249               0.001561414               0.000000000               0.000000000               0.000000000               0.000000000              -0.000470050               0.006620474              -0.000532979              -0.001003826               0.002541411               0.001537586               0.000000000               0.000000000               0.000000000               0.000000000              -0.000321365               0.006318243              -0.000438510              -0.000910290               0.002409490               0.001499200               0.000000000               0.000000000               0.000000000               0.000000000              -0.000225018               0.006038401              -0.000335537              -0.000839180               0.002292507               0.001453327               0.000000000               0.000000000               0.000000000               0.000000000              -0.000180756               0.005787846              -0.000232296              -0.000791262               0.002193017               0.001401755               0.000000000               0.000000000               0.000000000               0.000000000              -0.000173148               0.005566758              -0.000137557              -0.000760773               0.002109158               0.001348385               0.000000000               0.000000000               0.000000000               0.000000000              -0.000189798               0.005362362              -0.000062149              -0.000741468               0.002034592               0.001293124               0.000000000               0.000000000               0.000000000               0.000000000              -0.000218263               0.005170443              -0.000017272              -0.000728152               0.001966181               0.001238029               0.000000000               0.000000000               0.000000000               0.000000000              -0.000228203               0.005081439              -0.000003835              -0.000720754               0.001934047               0.001213293               0.000000000               0.000000000               0.000000000               0.000000000              -0.001355870               0.002867668              -0.001191449              -0.000866908               0.001244849               0.000377940               0.000000000               0.000000000               0.000000000               0.000000000              -0.001696301               0.004486878              -0.001754741              -0.001196970               0.001894600               0.000697630               0.000000000               0.000000000               0.000000000               0.000000000              -0.002218105               0.006199900              -0.002075341              -0.001606774               0.002602203               0.000995430               0.000000000               0.000000000               0.000000000               0.000000000              -0.002105773               0.006869763              -0.001876443              -0.001648382               0.002839358               0.001190976               0.000000000               0.000000000               0.000000000               0.000000000              -0.001824443               0.007104988              -0.001612064              -0.001572286               0.002892401               0.001320114               0.000000000               0.000000000               0.000000000               0.000000000              -0.001516860               0.007152552              -0.001379995              -0.001462888               0.002871789               0.001408901               0.000000000               0.000000000               0.000000000               0.000000000              -0.001215649               0.007116326              -0.001187600              -0.001345406               0.002820553               0.001475147               0.000000000               0.000000000               0.000000000               0.000000000              -0.000941936               0.007000160              -0.001033122              -0.001228243               0.002742778               0.001514534               0.000000000               0.000000000               0.000000000               0.000000000              -0.000703634               0.006813648              -0.000903973              -0.001115566               0.002643049               0.001527482               0.000000000               0.000000000               0.000000000               0.000000000              -0.000495856               0.006583183              -0.000782596              -0.001008841               0.002530653               0.001521811               0.000000000               0.000000000               0.000000000               0.000000000              -0.000327202               0.006322418              -0.000660934              -0.000913001               0.002411785               0.001498784               0.000000000               0.000000000               0.000000000               0.000000000              -0.000202858               0.006055831              -0.000535676              -0.000833049               0.002296273               0.001463224               0.000000000               0.000000000               0.000000000               0.000000000              -0.000133189               0.005794441              -0.000410382              -0.000774249               0.002189544               0.001415295               0.000000000               0.000000000               0.000000000               0.000000000              -0.000117351               0.005557430              -0.000288281              -0.000738683               0.002098686               0.001360003               0.000000000               0.000000000               0.000000000               0.000000000              -0.000149648               0.005347904              -0.000172335              -0.000724604               0.002024152               0.001299547               0.000000000               0.000000000               0.000000000               0.000000000              -0.000226127               0.005164149              -0.000074908              -0.000730315               0.001964804               0.001234489               0.000000000               0.000000000               0.000000000               0.000000000              -0.000291077               0.005068115              -0.000025429              -0.000742666               0.001936910               0.001194244               0.000000000               0.000000000               0.000000000               0.000000000              -0.002713061               0.001568284              -0.000515305              -0.001213431               0.000927232              -0.000286199               0.000000000               0.000000000               0.000000000               0.000000000              -0.002311631               0.003204496              -0.001468465              -0.001267421               0.001490628               0.000223206               0.000000000               0.000000000               0.000000000               0.000000000              -0.002312396               0.004901935              -0.002181243              -0.001479888               0.002127257               0.000647369               0.000000000               0.000000000               0.000000000               0.000000000              -0.002067604               0.005784106              -0.002146969              -0.001498362               0.002427469               0.000929107               0.000000000               0.000000000               0.000000000               0.000000000              -0.001757823               0.006249805              -0.001930935              -0.001440406               0.002563382               0.001122976               0.000000000               0.000000000               0.000000000               0.000000000              -0.001449546               0.006498156              -0.001698751              -0.001355847               0.002617979               0.001262132               0.000000000               0.000000000               0.000000000               0.000000000              -0.001157880               0.006621222              -0.001492193              -0.001261855               0.002627670               0.001365815               0.000000000               0.000000000               0.000000000               0.000000000              -0.000893622               0.006634736              -0.001317176              -0.001164448               0.002599705               0.001435258               0.000000000               0.000000000               0.000000000               0.000000000              -0.000656696               0.006560963              -0.001166323              -0.001066379               0.002542425               0.001476046               0.000000000               0.000000000               0.000000000               0.000000000              -0.000448379               0.006420123              -0.001024153              -0.000970655               0.002463571               0.001492916               0.000000000               0.000000000               0.000000000               0.000000000              -0.000270893               0.006236073              -0.000882660              -0.000881092               0.002372367               0.001491275               0.000000000               0.000000000               0.000000000               0.000000000              -0.000123178               0.006023458              -0.000742353              -0.000799122               0.002274173               0.001475051               0.000000000               0.000000000               0.000000000               0.000000000              -0.000014037               0.005785588              -0.000602702              -0.000728461               0.002171330               0.001442869               0.000000000               0.000000000               0.000000000               0.000000000               0.000041633               0.005550992              -0.000458727              -0.000678260               0.002076399               0.001398139               0.000000000               0.000000000               0.000000000               0.000000000               0.000034096               0.005343080              -0.000306046              -0.000655098               0.001999375               0.001344277               0.000000000               0.000000000               0.000000000               0.000000000              -0.000042693               0.005165318              -0.000150769              -0.000661673               0.001942313               0.001280640               0.000000000               0.000000000               0.000000000               0.000000000              -0.000128462               0.005063059              -0.000063587              -0.000681054               0.001914688               0.001233634               0.000000000               0.000000000               0.000000000               0.000000000              -0.004170666               0.000601625               0.000024020              -0.001639201               0.000746937              -0.000892264               0.000000000               0.000000000               0.000000000               0.000000000              -0.003000645               0.002067070              -0.001129756              -0.001383623               0.001150223              -0.000233401               0.000000000               0.000000000               0.000000000               0.000000000              -0.002387529               0.003574860              -0.002080062              -0.001342179               0.001639000               0.000296821               0.000000000               0.000000000               0.000000000               0.000000000              -0.001947574               0.004564137              -0.002196100              -0.001300855               0.001954981               0.000654126               0.000000000               0.000000000               0.000000000               0.000000000              -0.001584526               0.005209857              -0.002057421              -0.001245427               0.002151743               0.000906316               0.000000000               0.000000000               0.000000000               0.000000000              -0.001268400               0.005645253              -0.001858322              -0.001181305               0.002275500               0.001094195               0.000000000               0.000000000               0.000000000               0.000000000              -0.000986527               0.005932900              -0.001664269              -0.001111558               0.002348133               0.001236574               0.000000000               0.000000000               0.000000000               0.000000000              -0.000737981               0.006081966              -0.001493370              -0.001036987               0.002372964               0.001335977               0.000000000               0.000000000               0.000000000               0.000000000              -0.000512833               0.006131689              -0.001339747              -0.000958771               0.002363466               0.001404694               0.000000000               0.000000000               0.000000000               0.000000000              -0.000307425               0.006107345              -0.001188522              -0.000878701               0.002328661               0.001449961               0.000000000               0.000000000               0.000000000               0.000000000              -0.000124225               0.006021609              -0.001040665              -0.000799284               0.002273611               0.001474327               0.000000000               0.000000000               0.000000000               0.000000000               0.000042590               0.005888743              -0.000900808              -0.000720120               0.002202935               0.001482814               0.000000000               0.000000000               0.000000000               0.000000000               0.000192183               0.005717776              -0.000759718              -0.000642652               0.002120123               0.001477472               0.000000000               0.000000000               0.000000000               0.000000000               0.000307821               0.005525890              -0.000602684              -0.000575302               0.002033712               0.001458410               0.000000000               0.000000000               0.000000000               0.000000000               0.000370627               0.005337363              -0.000423425              -0.000528184               0.001955164               0.001426980               0.000000000               0.000000000               0.000000000               0.000000000               0.000361918               0.005164326              -0.000222567              -0.000509820               0.001891365               0.001381545               0.000000000               0.000000000               0.000000000               0.000000000               0.000318390               0.005068816              -0.000111363              -0.000514204               0.001860990               0.001346785               0.000000000               0.000000000               0.000000000               0.000000000              -0.005577694              -0.000037786               0.000350071              -0.002086910               0.000683037              -0.001403873               0.000000000               0.000000000               0.000000000               0.000000000              -0.003694694               0.001142286              -0.000785126              -0.001528294               0.000890187              -0.000638107               0.000000000               0.000000000               0.000000000               0.000000000              -0.002454990               0.002349781              -0.001772869              -0.001214342               0.001188032              -0.000026310               0.000000000               0.000000000               0.000000000               0.000000000              -0.001779614               0.003348845              -0.001981416              -0.001085959               0.001478256               0.000392297               0.000000000               0.000000000               0.000000000               0.000000000              -0.001335664               0.004109597              -0.001919901              -0.001014572               0.001708042               0.000693470               0.000000000               0.000000000               0.000000000               0.000000000              -0.000998456               0.004690091              -0.001774997              -0.000960681               0.001883574               0.000922893               0.000000000               0.000000000               0.000000000               0.000000000              -0.000718069               0.005117195              -0.001618041              -0.000908924               0.002008689               0.001099765               0.000000000               0.000000000               0.000000000               0.000000000              -0.000481530               0.005395141              -0.001470907              -0.000854965               0.002083350               0.001228385               0.000000000               0.000000000               0.000000000               0.000000000              -0.000275233               0.005565756              -0.001332242              -0.000798930               0.002121543               0.001322613               0.000000000               0.000000000               0.000000000               0.000000000              -0.000082529               0.005655901              -0.001192545              -0.000737935               0.002131260               0.001393325               0.000000000               0.000000000               0.000000000               0.000000000               0.000107320               0.005676752              -0.001058795              -0.000669348               0.002115347               0.001446000               0.000000000               0.000000000               0.000000000               0.000000000               0.000295137               0.005639034              -0.000936143              -0.000594202               0.002077726               0.001483525               0.000000000               0.000000000               0.000000000               0.000000000               0.000478372               0.005558521              -0.000808030              -0.000515425               0.002024630               0.001509205               0.000000000               0.000000000               0.000000000               0.000000000               0.000654507               0.005444762              -0.000657858              -0.000435154               0.001959954               0.001524799               0.000000000               0.000000000               0.000000000               0.000000000               0.000812382               0.005305838              -0.000475404              -0.000358586               0.001888123               0.001529538               0.000000000               0.000000000               0.000000000               0.000000000               0.000931983               0.005154859              -0.000255652              -0.000294863               0.001816557               0.001521694               0.000000000               0.000000000               0.000000000               0.000000000               0.000993407               0.005080982              -0.000139007              -0.000262595               0.001781175               0.001518581               0.000000000               0.000000000               0.000000000               0.000000000              -0.006763098              -0.000402447               0.000425321              -0.002485854               0.000694464              -0.001791390               0.000000000               0.000000000               0.000000000               0.000000000              -0.004300498               0.000473973              -0.000476476              -0.001671932               0.000715297              -0.000956635               0.000000000               0.000000000               0.000000000               0.000000000              -0.002515935               0.001360480              -0.001289150              -0.001113534               0.000824665              -0.000288869               0.000000000               0.000000000               0.000000000               0.000000000              -0.001607103               0.002305769              -0.001504977              -0.000890883               0.001065542               0.000174659               0.000000000               0.000000000               0.000000000               0.000000000              -0.001069160               0.003120958              -0.001494740              -0.000791053               0.001303993               0.000512939               0.000000000               0.000000000               0.000000000               0.000000000              -0.000700288               0.003792744              -0.001407177              -0.000736700               0.001509802               0.000773102               0.000000000               0.000000000               0.000000000               0.000000000              -0.000417811               0.004320633              -0.001301350              -0.000696757               0.001672449               0.000975691               0.000000000               0.000000000               0.000000000               0.000000000              -0.000193121               0.004704431              -0.001192501              -0.000660473               0.001788285               0.001127812               0.000000000               0.000000000               0.000000000               0.000000000              -0.000001196               0.004977126              -0.001085353              -0.000622588               0.001866555               0.001243966               0.000000000               0.000000000               0.000000000               0.000000000               0.000181207               0.005163807              -0.000980093              -0.000577522               0.001913759               0.001336237               0.000000000               0.000000000               0.000000000               0.000000000               0.000373269               0.005282037              -0.000881143              -0.000520278               0.001934087               0.001413809               0.000000000               0.000000000               0.000000000               0.000000000               0.000573483               0.005339695              -0.000787889              -0.000452405               0.001930682               0.001478277               0.000000000               0.000000000               0.000000000               0.000000000               0.000785297               0.005349935              -0.000689920              -0.000374255               0.001908045               0.001533790               0.000000000               0.000000000               0.000000000               0.000000000               0.001013969               0.005316874              -0.000572690              -0.000284370               0.001867064               0.001582694               0.000000000               0.000000000               0.000000000               0.000000000               0.001259914               0.005241843              -0.000421662              -0.000182762               0.001808184               0.001625422               0.000000000               0.000000000               0.000000000               0.000000000               0.001525007               0.005131866              -0.000228816              -0.000069606               0.001733807               0.001664201               0.000000000               0.000000000               0.000000000               0.000000000               0.001721786               0.005089575              -0.000129216               0.000009472               0.001693351               0.001702823               0.000000000               0.000000000               0.000000000               0.000000000              -0.007555614              -0.000574469               0.000279487              -0.002761545               0.000729020              -0.002032525               0.000000000               0.000000000               0.000000000               0.000000000              -0.004717981               0.000075841              -0.000219228              -0.001778721               0.000618183              -0.001160538               0.000000000               0.000000000               0.000000000               0.000000000              -0.002566860               0.000720259              -0.000678252              -0.001052604               0.000590950              -0.000461654               0.000000000               0.000000000               0.000000000               0.000000000              -0.001484393               0.001597440              -0.000814176              -0.000756326               0.000784583               0.000028257               0.000000000               0.000000000               0.000000000               0.000000000              -0.000868176               0.002422839              -0.000820604              -0.000628420               0.001017078               0.000388658               0.000000000               0.000000000               0.000000000               0.000000000              -0.000465967               0.003144671              -0.000780812              -0.000567821               0.001237487               0.000669666               0.000000000               0.000000000               0.000000000               0.000000000              -0.000181198               0.003736544              -0.000728777              -0.000535016               0.001423841               0.000888825               0.000000000               0.000000000               0.000000000               0.000000000               0.000034037               0.004186873              -0.000671801              -0.000510594               0.001565808               0.001055214               0.000000000               0.000000000               0.000000000               0.000000000               0.000218707               0.004525815              -0.000612991              -0.000483711               0.001669827               0.001186116               0.000000000               0.000000000               0.000000000               0.000000000               0.000397651               0.004778523              -0.000556880              -0.000448195               0.001742223               0.001294028               0.000000000               0.000000000               0.000000000               0.000000000               0.000587483               0.004966492              -0.000503741              -0.000400504               0.001788982               0.001388478               0.000000000               0.000000000               0.000000000               0.000000000               0.000794062               0.005096933              -0.000452753              -0.000339343               0.001812075               0.001472732               0.000000000               0.000000000               0.000000000               0.000000000               0.001025422               0.005174710              -0.000400809              -0.000262305               0.001812321               0.001550016               0.000000000               0.000000000               0.000000000               0.000000000               0.001290820               0.005201514              -0.000334902              -0.000166131               0.001789198               0.001623067               0.000000000               0.000000000               0.000000000               0.000000000               0.001604460               0.005177905              -0.000249236              -0.000045566               0.001741140               0.001695574               0.000000000               0.000000000               0.000000000               0.000000000               0.001982818               0.005103633              -0.000138472               0.000105601               0.001665994               0.001771595               0.000000000               0.000000000               0.000000000               0.000000000               0.002289394               0.005087910              -0.000081872               0.000222532               0.001621776               0.001844307               0.000000000               0.000000000               0.000000000               0.000000000              -0.007832298              -0.000620959               0.000000000              -0.002859490               0.000746172              -0.002113318               0.000000000               0.000000000               0.000000000               0.000000000              -0.004866594              -0.000052674              -0.000000000              -0.001818387               0.000588567              -0.001229820               0.000000000               0.000000000               0.000000000               0.000000000              -0.002588743               0.000499855              -0.000000000              -0.001033259               0.000511035              -0.000522225               0.000000000               0.000000000               0.000000000               0.000000000              -0.001442567               0.001343691              -0.000000000              -0.000708922               0.000684199              -0.000024723               0.000000000               0.000000000               0.000000000               0.000000000              -0.000795098               0.002167651              -0.000000000              -0.000569117               0.000912249               0.000343132               0.000000000               0.000000000               0.000000000               0.000000000              -0.000377664               0.002906685               0.000000000              -0.000504959               0.001137205               0.000632246               0.000000000               0.000000000               0.000000000               0.000000000              -0.000090044               0.003524041              -0.000000000              -0.000474270               0.001332759               0.000858488               0.000000000               0.000000000               0.000000000               0.000000000               0.000122034               0.003996683              -0.000000000              -0.000453821               0.001483488               0.001029667               0.000000000               0.000000000               0.000000000               0.000000000               0.000303172               0.004354778              -0.000000000              -0.000430657               0.001595130               0.001164474               0.000000000               0.000000000               0.000000000               0.000000000               0.000481681               0.004630940              -0.000000000              -0.000398236               0.001676377               0.001278140               0.000000000               0.000000000               0.000000000               0.000000000               0.000669704               0.004844433               0.000000000              -0.000354414               0.001732933               0.001378519               0.000000000               0.000000000               0.000000000               0.000000000               0.000880093               0.005002987               0.000000000              -0.000295338               0.001766092               0.001470754               0.000000000               0.000000000               0.000000000               0.000000000               0.001117149               0.005106187              -0.000000000              -0.000219342               0.001775159               0.001555817               0.000000000               0.000000000               0.000000000               0.000000000               0.001395010               0.005154484              -0.000000000              -0.000121182               0.001758538               0.001637356               0.000000000               0.000000000               0.000000000               0.000000000               0.001736836               0.005149946              -0.000000000               0.000007570               0.001714108               0.001721678               0.000000000               0.000000000               0.000000000               0.000000000               0.002158088               0.005090262               0.000000000               0.000172999               0.001639071               0.001812070               0.000000000               0.000000000               0.000000000               0.000000000               0.002504840               0.005085525               0.000000000               0.000303621               0.001593951               0.001897573               0.000000000               0.000000000               0.000000000               0.000000000               0.000000000               0.000000000               0.000000000               0.000000000               0.000000000               0.000000000               0.000000000               0.000000000               0.000000000               0.000000000               0.000000000               0.000000000               0.000000000               0.000000000               0.000000000               0.000000000               0.000000000               0.000000000               0.000000000               0.000000000               0.000000000               0.000000000               0.000000000               0.000000000               0.000000000               0.000000000               0.000000000               0.000000000               0.000000000               0.000000000               0.000000000               0.000000000               0.000000000               0.000000000               0.000000000               0.000000000               0.000000000               0.000000000               0.000000000               0.000000000               0.000000000               0.000000000               0.000000000               0.000000000               0.000000000               0.000000000               0.000000000               0.000000000               0.000000000               0.000000000               0.000000000               0.000000000               0.000000000               0.000000000               0.000000000               0.000000000               0.000000000               0.000000000               0.000000000               0.000000000               0.000000000               0.000000000               0.000000000               0.000000000               0.000000000               0.000000000               0.000000000               0.000000000               0.000000000               0.000000000               0.000000000               0.000000000               0.000000000               0.000000000               0.000000000               0.000000000               0.000000000               0.000000000               0.000000000               0.000000000               0.000000000               0.000000000               0.000000000               0.000000000               0.000000000               0.000000000               0.000000000               0.000000000               0.000000000               0.000000000               0.000000000               0.000000000               0.000000000               0.000000000               0.000000000               0.000000000               0.000000000               0.000000000               0.000000000               0.000000000               0.000000000               0.000000000               0.000000000               0.000000000               0.000000000               0.000000000               0.000000000               0.000000000               0.000000000               0.000000000               0.000000000               0.000000000               0.000000000               0.000000000               0.000000000               0.000000000               0.000000000               0.000000000               0.000000000               0.000000000               0.000000000               0.000000000               0.000000000               0.000000000               0.000000000               0.000000000               0.000000000               0.000000000               0.000000000               0.000000000               0.000000000               0.000000000               0.000000000               0.000000000               0.000000000               0.000000000               0.000000000               0.000000000               0.000000000               0.000000000               0.000000000               0.000000000               0.000000000               0.000000000               0.000000000               0.000000000               0.000000000               0.000000000               0.000000000               0.000000000               0.000000000               0.000000000               0.000000000               0.000000000               0.000000000               0.000000000               0.000000000               0.000000000               0.000000000               0.000000000               0.000000000               0.000000000               0.000000000               0.000000000               0.000000000               0.000000000               0.000000000               0.000000000               0.000000000               0.000000000               0.001916558               0.020097412               0.001416471              -0.001793463               0.007296891               0.005503428               0.000000000               0.000000000               0.000000000               0.000000000               0.001822029               0.015942566               0.000739947              -0.001309557               0.005750654               0.004441097               0.000000000               0.000000000               0.000000000               0.000000000               0.002320434               0.012621736               0.000065799              -0.000707552               0.004443054               0.003735502               0.000000000               0.000000000               0.000000000               0.000000000               0.002210765               0.010759664              -0.000221318              -0.000515920               0.003758492               0.003242572               0.000000000               0.000000000               0.000000000               0.000000000               0.001925212               0.009601632              -0.000340817              -0.000478248               0.003359928               0.002881680               0.000000000               0.000000000               0.000000000               0.000000000               0.001611683               0.008815466              -0.000381974              -0.000497551               0.003104310               0.002606759               0.000000000               0.000000000               0.000000000               0.000000000               0.001317810               0.008236058              -0.000390626              -0.000535327               0.002923768               0.002388440               0.000000000               0.000000000               0.000000000               0.000000000               0.001060297               0.007780395              -0.000383727              -0.000574937               0.002785085               0.002210148               0.000000000               0.000000000               0.000000000               0.000000000               0.000838595               0.007396333              -0.000368430              -0.000610067               0.002668775               0.002058708               0.000000000               0.000000000               0.000000000               0.000000000               0.000648769               0.007050417              -0.000348598              -0.000638012               0.002562786               0.001924774               0.000000000               0.000000000               0.000000000               0.000000000               0.000488937               0.006722086              -0.000327628              -0.000656908               0.002459642               0.001802735               0.000000000               0.000000000               0.000000000               0.000000000               0.000353710               0.006402092              -0.000307601              -0.000667619               0.002356549               0.001688930               0.000000000               0.000000000               0.000000000               0.000000000               0.000236041               0.006080696              -0.000281430              -0.000671570               0.002250735               0.001579165               0.000000000               0.000000000               0.000000000               0.000000000               0.000141824               0.005744964              -0.000242909              -0.000664935               0.002136614               0.001471679               0.000000000               0.000000000               0.000000000               0.000000000               0.000075812               0.005381749              -0.000188107              -0.000644288               0.002008661               0.001364373               0.000000000               0.000000000               0.000000000               0.000000000               0.000031510               0.004977835              -0.000108652              -0.000610412               0.001862732               0.001252320               0.000000000               0.000000000               0.000000000               0.000000000              -0.000016482               0.004676899              -0.000066976              -0.000590792               0.001755881               0.001165090               0.000000000               0.000000000               0.000000000               0.000000000               0.002101744               0.018924897               0.002640556              -0.001577455               0.006834054               0.005256599               0.000000000               0.000000000               0.000000000               0.000000000               0.001734321               0.015183398               0.001380013              -0.001247552               0.005476932               0.004229381               0.000000000               0.000000000               0.000000000               0.000000000               0.001941723               0.012295534               0.000135768              -0.000808793               0.004368068               0.003559275               0.000000000               0.000000000               0.000000000               0.000000000               0.001727318               0.010654348              -0.000374543              -0.000684048               0.003779430               0.003095382               0.000000000               0.000000000               0.000000000               0.000000000               0.001423009               0.009604513              -0.000581353              -0.000666934               0.003423784               0.002756849               0.000000000               0.000000000               0.000000000               0.000000000               0.001133460               0.008869909              -0.000651958              -0.000683690               0.003184503               0.002500814               0.000000000               0.000000000               0.000000000               0.000000000               0.000881285               0.008314925              -0.000662941              -0.000708882               0.003007908               0.002299026               0.000000000               0.000000000               0.000000000               0.000000000               0.000671602               0.007866791              -0.000647931              -0.000731497               0.002866070               0.002134573               0.000000000               0.000000000               0.000000000               0.000000000               0.000505237               0.007483178              -0.000619393              -0.000745932               0.002743012               0.001997080               0.000000000               0.000000000               0.000000000               0.000000000               0.000369563               0.007135122              -0.000581939              -0.000753302               0.002629451               0.001876149               0.000000000               0.000000000               0.000000000               0.000000000               0.000259868               0.006810935              -0.000541484              -0.000753915               0.002521594               0.001767679               0.000000000               0.000000000               0.000000000               0.000000000               0.000172170               0.006501616              -0.000502117              -0.000748136               0.002416562               0.001668426               0.000000000               0.000000000               0.000000000               0.000000000               0.000101811               0.006198696              -0.000453868              -0.000736656               0.002311764               0.001575107               0.000000000               0.000000000               0.000000000               0.000000000               0.000051488               0.005899063              -0.000384827              -0.000718073               0.002205692               0.001487619               0.000000000               0.000000000               0.000000000               0.000000000               0.000021050               0.005602246              -0.000290089              -0.000692385               0.002098192               0.001405806               0.000000000               0.000000000               0.000000000               0.000000000               0.000005690               0.005309372              -0.000163287              -0.000661536               0.001990285               0.001328749               0.000000000               0.000000000               0.000000000               0.000000000              -0.000016348               0.005115552              -0.000096983              -0.000645573               0.001920358               0.001274785               0.000000000               0.000000000               0.000000000               0.000000000               0.002304749               0.017139197               0.003527887              -0.001278118               0.006139047               0.004860929               0.000000000               0.000000000               0.000000000               0.000000000               0.001556761               0.014040208               0.001853600              -0.001171239               0.005070435               0.003899197               0.000000000               0.000000000               0.000000000               0.000000000               0.001358130               0.011797473               0.000222186              -0.000965383               0.004254246               0.003288863               0.000000000               0.000000000               0.000000000               0.000000000               0.001020112               0.010467446              -0.000412868              -0.000925887               0.003797743               0.002871856               0.000000000               0.000000000               0.000000000               0.000000000               0.000716609               0.009569072              -0.000656715              -0.000927403               0.003498793               0.002571390               0.000000000               0.000000000               0.000000000               0.000000000               0.000478450               0.008904020              -0.000735648              -0.000933581               0.003279171               0.002345589               0.000000000               0.000000000               0.000000000               0.000000000               0.000299097               0.008379061              -0.000745862              -0.000935219               0.003104732               0.002169513               0.000000000               0.000000000               0.000000000               0.000000000               0.000170606               0.007941239              -0.000726577              -0.000928676               0.002956612               0.002027936               0.000000000               0.000000000               0.000000000               0.000000000               0.000081096               0.007558463              -0.000689145              -0.000914395               0.002824261               0.001909866               0.000000000               0.000000000               0.000000000               0.000000000               0.000014133               0.007211413              -0.000641725              -0.000896125               0.002702489               0.001806364               0.000000000               0.000000000               0.000000000               0.000000000              -0.000030096               0.006894896              -0.000591992              -0.000873146               0.002589324               0.001716178               0.000000000               0.000000000               0.000000000               0.000000000              -0.000050012               0.006603365              -0.000540520              -0.000844173               0.002482490               0.001638317               0.000000000               0.000000000               0.000000000               0.000000000              -0.000051849               0.006331447              -0.000478414              -0.000810872               0.002380752               0.001569880               0.000000000               0.000000000               0.000000000               0.000000000              -0.000041711               0.006084307              -0.000397977              -0.000776178               0.002286808               0.001510630               0.000000000               0.000000000               0.000000000               0.000000000              -0.000025251               0.005874674              -0.000293016              -0.000743802               0.002206139               0.001462337               0.000000000               0.000000000               0.000000000               0.000000000              -0.000012751               0.005712285              -0.000159879              -0.000718815               0.002143681               0.001424866               0.000000000               0.000000000               0.000000000               0.000000000              -0.000012551               0.005630799              -0.000088648              -0.000708555               0.002113099               0.001404544               0.000000000               0.000000000               0.000000000               0.000000000               0.002408945               0.014945194               0.004005047              -0.000964796               0.005303279               0.004338483               0.000000000               0.000000000               0.000000000               0.000000000               0.001263623               0.012658691               0.002140688              -0.001108476               0.004589013               0.003480537               0.000000000               0.000000000               0.000000000               0.000000000               0.000642875               0.011183176               0.000347898              -0.001156816               0.004113293               0.002956477               0.000000000               0.000000000               0.000000000               0.000000000               0.000218151               0.010194017              -0.000310511              -0.001192442               0.003795453               0.002603010               0.000000000               0.000000000               0.000000000               0.000000000              -0.000048696               0.009455683              -0.000551297              -0.001200218               0.003551936               0.002351717               0.000000000               0.000000000               0.000000000               0.000000000              -0.000201369               0.008867293              -0.000627381              -0.001183922               0.003350376               0.002166453               0.000000000               0.000000000               0.000000000               0.000000000              -0.000279315               0.008374883              -0.000638196              -0.001151601               0.003175467               0.002023866               0.000000000               0.000000000               0.000000000               0.000000000              -0.000313549               0.007947614              -0.000619989              -0.001111030               0.003019521               0.001908491               0.000000000               0.000000000               0.000000000               0.000000000              -0.000317378               0.007570108              -0.000583611              -0.001065278               0.002878437               0.001813159               0.000000000               0.000000000               0.000000000               0.000000000              -0.000300883               0.007231442              -0.000538045              -0.001016759               0.002749376               0.001732617               0.000000000               0.000000000               0.000000000               0.000000000              -0.000263633               0.006928343              -0.000490013              -0.000964903               0.002631059               0.001666156               0.000000000               0.000000000               0.000000000               0.000000000              -0.000212889               0.006659803              -0.000438603              -0.000912307               0.002524014               0.001611708               0.000000000               0.000000000               0.000000000               0.000000000              -0.000156873               0.006426045              -0.000375114              -0.000862081               0.002429354               0.001567273               0.000000000               0.000000000               0.000000000               0.000000000              -0.000098255               0.006234784              -0.000299396              -0.000816192               0.002350304               0.001534113               0.000000000               0.000000000               0.000000000               0.000000000              -0.000049789               0.006096267              -0.000211677              -0.000780702               0.002292303               0.001511601               0.000000000               0.000000000               0.000000000               0.000000000              -0.000019402               0.006015291              -0.000109261              -0.000759185               0.002258139               0.001498953               0.000000000               0.000000000               0.000000000               0.000000000              -0.000007829               0.005989985              -0.000054791              -0.000751682               0.002247202               0.001495520               0.000000000               0.000000000               0.000000000               0.000000000               0.002316784               0.012567860               0.004077777              -0.000702190               0.004423307               0.003721117               0.000000000               0.000000000               0.000000000               0.000000000               0.000855152               0.011183781               0.002264323              -0.001077289               0.004086986               0.003009696               0.000000000               0.000000000               0.000000000               0.000000000              -0.000113999               0.010504752               0.000531847              -0.001355840               0.003953496               0.002597655               0.000000000               0.000000000               0.000000000               0.000000000              -0.000546739               0.009837853              -0.000076570              -0.001434755               0.003757503               0.002322748               0.000000000               0.000000000               0.000000000               0.000000000              -0.000727485               0.009242923              -0.000298341              -0.001428169               0.003557000               0.002128831               0.000000000               0.000000000               0.000000000               0.000000000              -0.000774983               0.008724350              -0.000374737              -0.001381159               0.003368474               0.001987315               0.000000000               0.000000000               0.000000000               0.000000000              -0.000747452               0.008271156              -0.000392890              -0.001314186               0.003195086               0.001880901               0.000000000               0.000000000               0.000000000               0.000000000              -0.000682436               0.007869274              -0.000386182              -0.001239570               0.003036255               0.001796685               0.000000000               0.000000000               0.000000000               0.000000000              -0.000596172               0.007508845              -0.000362730              -0.001162167               0.002890312               0.001728145               0.000000000               0.000000000               0.000000000               0.000000000              -0.000500609               0.007185607              -0.000327808              -0.001085927               0.002757154               0.001671227               0.000000000               0.000000000               0.000000000               0.000000000              -0.000398594               0.006900926              -0.000290355              -0.001012086               0.002637648               0.001625562               0.000000000               0.000000000               0.000000000               0.000000000              -0.000296720               0.006652969              -0.000250050              -0.000942889               0.002531930               0.001589042               0.000000000               0.000000000               0.000000000               0.000000000              -0.000206659               0.006441374              -0.000202852              -0.000882667               0.002441326               0.001558659               0.000000000               0.000000000               0.000000000               0.000000000              -0.000128177               0.006277167              -0.000154413              -0.000832710               0.002369938               0.001537228               0.000000000               0.000000000               0.000000000               0.000000000              -0.000067166               0.006160061              -0.000105666              -0.000795193               0.002318397               0.001523204               0.000000000               0.000000000               0.000000000               0.000000000              -0.000026460               0.006077503              -0.000052232              -0.000769608               0.002282350               0.001512742               0.000000000               0.000000000               0.000000000               0.000000000              -0.000020151               0.006029777              -0.000030098              -0.000761277               0.002263665               0.001502388               0.000000000               0.000000000               0.000000000               0.000000000               0.001968668               0.010211902               0.003813922              -0.000538240               0.003583346               0.003045106               0.000000000               0.000000000               0.000000000               0.000000000               0.000354964               0.009736205               0.002267003              -0.001083913               0.003606673               0.002522760               0.000000000               0.000000000               0.000000000               0.000000000              -0.000823062               0.009797029               0.000775987              -0.001533273               0.003776735               0.002243462               0.000000000               0.000000000               0.000000000               0.000000000              -0.001178556               0.009401587               0.000253545              -0.001617153               0.003672882               0.002055729               0.000000000               0.000000000               0.000000000               0.000000000              -0.001230985               0.008929141               0.000044598              -0.001577758               0.003502270               0.001924512               0.000000000               0.000000000               0.000000000               0.000000000              -0.001159425               0.008481229              -0.000045365              -0.001494934               0.003325359               0.001830425               0.000000000               0.000000000               0.000000000               0.000000000              -0.001030196               0.008076039              -0.000083723              -0.001395825               0.003157261               0.001761436               0.000000000               0.000000000               0.000000000               0.000000000              -0.000879125               0.007708775              -0.000096694              -0.001293266               0.003000654               0.001707389               0.000000000               0.000000000               0.000000000               0.000000000              -0.000724848               0.007375659              -0.000091518              -0.001193773               0.002856453               0.001662680               0.000000000               0.000000000               0.000000000               0.000000000              -0.000571556               0.007072503              -0.000078214              -0.001098394               0.002723609               0.001625215               0.000000000               0.000000000               0.000000000               0.000000000              -0.000428390               0.006795392              -0.000065977              -0.001010068               0.002601797               0.001591729               0.000000000               0.000000000               0.000000000               0.000000000              -0.000309816               0.006545594              -0.000054339              -0.000934378               0.002493302               0.001558924               0.000000000               0.000000000               0.000000000               0.000000000              -0.000217753               0.006332594              -0.000044664              -0.000873230               0.002401920               0.001528690               0.000000000               0.000000000               0.000000000               0.000000000              -0.000145293               0.006162120              -0.000041946              -0.000824748               0.002328935               0.001504188               0.000000000               0.000000000               0.000000000               0.000000000              -0.000089896               0.006023267              -0.000040159              -0.000786617               0.002269941               0.001483324               0.000000000               0.000000000               0.000000000               0.000000000              -0.000042784               0.005901508              -0.000026411              -0.000753731               0.002218393               0.001464662               0.000000000               0.000000000               0.000000000               0.000000000              -0.000040165               0.005814461              -0.000027141              -0.000741868               0.002185424               0.001443556               0.000000000               0.000000000               0.000000000               0.000000000               0.001386705               0.008026459               0.003299651              -0.000483295               0.002836557               0.002353262               0.000000000               0.000000000               0.000000000               0.000000000              -0.000209008               0.008404293               0.002189483              -0.001128913               0.003177707               0.002048794               0.000000000               0.000000000               0.000000000               0.000000000              -0.001414842               0.009075695               0.001071178              -0.001665024               0.003580209               0.001915186               0.000000000               0.000000000               0.000000000               0.000000000              -0.001621418               0.008898464               0.000629253              -0.001720335               0.003539570               0.001819235               0.000000000               0.000000000               0.000000000               0.000000000              -0.001528607               0.008541284               0.000412713              -0.001640884               0.003394028               0.001753143               0.000000000               0.000000000               0.000000000               0.000000000              -0.001342867               0.008165415               0.000294941              -0.001524248               0.003229861               0.001705612               0.000000000               0.000000000               0.000000000               0.000000000              -0.001126570               0.007810148               0.000227515              -0.001398729               0.003069600               0.001670871               0.000000000               0.000000000               0.000000000               0.000000000              -0.000910188               0.007481618               0.000185583              -0.001276520               0.002919354               0.001642835               0.000000000               0.000000000               0.000000000               0.000000000              -0.000706155               0.007169191               0.000159543              -0.001160954               0.002776691               0.001615737               0.000000000               0.000000000               0.000000000               0.000000000              -0.000528220               0.006862335               0.000140512              -0.001055872               0.002639379               0.001583508               0.000000000               0.000000000               0.000000000               0.000000000              -0.000386853               0.006572192               0.000118252              -0.000966592               0.002512906               0.001546314               0.000000000               0.000000000               0.000000000               0.000000000              -0.000281821               0.006312383               0.000087736              -0.000894729               0.002402349               0.001507621               0.000000000               0.000000000               0.000000000               0.000000000              -0.000209038               0.006091608               0.000051149              -0.000839838               0.002310462               0.001470624               0.000000000               0.000000000               0.000000000               0.000000000              -0.000155075               0.005904211               0.000011905              -0.000796178               0.002233443               0.001437265               0.000000000               0.000000000               0.000000000               0.000000000              -0.000106767               0.005736579              -0.000019482              -0.000757108               0.002164543               0.001407435               0.000000000               0.000000000               0.000000000               0.000000000              -0.000057903               0.005586091              -0.000025196              -0.000719973               0.002102003               0.001382030               0.000000000               0.000000000               0.000000000               0.000000000              -0.000047228               0.005490834              -0.000029244              -0.000704063               0.002064947               0.001360884               0.000000000               0.000000000               0.000000000               0.000000000               0.000671222               0.006170874               0.002634089              -0.000519652               0.002230154               0.001710502               0.000000000               0.000000000               0.000000000               0.000000000              -0.000751848               0.007215375               0.002079748              -0.001183863               0.002799721               0.001615858               0.000000000               0.000000000               0.000000000               0.000000000              -0.001851041               0.008375273               0.001415152              -0.001741046               0.003372078               0.001631032               0.000000000               0.000000000               0.000000000               0.000000000              -0.001895868               0.008424791               0.001024346              -0.001764045               0.003396251               0.001632206               0.000000000               0.000000000               0.000000000               0.000000000              -0.001686866               0.008197218               0.000783023              -0.001657223               0.003284786               0.001627563               0.000000000               0.000000000               0.000000000               0.000000000              -0.001417567               0.007902172               0.000626351              -0.001519356               0.003140483               0.001621127               0.000000000               0.000000000               0.000000000               0.000000000              -0.001135609               0.007608528               0.000519639              -0.001376916               0.002995123               0.001618207               0.000000000               0.000000000               0.000000000               0.000000000              -0.000871441               0.007315851               0.000442646              -0.001241269               0.002852349               0.001611080               0.000000000               0.000000000               0.000000000               0.000000000              -0.000640688               0.007000249               0.000383996              -0.001115286               0.002705155               0.001589869               0.000000000               0.000000000               0.000000000               0.000000000              -0.000448585               0.006681192               0.000330124              -0.001003366               0.002561497               0.001558131               0.000000000               0.000000000               0.000000000               0.000000000              -0.000305433               0.006381492               0.000268623              -0.000912222               0.002431217               0.001518995               0.000000000               0.000000000               0.000000000               0.000000000              -0.000214992               0.006114575               0.000197177              -0.000844942               0.002319819               0.001474877               0.000000000               0.000000000               0.000000000               0.000000000              -0.000167744               0.005883463               0.000122631              -0.000798335               0.002227246               0.001428911               0.000000000               0.000000000               0.000000000               0.000000000              -0.000146575               0.005674696               0.000055257              -0.000764301               0.002146313               0.001382013               0.000000000               0.000000000               0.000000000               0.000000000              -0.000134788               0.005476802               0.000005979              -0.000735144               0.002070631               0.001335487               0.000000000               0.000000000               0.000000000               0.000000000              -0.000120216               0.005295507              -0.000014437              -0.000707017               0.002000824               0.001293806               0.000000000               0.000000000               0.000000000               0.000000000              -0.000106448               0.005205127              -0.000017072              -0.000690557               0.001965211               0.001274653               0.000000000               0.000000000               0.000000000               0.000000000              -0.000200468               0.004439414               0.001916498              -0.000630102               0.001689823               0.001059721               0.000000000               0.000000000               0.000000000               0.000000000              -0.001192593               0.005849400               0.001951225              -0.001178395               0.002342578               0.001164183               0.000000000               0.000000000               0.000000000               0.000000000              -0.002076885               0.007362258               0.001785827              -0.001699110               0.003020431               0.001321321               0.000000000               0.000000000               0.000000000               0.000000000              -0.002036823               0.007731411               0.001459796              -0.001730231               0.003153855               0.001423624               0.000000000               0.000000000               0.000000000               0.000000000              -0.001777963               0.007719742               0.001192290              -0.001631700               0.003117122               0.001485421               0.000000000               0.000000000               0.000000000               0.000000000              -0.001477573               0.007580527               0.000991692              -0.001501652               0.003027367               0.001525715               0.000000000               0.000000000               0.000000000               0.000000000              -0.001177953               0.007403066               0.000838538              -0.001367112               0.002923368               0.001556256               0.000000000               0.000000000               0.000000000               0.000000000              -0.000905088               0.007182638               0.000721289              -0.001237235               0.002806600               0.001569366               0.000000000               0.000000000               0.000000000               0.000000000              -0.000668240               0.006913981               0.000623934              -0.001114835               0.002676249               0.001561414               0.000000000               0.000000000               0.000000000               0.000000000              -0.000470050               0.006620474               0.000532979              -0.001003826               0.002541411               0.001537586               0.000000000               0.000000000               0.000000000               0.000000000              -0.000321365               0.006318243               0.000438510              -0.000910290               0.002409490               0.001499200               0.000000000               0.000000000               0.000000000               0.000000000              -0.000225018               0.006038401               0.000335537              -0.000839180               0.002292507               0.001453327               0.000000000               0.000000000               0.000000000               0.000000000              -0.000180756               0.005787846               0.000232296              -0.000791262               0.002193017               0.001401755               0.000000000               0.000000000               0.000000000               0.000000000              -0.000173148               0.005566758               0.000137557              -0.000760773               0.002109158               0.001348385               0.000000000               0.000000000               0.000000000               0.000000000              -0.000189798               0.005362362               0.000062149              -0.000741468               0.002034592               0.001293124               0.000000000               0.000000000               0.000000000               0.000000000              -0.000218263               0.005170443               0.000017272              -0.000728152               0.001966181               0.001238029               0.000000000               0.000000000               0.000000000               0.000000000              -0.000228203               0.005081439               0.000003835              -0.000720754               0.001934047               0.001213293               0.000000000               0.000000000               0.000000000               0.000000000              -0.001355870               0.002867668               0.001191449              -0.000866908               0.001244849               0.000377940               0.000000000               0.000000000               0.000000000               0.000000000              -0.001696301               0.004486878               0.001754741              -0.001196970               0.001894600               0.000697630               0.000000000               0.000000000               0.000000000               0.000000000              -0.002218105               0.006199900               0.002075341              -0.001606774               0.002602203               0.000995430               0.000000000               0.000000000               0.000000000               0.000000000              -0.002105773               0.006869763               0.001876443              -0.001648382               0.002839358               0.001190976               0.000000000               0.000000000               0.000000000               0.000000000              -0.001824443               0.007104988               0.001612064              -0.001572286               0.002892401               0.001320114               0.000000000               0.000000000               0.000000000               0.000000000              -0.001516860               0.007152552               0.001379995              -0.001462888               0.002871789               0.001408901               0.000000000               0.000000000               0.000000000               0.000000000              -0.001215649               0.007116326               0.001187600              -0.001345406               0.002820553               0.001475147               0.000000000               0.000000000               0.000000000               0.000000000              -0.000941936               0.007000160               0.001033122              -0.001228243               0.002742778               0.001514534               0.000000000               0.000000000               0.000000000               0.000000000              -0.000703634               0.006813648               0.000903973              -0.001115566               0.002643049               0.001527482               0.000000000               0.000000000               0.000000000               0.000000000              -0.000495856               0.006583183               0.000782596              -0.001008841               0.002530653               0.001521811               0.000000000               0.000000000               0.000000000               0.000000000              -0.000327202               0.006322418               0.000660934              -0.000913001               0.002411785               0.001498784               0.000000000               0.000000000               0.000000000               0.000000000              -0.000202858               0.006055831               0.000535676              -0.000833049               0.002296273               0.001463224               0.000000000               0.000000000               0.000000000               0.000000000              -0.000133189               0.005794441               0.000410382              -0.000774249               0.002189544               0.001415295               0.000000000               0.000000000               0.000000000               0.000000000              -0.000117351               0.005557430               0.000288281              -0.000738683               0.002098686               0.001360003               0.000000000               0.000000000               0.000000000               0.000000000              -0.000149648               0.005347904               0.000172335              -0.000724604               0.002024152               0.001299547               0.000000000               0.000000000               0.000000000               0.000000000              -0.000226127               0.005164149               0.000074908              -0.000730315               0.001964804               0.001234489               0.000000000               0.000000000               0.000000000               0.000000000              -0.000291077               0.005068115               0.000025429              -0.000742666               0.001936910               0.001194244               0.000000000               0.000000000               0.000000000               0.000000000              -0.002713061               0.001568284               0.000515305              -0.001213431               0.000927232              -0.000286199               0.000000000               0.000000000               0.000000000               0.000000000              -0.002311631               0.003204496               0.001468465              -0.001267421               0.001490628               0.000223206               0.000000000               0.000000000               0.000000000               0.000000000              -0.002312396               0.004901935               0.002181243              -0.001479888               0.002127257               0.000647369               0.000000000               0.000000000               0.000000000               0.000000000              -0.002067604               0.005784106               0.002146969              -0.001498362               0.002427469               0.000929107               0.000000000               0.000000000               0.000000000               0.000000000              -0.001757823               0.006249805               0.001930935              -0.001440406               0.002563382               0.001122976               0.000000000               0.000000000               0.000000000               0.000000000              -0.001449546               0.006498156               0.001698751              -0.001355847               0.002617979               0.001262132               0.000000000               0.000000000               0.000000000               0.000000000              -0.001157880               0.006621222               0.001492193              -0.001261855               0.002627670               0.001365815               0.000000000               0.000000000               0.000000000               0.000000000              -0.000893622               0.006634736               0.001317176              -0.001164448               0.002599705               0.001435258               0.000000000               0.000000000               0.000000000               0.000000000              -0.000656696               0.006560963               0.001166323              -0.001066379               0.002542425               0.001476046               0.000000000               0.000000000               0.000000000               0.000000000              -0.000448379               0.006420123               0.001024153              -0.000970655               0.002463571               0.001492916               0.000000000               0.000000000               0.000000000               0.000000000              -0.000270893               0.006236073               0.000882660              -0.000881092               0.002372367               0.001491275               0.000000000               0.000000000               0.000000000               0.000000000              -0.000123178               0.006023458               0.000742353              -0.000799122               0.002274173               0.001475051               0.000000000               0.000000000               0.000000000               0.000000000              -0.000014037               0.005785588               0.000602702              -0.000728461               0.002171330               0.001442869               0.000000000               0.000000000               0.000000000               0.000000000               0.000041633               0.005550992               0.000458727              -0.000678260               0.002076399               0.001398139               0.000000000               0.000000000               0.000000000               0.000000000               0.000034096               0.005343080               0.000306046              -0.000655098               0.001999375               0.001344277               0.000000000               0.000000000               0.000000000               0.000000000              -0.000042693               0.005165318               0.000150769              -0.000661673               0.001942313               0.001280640               0.000000000               0.000000000               0.000000000               0.000000000              -0.000128462               0.005063059               0.000063587              -0.000681054               0.001914688               0.001233634               0.000000000               0.000000000               0.000000000               0.000000000              -0.004170666               0.000601625              -0.000024020              -0.001639201               0.000746937              -0.000892264               0.000000000               0.000000000               0.000000000               0.000000000              -0.003000645               0.002067070               0.001129756              -0.001383623               0.001150223              -0.000233401               0.000000000               0.000000000               0.000000000               0.000000000              -0.002387529               0.003574860               0.002080062              -0.001342179               0.001639000               0.000296821               0.000000000               0.000000000               0.000000000               0.000000000              -0.001947574               0.004564137               0.002196100              -0.001300855               0.001954981               0.000654126               0.000000000               0.000000000               0.000000000               0.000000000              -0.001584526               0.005209857               0.002057421              -0.001245427               0.002151743               0.000906316               0.000000000               0.000000000               0.000000000               0.000000000              -0.001268400               0.005645253               0.001858322              -0.001181305               0.002275500               0.001094195               0.000000000               0.000000000               0.000000000               0.000000000              -0.000986527               0.005932900               0.001664269              -0.001111558               0.002348133               0.001236574               0.000000000               0.000000000               0.000000000               0.000000000              -0.000737981               0.006081966               0.001493370              -0.001036987               0.002372964               0.001335977               0.000000000               0.000000000               0.000000000               0.000000000              -0.000512833               0.006131689               0.001339747              -0.000958771               0.002363466               0.001404694               0.000000000               0.000000000               0.000000000               0.000000000              -0.000307425               0.006107345               0.001188522              -0.000878701               0.002328661               0.001449961               0.000000000               0.000000000               0.000000000               0.000000000              -0.000124225               0.006021609               0.001040665              -0.000799284               0.002273611               0.001474327               0.000000000               0.000000000               0.000000000               0.000000000               0.000042590               0.005888743               0.000900808              -0.000720120               0.002202935               0.001482814               0.000000000               0.000000000               0.000000000               0.000000000               0.000192183               0.005717776               0.000759718              -0.000642652               0.002120123               0.001477472               0.000000000               0.000000000               0.000000000               0.000000000               0.000307821               0.005525890               0.000602684              -0.000575302               0.002033712               0.001458410               0.000000000               0.000000000               0.000000000               0.000000000               0.000370627               0.005337363               0.000423425              -0.000528184               0.001955164               0.001426980               0.000000000               0.000000000               0.000000000               0.000000000               0.000361918               0.005164326               0.000222567              -0.000509820               0.001891365               0.001381545               0.000000000               0.000000000               0.000000000               0.000000000               0.000318390               0.005068816               0.000111363              -0.000514204               0.001860990               0.001346785               0.000000000               0.000000000               0.000000000               0.000000000              -0.005577694              -0.000037786              -0.000350071              -0.002086910               0.000683037              -0.001403873               0.000000000               0.000000000               0.000000000               0.000000000              -0.003694694               0.001142286               0.000785126              -0.001528294               0.000890187              -0.000638107               0.000000000               0.000000000               0.000000000               0.000000000              -0.002454990               0.002349781               0.001772869              -0.001214342               0.001188032              -0.000026310               0.000000000               0.000000000               0.000000000               0.000000000              -0.001779614               0.003348845               0.001981416              -0.001085959               0.001478256               0.000392297               0.000000000               0.000000000               0.000000000               0.000000000              -0.001335664               0.004109597               0.001919901              -0.001014572               0.001708042               0.000693470               0.000000000               0.000000000               0.000000000               0.000000000              -0.000998456               0.004690091               0.001774997              -0.000960681               0.001883574               0.000922893               0.000000000               0.000000000               0.000000000               0.000000000              -0.000718069               0.005117195               0.001618041              -0.000908924               0.002008689               0.001099765               0.000000000               0.000000000               0.000000000               0.000000000              -0.000481530               0.005395141               0.001470907              -0.000854965               0.002083350               0.001228385               0.000000000               0.000000000               0.000000000               0.000000000              -0.000275233               0.005565756               0.001332242              -0.000798930               0.002121543               0.001322613               0.000000000               0.000000000               0.000000000               0.000000000              -0.000082529               0.005655901               0.001192545              -0.000737935               0.002131260               0.001393325               0.000000000               0.000000000               0.000000000               0.000000000               0.000107320               0.005676752               0.001058795              -0.000669348               0.002115347               0.001446000               0.000000000               0.000000000               0.000000000               0.000000000               0.000295137               0.005639034               0.000936143              -0.000594202               0.002077726               0.001483525               0.000000000               0.000000000               0.000000000               0.000000000               0.000478372               0.005558521               0.000808030              -0.000515425               0.002024630               0.001509205               0.000000000               0.000000000               0.000000000               0.000000000               0.000654507               0.005444762               0.000657858              -0.000435154               0.001959954               0.001524799               0.000000000               0.000000000               0.000000000               0.000000000               0.000812382               0.005305838               0.000475404              -0.000358586               0.001888123               0.001529538               0.000000000               0.000000000               0.000000000               0.000000000               0.000931983               0.005154859               0.000255652              -0.000294863               0.001816557               0.001521694               0.000000000               0.000000000               0.000000000               0.000000000               0.000993407               0.005080982               0.000139007              -0.000262595               0.001781175               0.001518581               0.000000000               0.000000000               0.000000000               0.000000000              -0.006763098              -0.000402447              -0.000425321              -0.002485854               0.000694464              -0.001791390               0.000000000               0.000000000               0.000000000               0.000000000              -0.004300498               0.000473973               0.000476476              -0.001671932               0.000715297              -0.000956635               0.000000000               0.000000000               0.000000000               0.000000000              -0.002515935               0.001360480               0.001289150              -0.001113534               0.000824665              -0.000288869               0.000000000               0.000000000               0.000000000               0.000000000              -0.001607103               0.002305769               0.001504977              -0.000890883               0.001065542               0.000174659               0.000000000               0.000000000               0.000000000               0.000000000              -0.001069160               0.003120958               0.001494740              -0.000791053               0.001303993               0.000512939               0.000000000               0.000000000               0.000000000               0.000000000              -0.000700288               0.003792744               0.001407177              -0.000736700               0.001509802               0.000773102               0.000000000               0.000000000               0.000000000               0.000000000              -0.000417811               0.004320633               0.001301350              -0.000696757               0.001672449               0.000975691               0.000000000               0.000000000               0.000000000               0.000000000              -0.000193121               0.004704431               0.001192501              -0.000660473               0.001788285               0.001127812               0.000000000               0.000000000               0.000000000               0.000000000              -0.000001196               0.004977126               0.001085353              -0.000622588               0.001866555               0.001243966               0.000000000               0.000000000               0.000000000               0.000000000               0.000181207               0.005163807               0.000980093              -0.000577522               0.001913759               0.001336237               0.000000000               0.000000000               0.000000000               0.000000000               0.000373269               0.005282037               0.000881143              -0.000520278               0.001934087               0.001413809               0.000000000               0.000000000               0.000000000               0.000000000               0.000573483               0.005339695               0.000787889              -0.000452405               0.001930682               0.001478277               0.000000000               0.000000000               0.000000000               0.000000000               0.000785297               0.005349935               0.000689920              -0.000374255               0.001908045               0.001533790               0.000000000               0.000000000               0.000000000               0.000000000               0.001013969               0.005316874               0.000572690              -0.000284370               0.001867064               0.001582694               0.000000000               0.000000000               0.000000000               0.000000000               0.001259914               0.005241843               0.000421662              -0.000182762               0.001808184               0.001625422               0.000000000               0.000000000               0.000000000               0.000000000               0.001525007               0.005131866               0.000228816              -0.000069606               0.001733807               0.001664201               0.000000000               0.000000000               0.000000000               0.000000000               0.001721786               0.005089575               0.000129216               0.000009472               0.001693351               0.001702823               0.000000000               0.000000000               0.000000000               0.000000000              -0.007555614              -0.000574469              -0.000279487              -0.002761545               0.000729020              -0.002032525               0.000000000               0.000000000               0.000000000               0.000000000              -0.004717981               0.000075841               0.000219228              -0.001778721               0.000618183              -0.001160538               0.000000000               0.000000000               0.000000000               0.000000000              -0.002566860               0.000720259               0.000678252              -0.001052604               0.000590950              -0.000461654               0.000000000               0.000000000               0.000000000               0.000000000              -0.001484393               0.001597440               0.000814176              -0.000756326               0.000784583               0.000028257               0.000000000               0.000000000               0.000000000               0.000000000              -0.000868176               0.002422839               0.000820604              -0.000628420               0.001017078               0.000388658               0.000000000               0.000000000               0.000000000               0.000000000              -0.000465967               0.003144671               0.000780812              -0.000567821               0.001237487               0.000669666               0.000000000               0.000000000               0.000000000               0.000000000              -0.000181198               0.003736544               0.000728777              -0.000535016               0.001423841               0.000888825               0.000000000               0.000000000               0.000000000               0.000000000               0.000034037               0.004186873               0.000671801              -0.000510594               0.001565808               0.001055214               0.000000000               0.000000000               0.000000000               0.000000000               0.000218707               0.004525815               0.000612991              -0.000483711               0.001669827               0.001186116               0.000000000               0.000000000               0.000000000               0.000000000               0.000397651               0.004778523               0.000556880              -0.000448195               0.001742223               0.001294028               0.000000000               0.000000000               0.000000000               0.000000000               0.000587483               0.004966492               0.000503741              -0.000400504               0.001788982               0.001388478               0.000000000               0.000000000               0.000000000               0.000000000               0.000794062               0.005096933               0.000452753              -0.000339343               0.001812075               0.001472732               0.000000000               0.000000000               0.000000000               0.000000000               0.001025422               0.005174710               0.000400809              -0.000262305               0.001812321               0.001550016               0.000000000               0.000000000               0.000000000               0.000000000               0.001290820               0.005201514               0.000334902              -0.000166131               0.001789198               0.001623067               0.000000000               0.000000000               0.000000000               0.000000000               0.001604460               0.005177905               0.000249236              -0.000045566               0.001741140               0.001695574               0.000000000               0.000000000               0.000000000               0.000000000               0.001982818               0.005103633               0.000138472               0.000105601               0.001665994               0.001771595               0.000000000               0.000000000               0.000000000               0.000000000               0.002289394               0.005087910               0.000081872               0.000222532               0.001621776               0.001844307               0.000000000               0.000000000               0.000000000               0.000000000              -0.007832298              -0.000620959              -0.000000000              -0.002859490               0.000746172              -0.002113318               0.000000000               0.000000000               0.000000000               0.000000000              -0.004866594              -0.000052674              -0.000000000              -0.001818387               0.000588567              -0.001229820               0.000000000               0.000000000               0.000000000               0.000000000              -0.002588743               0.000499855               0.000000000              -0.001033259               0.000511035              -0.000522225               0.000000000               0.000000000               0.000000000               0.000000000              -0.001442567               0.001343691               0.000000000              -0.000708922               0.000684199              -0.000024723               0.000000000               0.000000000               0.000000000               0.000000000              -0.000795098               0.002167651               0.000000000              -0.000569117               0.000912249               0.000343132               0.000000000               0.000000000               0.000000000               0.000000000              -0.000377664               0.002906685               0.000000000              -0.000504959               0.001137205               0.000632246               0.000000000               0.000000000               0.000000000               0.000000000              -0.000090044               0.003524041              -0.000000000              -0.000474270               0.001332759               0.000858488               0.000000000               0.000000000               0.000000000               0.000000000               0.000122034               0.003996683               0.000000000              -0.000453821               0.001483488               0.001029667               0.000000000               0.000000000               0.000000000               0.000000000               0.000303172               0.004354778              -0.000000000              -0.000430657               0.001595130               0.001164474               0.000000000               0.000000000               0.000000000               0.000000000               0.000481681               0.004630940              -0.000000000              -0.000398236               0.001676377               0.001278140               0.000000000               0.000000000               0.000000000               0.000000000               0.000669704               0.004844433               0.000000000              -0.000354414               0.001732933               0.001378519               0.000000000               0.000000000               0.000000000               0.000000000               0.000880093               0.005002987              -0.000000000              -0.000295338               0.001766092               0.001470754               0.000000000               0.000000000               0.000000000               0.000000000               0.001117149               0.005106187               0.000000000              -0.000219342               0.001775159               0.001555817               0.000000000               0.000000000               0.000000000               0.000000000               0.001395010               0.005154484               0.000000000              -0.000121182               0.001758538               0.001637356               0.000000000               0.000000000               0.000000000               0.000000000               0.001736836               0.005149946               0.000000000               0.000007570               0.001714108               0.001721678               0.000000000               0.000000000               0.000000000               0.000000000               0.002158088               0.005090262               0.000000000               0.000172999               0.001639071               0.001812070               0.000000000               0.000000000               0.000000000               0.000000000               0.002504840               0.005085525               0.000000000               0.000303621               0.001593951               0.001897573               0.000000000               0.000000000               0.000000000               0.000000000               0.001843742               0.020506541              -0.000000000              -0.001871910               0.007459415               0.005587505               0.000000000               0.000000000               0.000000000               0.000000000               0.001846862               0.016208319               0.000000000              -0.001333463               0.005847207               0.004513743               0.000000000               0.000000000               0.000000000               0.000000000               0.002449085               0.012734731               0.000000000              -0.000673433               0.004469346               0.003795913               0.000000000               0.000000000               0.000000000               0.000000000               0.002381250               0.010793130               0.000000000              -0.000456171               0.003749731               0.003293560               0.000000000               0.000000000               0.000000000               0.000000000               0.002108924               0.009597674               0.000000000              -0.000408862               0.003335480               0.002926618               0.000000000               0.000000000               0.000000000               0.000000000               0.001787866               0.008790243               0.000000000              -0.000428330               0.003072828               0.002644499               0.000000000               0.000000000               0.000000000               0.000000000               0.001477790               0.008199046               0.000000000              -0.000470708               0.002889891               0.002419182               0.000000000               0.000000000               0.000000000               0.000000000               0.001204583               0.007740472               0.000000000              -0.000515839               0.002752078               0.002236239               0.000000000               0.000000000               0.000000000               0.000000000               0.000964917               0.007357477               0.000000000              -0.000557839               0.002638414               0.002080575               0.000000000               0.000000000               0.000000000               0.000000000               0.000756400               0.007015426               0.000000000              -0.000593277               0.002536211               0.001942934               0.000000000               0.000000000               0.000000000               0.000000000               0.000575447               0.006688809               0.000000000              -0.000620307               0.002436350               0.001816043               0.000000000               0.000000000               0.000000000               0.000000000               0.000420063               0.006366026              -0.000000000              -0.000638228               0.002334730               0.001696502               0.000000000               0.000000000               0.000000000               0.000000000               0.000285219               0.006034607              -0.000000000              -0.000647367               0.002227305               0.001579937               0.000000000               0.000000000               0.000000000               0.000000000               0.000174311               0.005681189               0.000000000              -0.000644780               0.002108637               0.001463857               0.000000000               0.000000000               0.000000000               0.000000000               0.000095426               0.005291431               0.000000000              -0.000625642               0.001972340               0.001346698               0.000000000               0.000000000               0.000000000               0.000000000               0.000041893               0.004844035               0.000000000              -0.000589793               0.001811260               0.001221467               0.000000000               0.000000000               0.000000000               0.000000000              -0.000015933               0.004498288               0.000000000              -0.000568260               0.001688834               0.001120575               0.000000000               0.000000000               0.000000000               0.000000000               0.001916558               0.020097412              -0.001416471              -0.001793463               0.007296891               0.005503428               0.000000000               0.000000000               0.000000000               0.000000000               0.001822029               0.015942566              -0.000739947              -0.001309557               0.005750654               0.004441097               0.000000000               0.000000000               0.000000000               0.000000000               0.002320434               0.012621736              -0.000065799              -0.000707552               0.004443054               0.003735502               0.000000000               0.000000000               0.000000000               0.000000000               0.002210765               0.010759664               0.000221318              -0.000515920               0.003758492               0.003242572               0.000000000               0.000000000               0.000000000               0.000000000               0.001925212               0.009601632               0.000340817              -0.000478248               0.003359928               0.002881680               0.000000000               0.000000000               0.000000000               0.000000000               0.001611683               0.008815466               0.000381974              -0.000497551               0.003104310               0.002606759               0.000000000               0.000000000               0.000000000               0.000000000               0.001317810               0.008236058               0.000390626              -0.000535327               0.002923768               0.002388440               0.000000000               0.000000000               0.000000000               0.000000000               0.001060297               0.007780395               0.000383727              -0.000574937               0.002785085               0.002210148               0.000000000               0.000000000               0.000000000               0.000000000               0.000838595               0.007396333               0.000368430              -0.000610067               0.002668775               0.002058708               0.000000000               0.000000000               0.000000000               0.000000000               0.000648769               0.007050417               0.000348598              -0.000638012               0.002562786               0.001924774               0.000000000               0.000000000               0.000000000               0.000000000               0.000488937               0.006722086               0.000327628              -0.000656908               0.002459642               0.001802735               0.000000000               0.000000000               0.000000000               0.000000000               0.000353710               0.006402092               0.000307601              -0.000667619               0.002356549               0.001688930               0.000000000               0.000000000               0.000000000               0.000000000               0.000236041               0.006080696               0.000281430              -0.000671570               0.002250735               0.001579165               0.000000000               0.000000000               0.000000000               0.000000000               0.000141824               0.005744964               0.000242909              -0.000664935               0.002136614               0.001471679               0.000000000               0.000000000               0.000000000               0.000000000               0.000075812               0.005381749               0.000188107              -0.000644288               0.002008661               0.001364373               0.000000000               0.000000000               0.000000000               0.000000000               0.000031510               0.004977835               0.000108652              -0.000610412               0.001862732               0.001252320               0.000000000               0.000000000               0.000000000               0.000000000              -0.000016482               0.004676899               0.000066976              -0.000590792               0.001755881               0.001165090               0.000000000               0.000000000               0.000000000               0.000000000               0.002101744               0.018924897              -0.002640556              -0.001577455               0.006834054               0.005256599               0.000000000               0.000000000               0.000000000               0.000000000               0.001734321               0.015183398              -0.001380013              -0.001247552               0.005476932               0.004229381               0.000000000               0.000000000               0.000000000               0.000000000               0.001941723               0.012295534              -0.000135768              -0.000808793               0.004368068               0.003559275               0.000000000               0.000000000               0.000000000               0.000000000               0.001727318               0.010654348               0.000374543              -0.000684048               0.003779430               0.003095382               0.000000000               0.000000000               0.000000000               0.000000000               0.001423009               0.009604513               0.000581353              -0.000666934               0.003423784               0.002756849               0.000000000               0.000000000               0.000000000               0.000000000               0.001133460               0.008869909               0.000651958              -0.000683690               0.003184503               0.002500814               0.000000000               0.000000000               0.000000000               0.000000000               0.000881285               0.008314925               0.000662941              -0.000708882               0.003007908               0.002299026               0.000000000               0.000000000               0.000000000               0.000000000               0.000671602               0.007866791               0.000647931              -0.000731497               0.002866070               0.002134573               0.000000000               0.000000000               0.000000000               0.000000000               0.000505237               0.007483178               0.000619393              -0.000745932               0.002743012               0.001997080               0.000000000               0.000000000               0.000000000               0.000000000               0.000369563               0.007135122               0.000581939              -0.000753302               0.002629451               0.001876149               0.000000000               0.000000000               0.000000000               0.000000000               0.000259868               0.006810935               0.000541484              -0.000753915               0.002521594               0.001767679               0.000000000               0.000000000               0.000000000               0.000000000               0.000172170               0.006501616               0.000502117              -0.000748136               0.002416562               0.001668426               0.000000000               0.000000000               0.000000000               0.000000000               0.000101811               0.006198696               0.000453868              -0.000736656               0.002311764               0.001575107               0.000000000               0.000000000               0.000000000               0.000000000               0.000051488               0.005899063               0.000384827              -0.000718073               0.002205692               0.001487619               0.000000000               0.000000000               0.000000000               0.000000000               0.000021050               0.005602246               0.000290089              -0.000692385               0.002098192               0.001405806               0.000000000               0.000000000               0.000000000               0.000000000               0.000005690               0.005309372               0.000163287              -0.000661536               0.001990285               0.001328749               0.000000000               0.000000000               0.000000000               0.000000000              -0.000016348               0.005115552               0.000096983              -0.000645573               0.001920358               0.001274785               0.000000000               0.000000000               0.000000000               0.000000000               0.002304749               0.017139197              -0.003527887              -0.001278118               0.006139047               0.004860929               0.000000000               0.000000000               0.000000000               0.000000000               0.001556761               0.014040208              -0.001853600              -0.001171239               0.005070435               0.003899197               0.000000000               0.000000000               0.000000000               0.000000000               0.001358130               0.011797473              -0.000222186              -0.000965383               0.004254246               0.003288863               0.000000000               0.000000000               0.000000000               0.000000000               0.001020112               0.010467446               0.000412868              -0.000925887               0.003797743               0.002871856               0.000000000               0.000000000               0.000000000               0.000000000               0.000716609               0.009569072               0.000656715              -0.000927403               0.003498793               0.002571390               0.000000000               0.000000000               0.000000000               0.000000000               0.000478450               0.008904020               0.000735648              -0.000933581               0.003279171               0.002345589               0.000000000               0.000000000               0.000000000               0.000000000               0.000299097               0.008379061               0.000745862              -0.000935219               0.003104732               0.002169513               0.000000000               0.000000000               0.000000000               0.000000000               0.000170606               0.007941239               0.000726577              -0.000928676               0.002956612               0.002027936               0.000000000               0.000000000               0.000000000               0.000000000               0.000081096               0.007558463               0.000689145              -0.000914395               0.002824261               0.001909866               0.000000000               0.000000000               0.000000000               0.000000000               0.000014133               0.007211413               0.000641725              -0.000896125               0.002702489               0.001806364               0.000000000               0.000000000               0.000000000               0.000000000              -0.000030096               0.006894896               0.000591992              -0.000873146               0.002589324               0.001716178               0.000000000               0.000000000               0.000000000               0.000000000              -0.000050012               0.006603365               0.000540520              -0.000844173               0.002482490               0.001638317               0.000000000               0.000000000               0.000000000               0.000000000              -0.000051849               0.006331447               0.000478414              -0.000810872               0.002380752               0.001569880               0.000000000               0.000000000               0.000000000               0.000000000              -0.000041711               0.006084307               0.000397977              -0.000776178               0.002286808               0.001510630               0.000000000               0.000000000               0.000000000               0.000000000              -0.000025251               0.005874674               0.000293016              -0.000743802               0.002206139               0.001462337               0.000000000               0.000000000               0.000000000               0.000000000              -0.000012751               0.005712285               0.000159879              -0.000718815               0.002143681               0.001424866               0.000000000               0.000000000               0.000000000               0.000000000              -0.000012551               0.005630799               0.000088648              -0.000708555               0.002113099               0.001404544               0.000000000               0.000000000               0.000000000               0.000000000               0.002408945               0.014945194              -0.004005047              -0.000964796               0.005303279               0.004338483               0.000000000               0.000000000               0.000000000               0.000000000               0.001263623               0.012658691              -0.002140688              -0.001108476               0.004589013               0.003480537               0.000000000               0.000000000               0.000000000               0.000000000               0.000642875               0.011183176              -0.000347898              -0.001156816               0.004113293               0.002956477               0.000000000               0.000000000               0.000000000               0.000000000               0.000218151               0.010194017               0.000310511              -0.001192442               0.003795453               0.002603010               0.000000000               0.000000000               0.000000000               0.000000000              -0.000048696               0.009455683               0.000551297              -0.001200218               0.003551936               0.002351717               0.000000000               0.000000000               0.000000000               0.000000000              -0.000201369               0.008867293               0.000627381              -0.001183922               0.003350376               0.002166453               0.000000000               0.000000000               0.000000000               0.000000000              -0.000279315               0.008374883               0.000638196              -0.001151601               0.003175467               0.002023866               0.000000000               0.000000000               0.000000000               0.000000000              -0.000313549               0.007947614               0.000619989              -0.001111030               0.003019521               0.001908491               0.000000000               0.000000000               0.000000000               0.000000000              -0.000317378               0.007570108               0.000583611              -0.001065278               0.002878437               0.001813159               0.000000000               0.000000000               0.000000000               0.000000000              -0.000300883               0.007231442               0.000538045              -0.001016759               0.002749376               0.001732617               0.000000000               0.000000000               0.000000000               0.000000000              -0.000263633               0.006928343               0.000490013              -0.000964903               0.002631059               0.001666156               0.000000000               0.000000000               0.000000000               0.000000000              -0.000212889               0.006659803               0.000438603              -0.000912307               0.002524014               0.001611708               0.000000000               0.000000000               0.000000000               0.000000000              -0.000156873               0.006426045               0.000375114              -0.000862081               0.002429354               0.001567273               0.000000000               0.000000000               0.000000000               0.000000000              -0.000098255               0.006234784               0.000299396              -0.000816192               0.002350304               0.001534113               0.000000000               0.000000000               0.000000000               0.000000000              -0.000049789               0.006096267               0.000211677              -0.000780702               0.002292303               0.001511601               0.000000000               0.000000000               0.000000000               0.000000000              -0.000019402               0.006015291               0.000109261              -0.000759185               0.002258139               0.001498953               0.000000000               0.000000000               0.000000000               0.000000000              -0.000007829               0.005989985               0.000054791              -0.000751682               0.002247202               0.001495520               0.000000000               0.000000000               0.000000000               0.000000000               0.002316784               0.012567860              -0.004077777              -0.000702190               0.004423307               0.003721117               0.000000000               0.000000000               0.000000000               0.000000000               0.000855152               0.011183781              -0.002264323              -0.001077289               0.004086986               0.003009696               0.000000000               0.000000000               0.000000000               0.000000000              -0.000113999               0.010504752              -0.000531847              -0.001355840               0.003953496               0.002597655               0.000000000               0.000000000               0.000000000               0.000000000              -0.000546739               0.009837853               0.000076570              -0.001434755               0.003757503               0.002322748               0.000000000               0.000000000               0.000000000               0.000000000              -0.000727485               0.009242923               0.000298341              -0.001428169               0.003557000               0.002128831               0.000000000               0.000000000               0.000000000               0.000000000              -0.000774983               0.008724350               0.000374737              -0.001381159               0.003368474               0.001987315               0.000000000               0.000000000               0.000000000               0.000000000              -0.000747452               0.008271156               0.000392890              -0.001314186               0.003195086               0.001880901               0.000000000               0.000000000               0.000000000               0.000000000              -0.000682436               0.007869274               0.000386182              -0.001239570               0.003036255               0.001796685               0.000000000               0.000000000               0.000000000               0.000000000              -0.000596172               0.007508845               0.000362730              -0.001162167               0.002890312               0.001728145               0.000000000               0.000000000               0.000000000               0.000000000              -0.000500609               0.007185607               0.000327808              -0.001085927               0.002757154               0.001671227               0.000000000               0.000000000               0.000000000               0.000000000              -0.000398594               0.006900926               0.000290355              -0.001012086               0.002637648               0.001625562               0.000000000               0.000000000               0.000000000               0.000000000              -0.000296720               0.006652969               0.000250050              -0.000942889               0.002531930               0.001589042               0.000000000               0.000000000               0.000000000               0.000000000              -0.000206659               0.006441374               0.000202852              -0.000882667               0.002441326               0.001558659               0.000000000               0.000000000               0.000000000               0.000000000              -0.000128177               0.006277167               0.000154413              -0.000832710               0.002369938               0.001537228               0.000000000               0.000000000               0.000000000               0.000000000              -0.000067166               0.006160061               0.000105666              -0.000795193               0.002318397               0.001523204               0.000000000               0.000000000               0.000000000               0.000000000              -0.000026460               0.006077503               0.000052232              -0.000769608               0.002282350               0.001512742               0.000000000               0.000000000               0.000000000               0.000000000              -0.000020151               0.006029777               0.000030098              -0.000761277               0.002263665               0.001502388               0.000000000               0.000000000               0.000000000               0.000000000               0.001968668               0.010211902              -0.003813922              -0.000538240               0.003583346               0.003045106               0.000000000               0.000000000               0.000000000               0.000000000               0.000354964               0.009736205              -0.002267003              -0.001083913               0.003606673               0.002522760               0.000000000               0.000000000               0.000000000               0.000000000              -0.000823062               0.009797029              -0.000775987              -0.001533273               0.003776735               0.002243462               0.000000000               0.000000000               0.000000000               0.000000000              -0.001178556               0.009401587              -0.000253545              -0.001617153               0.003672882               0.002055729               0.000000000               0.000000000               0.000000000               0.000000000              -0.001230985               0.008929141              -0.000044598              -0.001577758               0.003502270               0.001924512               0.000000000               0.000000000               0.000000000               0.000000000              -0.001159425               0.008481229               0.000045365              -0.001494934               0.003325359               0.001830425               0.000000000               0.000000000               0.000000000               0.000000000              -0.001030196               0.008076039               0.000083723              -0.001395825               0.003157261               0.001761436               0.000000000               0.000000000               0.000000000               0.000000000              -0.000879125               0.007708775               0.000096694              -0.001293266               0.003000654               0.001707389               0.000000000               0.000000000               0.000000000               0.000000000              -0.000724848               0.007375659               0.000091518              -0.001193773               0.002856453               0.001662680               0.000000000               0.000000000               0.000000000               0.000000000              -0.000571556               0.007072503               0.000078214              -0.001098394               0.002723609               0.001625215               0.000000000               0.000000000               0.000000000               0.000000000              -0.000428390               0.006795392               0.000065977              -0.001010068               0.002601797               0.001591729               0.000000000               0.000000000               0.000000000               0.000000000              -0.000309816               0.006545594               0.000054339              -0.000934378               0.002493302               0.001558924               0.000000000               0.000000000               0.000000000               0.000000000              -0.000217753               0.006332594               0.000044664              -0.000873230               0.002401920               0.001528690               0.000000000               0.000000000               0.000000000               0.000000000              -0.000145293               0.006162120               0.000041946              -0.000824748               0.002328935               0.001504188               0.000000000               0.000000000               0.000000000               0.000000000              -0.000089896               0.006023267               0.000040159              -0.000786617               0.002269941               0.001483324               0.000000000               0.000000000               0.000000000               0.000000000              -0.000042784               0.005901508               0.000026411              -0.000753731               0.002218393               0.001464662               0.000000000               0.000000000               0.000000000               0.000000000              -0.000040165               0.005814461               0.000027141              -0.000741868               0.002185424               0.001443556               0.000000000               0.000000000               0.000000000               0.000000000               0.001386705               0.008026459              -0.003299651              -0.000483295               0.002836557               0.002353262               0.000000000               0.000000000               0.000000000               0.000000000              -0.000209008               0.008404293              -0.002189483              -0.001128913               0.003177707               0.002048794               0.000000000               0.000000000               0.000000000               0.000000000              -0.001414842               0.009075695              -0.001071178              -0.001665024               0.003580209               0.001915186               0.000000000               0.000000000               0.000000000               0.000000000              -0.001621418               0.008898464              -0.000629253              -0.001720335               0.003539570               0.001819235               0.000000000               0.000000000               0.000000000               0.000000000              -0.001528607               0.008541284              -0.000412713              -0.001640884               0.003394028               0.001753143               0.000000000               0.000000000               0.000000000               0.000000000              -0.001342867               0.008165415              -0.000294941              -0.001524248               0.003229861               0.001705612               0.000000000               0.000000000               0.000000000               0.000000000              -0.001126570               0.007810148              -0.000227515              -0.001398729               0.003069600               0.001670871               0.000000000               0.000000000               0.000000000               0.000000000              -0.000910188               0.007481618              -0.000185583              -0.001276520               0.002919354               0.001642835               0.000000000               0.000000000               0.000000000               0.000000000              -0.000706155               0.007169191              -0.000159543              -0.001160954               0.002776691               0.001615737               0.000000000               0.000000000               0.000000000               0.000000000              -0.000528220               0.006862335              -0.000140512              -0.001055872               0.002639379               0.001583508               0.000000000               0.000000000               0.000000000               0.000000000              -0.000386853               0.006572192              -0.000118252              -0.000966592               0.002512906               0.001546314               0.000000000               0.000000000               0.000000000               0.000000000              -0.000281821               0.006312383              -0.000087736              -0.000894729               0.002402349               0.001507621               0.000000000               0.000000000               0.000000000               0.000000000              -0.000209038               0.006091608              -0.000051149              -0.000839838               0.002310462               0.001470624               0.000000000               0.000000000               0.000000000               0.000000000              -0.000155075               0.005904211              -0.000011905              -0.000796178               0.002233443               0.001437265               0.000000000               0.000000000               0.000000000               0.000000000              -0.000106767               0.005736579               0.000019482              -0.000757108               0.002164543               0.001407435               0.000000000               0.000000000               0.000000000               0.000000000              -0.000057903               0.005586091               0.000025196              -0.000719973               0.002102003               0.001382030               0.000000000               0.000000000               0.000000000               0.000000000              -0.000047228               0.005490834               0.000029244              -0.000704063               0.002064947               0.001360884               0.000000000               0.000000000               0.000000000               0.000000000               0.000671222               0.006170874              -0.002634089              -0.000519652               0.002230154               0.001710502               0.000000000               0.000000000               0.000000000               0.000000000              -0.000751848               0.007215375              -0.002079748              -0.001183863               0.002799721               0.001615858               0.000000000               0.000000000               0.000000000               0.000000000              -0.001851041               0.008375273              -0.001415152              -0.001741046               0.003372078               0.001631032               0.000000000               0.000000000               0.000000000               0.000000000              -0.001895868               0.008424791              -0.001024346              -0.001764045               0.003396251               0.001632206               0.000000000               0.000000000               0.000000000               0.000000000              -0.001686866               0.008197218              -0.000783023              -0.001657223               0.003284786               0.001627563               0.000000000               0.000000000               0.000000000               0.000000000              -0.001417567               0.007902172              -0.000626351              -0.001519356               0.003140483               0.001621127               0.000000000               0.000000000               0.000000000               0.000000000              -0.001135609               0.007608528              -0.000519639              -0.001376916               0.002995123               0.001618207               0.000000000               0.000000000               0.000000000               0.000000000              -0.000871441               0.007315851              -0.000442646              -0.001241269               0.002852349               0.001611080               0.000000000               0.000000000               0.000000000               0.000000000              -0.000640688               0.007000249              -0.000383996              -0.001115286               0.002705155               0.001589869               0.000000000               0.000000000               0.000000000               0.000000000              -0.000448585               0.006681192              -0.000330124              -0.001003366               0.002561497               0.001558131               0.000000000               0.000000000               0.000000000               0.000000000              -0.000305433               0.006381492              -0.000268623              -0.000912222               0.002431217               0.001518995               0.000000000               0.000000000               0.000000000               0.000000000              -0.000214992               0.006114575              -0.000197177              -0.000844942               0.002319819               0.001474877               0.000000000               0.000000000               0.000000000               0.000000000              -0.000167744               0.005883463              -0.000122631              -0.000798335               0.002227246               0.001428911               0.000000000               0.000000000               0.000000000               0.000000000              -0.000146575               0.005674696              -0.000055257              -0.000764301               0.002146313               0.001382013               0.000000000               0.000000000               0.000000000               0.000000000              -0.000134788               0.005476802              -0.000005979              -0.000735144               0.002070631               0.001335487               0.000000000               0.000000000               0.000000000               0.000000000              -0.000120216               0.005295507               0.000014437              -0.000707017               0.002000824               0.001293806               0.000000000               0.000000000               0.000000000               0.000000000              -0.000106448               0.005205127               0.000017072              -0.000690557               0.001965211               0.001274653               0.000000000               0.000000000               0.000000000               0.000000000              -0.000200468               0.004439414              -0.001916498              -0.000630102               0.001689823               0.001059721               0.000000000               0.000000000               0.000000000               0.000000000              -0.001192593               0.005849400              -0.001951225              -0.001178395               0.002342578               0.001164183               0.000000000               0.000000000               0.000000000               0.000000000              -0.002076885               0.007362258              -0.001785827              -0.001699110               0.003020431               0.001321321               0.000000000               0.000000000               0.000000000               0.000000000              -0.002036823               0.007731411              -0.001459796              -0.001730231               0.003153855               0.001423624               0.000000000               0.000000000               0.000000000               0.000000000              -0.001777963               0.007719742              -0.001192290              -0.001631700               0.003117122               0.001485421               0.000000000               0.000000000               0.000000000               0.000000000              -0.001477573               0.007580527              -0.000991692              -0.001501652               0.003027367               0.001525715               0.000000000               0.000000000               0.000000000               0.000000000              -0.001177953               0.007403066              -0.000838538              -0.001367112               0.002923368               0.001556256               0.000000000               0.000000000               0.000000000               0.000000000              -0.000905088               0.007182638              -0.000721289              -0.001237235               0.002806600               0.001569366               0.000000000               0.000000000               0.000000000               0.000000000              -0.000668240               0.006913981              -0.000623934              -0.001114835               0.002676249               0.001561414               0.000000000               0.000000000               0.000000000               0.000000000              -0.000470050               0.006620474              -0.000532979              -0.001003826               0.002541411               0.001537586               0.000000000               0.000000000               0.000000000               0.000000000              -0.000321365               0.006318243              -0.000438510              -0.000910290               0.002409490               0.001499200               0.000000000               0.000000000               0.000000000               0.000000000              -0.000225018               0.006038401              -0.000335537              -0.000839180               0.002292507               0.001453327               0.000000000               0.000000000               0.000000000               0.000000000              -0.000180756               0.005787846              -0.000232296              -0.000791262               0.002193017               0.001401755               0.000000000               0.000000000               0.000000000               0.000000000              -0.000173148               0.005566758              -0.000137557              -0.000760773               0.002109158               0.001348385               0.000000000               0.000000000               0.000000000               0.000000000              -0.000189798               0.005362362              -0.000062149              -0.000741468               0.002034592               0.001293124               0.000000000               0.000000000               0.000000000               0.000000000              -0.000218263               0.005170443              -0.000017272              -0.000728152               0.001966181               0.001238029               0.000000000               0.000000000               0.000000000               0.000000000              -0.000228203               0.005081439              -0.000003835              -0.000720754               0.001934047               0.001213293               0.000000000               0.000000000               0.000000000               0.000000000              -0.001355870               0.002867668              -0.001191449              -0.000866908               0.001244849               0.000377940               0.000000000               0.000000000               0.000000000               0.000000000              -0.001696301               0.004486878              -0.001754741              -0.001196970               0.001894600               0.000697630               0.000000000               0.000000000               0.000000000               0.000000000              -0.002218105               0.006199900              -0.002075341              -0.001606774               0.002602203               0.000995430               0.000000000               0.000000000               0.000000000               0.000000000              -0.002105773               0.006869763              -0.001876443              -0.001648382               0.002839358               0.001190976               0.000000000               0.000000000               0.000000000               0.000000000              -0.001824443               0.007104988              -0.001612064              -0.001572286               0.002892401               0.001320114               0.000000000               0.000000000               0.000000000               0.000000000              -0.001516860               0.007152552              -0.001379995              -0.001462888               0.002871789               0.001408901               0.000000000               0.000000000               0.000000000               0.000000000              -0.001215649               0.007116326              -0.001187600              -0.001345406               0.002820553               0.001475147               0.000000000               0.000000000               0.000000000               0.000000000              -0.000941936               0.007000160              -0.001033122              -0.001228243               0.002742778               0.001514534               0.000000000               0.000000000               0.000000000               0.000000000              -0.000703634               0.006813648              -0.000903973              -0.001115566               0.002643049               0.001527482               0.000000000               0.000000000               0.000000000               0.000000000              -0.000495856               0.006583183              -0.000782596              -0.001008841               0.002530653               0.001521811               0.000000000               0.000000000               0.000000000               0.000000000              -0.000327202               0.006322418              -0.000660934              -0.000913001               0.002411785               0.001498784               0.000000000               0.000000000               0.000000000               0.000000000              -0.000202858               0.006055831              -0.000535676              -0.000833049               0.002296273               0.001463224               0.000000000               0.000000000               0.000000000               0.000000000              -0.000133189               0.005794441              -0.000410382              -0.000774249               0.002189544               0.001415295               0.000000000               0.000000000               0.000000000               0.000000000              -0.000117351               0.005557430              -0.000288281              -0.000738683               0.002098686               0.001360003               0.000000000               0.000000000               0.000000000               0.000000000              -0.000149648               0.005347904              -0.000172335              -0.000724604               0.002024152               0.001299547               0.000000000               0.000000000               0.000000000               0.000000000              -0.000226127               0.005164149              -0.000074908              -0.000730315               0.001964804               0.001234489               0.000000000               0.000000000               0.000000000               0.000000000              -0.000291077               0.005068115              -0.000025429              -0.000742666               0.001936910               0.001194244               0.000000000               0.000000000               0.000000000               0.000000000              -0.002713061               0.001568284              -0.000515305              -0.001213431               0.000927232              -0.000286199               0.000000000               0.000000000               0.000000000               0.000000000              -0.002311631               0.003204496              -0.001468465              -0.001267421               0.001490628               0.000223206               0.000000000               0.000000000               0.000000000               0.000000000              -0.002312396               0.004901935              -0.002181243              -0.001479888               0.002127257               0.000647369               0.000000000               0.000000000               0.000000000               0.000000000              -0.002067604               0.005784106              -0.002146969              -0.001498362               0.002427469               0.000929107               0.000000000               0.000000000               0.000000000               0.000000000              -0.001757823               0.006249805              -0.001930935              -0.001440406               0.002563382               0.001122976               0.000000000               0.000000000               0.000000000               0.000000000              -0.001449546               0.006498156              -0.001698751              -0.001355847               0.002617979               0.001262132               0.000000000               0.000000000               0.000000000               0.000000000              -0.001157880               0.006621222              -0.001492193              -0.001261855               0.002627670               0.001365815               0.000000000               0.000000000               0.000000000               0.000000000              -0.000893622               0.006634736              -0.001317176              -0.001164448               0.002599705               0.001435258               0.000000000               0.000000000               0.000000000               0.000000000              -0.000656696               0.006560963              -0.001166323              -0.001066379               0.002542425               0.001476046               0.000000000               0.000000000               0.000000000               0.000000000              -0.000448379               0.006420123              -0.001024153              -0.000970655               0.002463571               0.001492916               0.000000000               0.000000000               0.000000000               0.000000000              -0.000270893               0.006236073              -0.000882660              -0.000881092               0.002372367               0.001491275               0.000000000               0.000000000               0.000000000               0.000000000              -0.000123178               0.006023458              -0.000742353              -0.000799122               0.002274173               0.001475051               0.000000000               0.000000000               0.000000000               0.000000000              -0.000014037               0.005785588              -0.000602702              -0.000728461               0.002171330               0.001442869               0.000000000               0.000000000               0.000000000               0.000000000               0.000041633               0.005550992              -0.000458727              -0.000678260               0.002076399               0.001398139               0.000000000               0.000000000               0.000000000               0.000000000               0.000034096               0.005343080              -0.000306046              -0.000655098               0.001999375               0.001344277               0.000000000               0.000000000               0.000000000               0.000000000              -0.000042693               0.005165318              -0.000150769              -0.000661673               0.001942313               0.001280640               0.000000000               0.000000000               0.000000000               0.000000000              -0.000128462               0.005063059              -0.000063587              -0.000681054               0.001914688               0.001233634               0.000000000               0.000000000               0.000000000               0.000000000              -0.004170666               0.000601625               0.000024020              -0.001639201               0.000746937              -0.000892264               0.000000000               0.000000000               0.000000000               0.000000000              -0.003000645               0.002067070              -0.001129756              -0.001383623               0.001150223              -0.000233401               0.000000000               0.000000000               0.000000000               0.000000000              -0.002387529               0.003574860              -0.002080062              -0.001342179               0.001639000               0.000296821               0.000000000               0.000000000               0.000000000               0.000000000              -0.001947574               0.004564137              -0.002196100              -0.001300855               0.001954981               0.000654126               0.000000000               0.000000000               0.000000000               0.000000000              -0.001584526               0.005209857              -0.002057421              -0.001245427               0.002151743               0.000906316               0.000000000               0.000000000               0.000000000               0.000000000              -0.001268400               0.005645253              -0.001858322              -0.001181305               0.002275500               0.001094195               0.000000000               0.000000000               0.000000000               0.000000000              -0.000986527               0.005932900              -0.001664269              -0.001111558               0.002348133               0.001236574               0.000000000               0.000000000               0.000000000               0.000000000              -0.000737981               0.006081966              -0.001493370              -0.001036987               0.002372964               0.001335977               0.000000000               0.000000000               0.000000000               0.000000000              -0.000512833               0.006131689              -0.001339747              -0.000958771               0.002363466               0.001404694               0.000000000               0.000000000               0.000000000               0.000000000              -0.000307425               0.006107345              -0.001188522              -0.000878701               0.002328661               0.001449961               0.000000000               0.000000000               0.000000000               0.000000000              -0.000124225               0.006021609              -0.001040665              -0.000799284               0.002273611               0.001474327               0.000000000               0.000000000               0.000000000               0.000000000               0.000042590               0.005888743              -0.000900808              -0.000720120               0.002202935               0.001482814               0.000000000               0.000000000               0.000000000               0.000000000               0.000192183               0.005717776              -0.000759718              -0.000642652               0.002120123               0.001477472               0.000000000               0.000000000               0.000000000               0.000000000               0.000307821               0.005525890              -0.000602684              -0.000575302               0.002033712               0.001458410               0.000000000               0.000000000               0.000000000               0.000000000               0.000370627               0.005337363              -0.000423425              -0.000528184               0.001955164               0.001426980               0.000000000               0.000000000               0.000000000               0.000000000               0.000361918               0.005164326              -0.000222567              -0.000509820               0.001891365               0.001381545               0.000000000               0.000000000               0.000000000               0.000000000               0.000318390               0.005068816              -0.000111363              -0.000514204               0.001860990               0.001346785               0.000000000               0.000000000               0.000000000               0.000000000              -0.005577694              -0.000037786               0.000350071              -0.002086910               0.000683037              -0.001403873               0.000000000               0.000000000               0.000000000               0.000000000              -0.003694694               0.001142286              -0.000785126              -0.001528294               0.000890187              -0.000638107               0.000000000               0.000000000               0.000000000               0.000000000              -0.002454990               0.002349781              -0.001772869              -0.001214342               0.001188032              -0.000026310               0.000000000               0.000000000               0.000000000               0.000000000              -0.001779614               0.003348845              -0.001981416              -0.001085959               0.001478256               0.000392297               0.000000000               0.000000000               0.000000000               0.000000000              -0.001335664               0.004109597              -0.001919901              -0.001014572               0.001708042               0.000693470               0.000000000               0.000000000               0.000000000               0.000000000              -0.000998456               0.004690091              -0.001774997              -0.000960681               0.001883574               0.000922893               0.000000000               0.000000000               0.000000000               0.000000000              -0.000718069               0.005117195              -0.001618041              -0.000908924               0.002008689               0.001099765               0.000000000               0.000000000               0.000000000               0.000000000              -0.000481530               0.005395141              -0.001470907              -0.000854965               0.002083350               0.001228385               0.000000000               0.000000000               0.000000000               0.000000000              -0.000275233               0.005565756              -0.001332242              -0.000798930               0.002121543               0.001322613               0.000000000               0.000000000               0.000000000               0.000000000              -0.000082529               0.005655901              -0.001192545              -0.000737935               0.002131260               0.001393325               0.000000000               0.000000000               0.000000000               0.000000000               0.000107320               0.005676752              -0.001058795              -0.000669348               0.002115347               0.001446000               0.000000000               0.000000000               0.000000000               0.000000000               0.000295137               0.005639034              -0.000936143              -0.000594202               0.002077726               0.001483525               0.000000000               0.000000000               0.000000000               0.000000000               0.000478372               0.005558521              -0.000808030              -0.000515425               0.002024630               0.001509205               0.000000000               0.000000000               0.000000000               0.000000000               0.000654507               0.005444762              -0.000657858              -0.000435154               0.001959954               0.001524799               0.000000000               0.000000000               0.000000000               0.000000000               0.000812382               0.005305838              -0.000475404              -0.000358586               0.001888123               0.001529538               0.000000000               0.000000000               0.000000000               0.000000000               0.000931983               0.005154859              -0.000255652              -0.000294863               0.001816557               0.001521694               0.000000000               0.000000000               0.000000000               0.000000000               0.000993407               0.005080982              -0.000139007              -0.000262595               0.001781175               0.001518581               0.000000000               0.000000000               0.000000000               0.000000000              -0.006763098              -0.000402447               0.000425321              -0.002485854               0.000694464              -0.001791390               0.000000000               0.000000000               0.000000000               0.000000000              -0.004300498               0.000473973              -0.000476476              -0.001671932               0.000715297              -0.000956635               0.000000000               0.000000000               0.000000000               0.000000000              -0.002515935               0.001360480              -0.001289150              -0.001113534               0.000824665              -0.000288869               0.000000000               0.000000000               0.000000000               0.000000000              -0.001607103               0.002305769              -0.001504977              -0.000890883               0.001065542               0.000174659               0.000000000               0.000000000               0.000000000               0.000000000              -0.001069160               0.003120958              -0.001494740              -0.000791053               0.001303993               0.000512939               0.000000000               0.000000000               0.000000000               0.000000000              -0.000700288               0.003792744              -0.001407177              -0.000736700               0.001509802               0.000773102               0.000000000               0.000000000               0.000000000               0.000000000              -0.000417811               0.004320633              -0.001301350              -0.000696757               0.001672449               0.000975691               0.000000000               0.000000000               0.000000000               0.000000000              -0.000193121               0.004704431              -0.001192501              -0.000660473               0.001788285               0.001127812               0.000000000               0.000000000               0.000000000               0.000000000              -0.000001196               0.004977126              -0.001085353              -0.000622588               0.001866555               0.001243966               0.000000000               0.000000000               0.000000000               0.000000000               0.000181207               0.005163807              -0.000980093              -0.000577522               0.001913759               0.001336237               0.000000000               0.000000000               0.000000000               0.000000000               0.000373269               0.005282037              -0.000881143              -0.000520278               0.001934087               0.001413809               0.000000000               0.000000000               0.000000000               0.000000000               0.000573483               0.005339695              -0.000787889              -0.000452405               0.001930682               0.001478277               0.000000000               0.000000000               0.000000000               0.000000000               0.000785297               0.005349935              -0.000689920              -0.000374255               0.001908045               0.001533790               0.000000000               0.000000000               0.000000000               0.000000000               0.001013969               0.005316874              -0.000572690              -0.000284370               0.001867064               0.001582694               0.000000000               0.000000000               0.000000000               0.000000000               0.001259914               0.005241843              -0.000421662              -0.000182762               0.001808184               0.001625422               0.000000000               0.000000000               0.000000000               0.000000000               0.001525007               0.005131866              -0.000228816              -0.000069606               0.001733807               0.001664201               0.000000000               0.000000000               0.000000000               0.000000000               0.001721786               0.005089575              -0.000129216               0.000009472               0.001693351               0.001702823               0.000000000               0.000000000               0.000000000               0.000000000              -0.007555614              -0.000574469               0.000279487              -0.002761545               0.000729020              -0.002032525               0.000000000               0.000000000               0.000000000               0.000000000              -0.004717981               0.000075841              -0.000219228              -0.001778721               0.000618183              -0.001160538               0.000000000               0.000000000               0.000000000               0.000000000              -0.002566860               0.000720259              -0.000678252              -0.001052604               0.000590950              -0.000461654               0.000000000               0.000000000               0.000000000               0.000000000              -0.001484393               0.001597440              -0.000814176              -0.000756326               0.000784583               0.000028257               0.000000000               0.000000000               0.000000000               0.000000000              -0.000868176               0.002422839              -0.000820604              -0.000628420               0.001017078               0.000388658               0.000000000               0.000000000               0.000000000               0.000000000              -0.000465967               0.003144671              -0.000780812              -0.000567821               0.001237487               0.000669666               0.000000000               0.000000000               0.000000000               0.000000000              -0.000181198               0.003736544              -0.000728777              -0.000535016               0.001423841               0.000888825               0.000000000               0.000000000               0.000000000               0.000000000               0.000034037               0.004186873              -0.000671801              -0.000510594               0.001565808               0.001055214               0.000000000               0.000000000               0.000000000               0.000000000               0.000218707               0.004525815              -0.000612991              -0.000483711               0.001669827               0.001186116               0.000000000               0.000000000               0.000000000               0.000000000               0.000397651               0.004778523              -0.000556880              -0.000448195               0.001742223               0.001294028               0.000000000               0.000000000               0.000000000               0.000000000               0.000587483               0.004966492              -0.000503741              -0.000400504               0.001788982               0.001388478               0.000000000               0.000000000               0.000000000               0.000000000               0.000794062               0.005096933              -0.000452753              -0.000339343               0.001812075               0.001472732               0.000000000               0.000000000               0.000000000               0.000000000               0.001025422               0.005174710              -0.000400809              -0.000262305               0.001812321               0.001550016               0.000000000               0.000000000               0.000000000               0.000000000               0.001290820               0.005201514              -0.000334902              -0.000166131               0.001789198               0.001623067               0.000000000               0.000000000               0.000000000               0.000000000               0.001604460               0.005177905              -0.000249236              -0.000045566               0.001741140               0.001695574               0.000000000               0.000000000               0.000000000               0.000000000               0.001982818               0.005103633              -0.000138472               0.000105601               0.001665994               0.001771595               0.000000000               0.000000000               0.000000000               0.000000000               0.002289394               0.005087910              -0.000081872               0.000222532               0.001621776               0.001844307               0.000000000               0.000000000               0.000000000               0.000000000               0.000000000               0.000000000               0.000000000               0.000000000               0.000000000               0.000000000               0.000000000               0.000000000               0.000000000               0.000000000               0.000000000               0.000000000               0.000000000               0.000000000               0.000000000               0.000000000               0.000000000               0.000000000               0.000000000               0.000000000               0.000000000               0.000000000               0.000000000               0.000000000               0.000000000               0.000000000               0.000000000               0.000000000               0.000000000               0.000000000               0.000000000               0.000000000               0.000000000               0.000000000               0.000000000               0.000000000               0.000000000               0.000000000               0.000000000               0.000000000               0.000000000               0.000000000               0.000000000               0.000000000               0.000000000               0.000000000               0.000000000               0.000000000               0.000000000               0.000000000               0.000000000               0.000000000               0.000000000               0.000000000               0.000000000               0.000000000               0.000000000               0.000000000               0.000000000               0.000000000               0.000000000               0.000000000               0.000000000               0.000000000               0.000000000               0.000000000               0.000000000               0.000000000               0.000000000               0.000000000               0.000000000               0.000000000               0.000000000               0.000000000               0.000000000               0.000000000               0.000000000               0.000000000               0.000000000               0.000000000               0.000000000               0.000000000               0.000000000               0.000000000               0.000000000               0.000000000               0.000000000               0.000000000               0.000000000               0.000000000               0.000000000               0.000000000               0.000000000               0.000000000               0.000000000               0.000000000               0.000000000               0.000000000               0.000000000               0.000000000               0.000000000               0.000000000               0.000000000               0.000000000               0.000000000               0.000000000               0.000000000               0.000000000               0.000000000               0.000000000               0.000000000               0.000000000               0.000000000               0.000000000               0.000000000               0.000000000               0.000000000               0.000000000               0.000000000               0.000000000               0.000000000               0.000000000               0.000000000               0.000000000               0.000000000               0.000000000               0.000000000               0.000000000               0.000000000               0.000000000               0.000000000               0.000000000               0.000000000               0.000000000               0.000000000               0.000000000               0.000000000               0.000000000               0.000000000               0.000000000               0.000000000               0.000000000               0.000000000               0.000000000               0.000000000               0.000000000               0.000000000               0.000000000               0.000000000               0.000000000               0.000000000               0.000000000               0.000000000               0.000000000               0.000000000               0.000000000               0.000000000               0.000000000               0.000000000               0.000000000               0.000000000               0.000000000               0.000000000               0.000000000               0.000000000               0.000000000               0.000000000               0.000000000               0.000000000               0.000000000               0.000000000               0.000000000               0.000000000               0.000000000               0.000000000               0.000000000               0.000000000               0.000000000               0.000000000               0.000000000               0.000000000               0.000000000               0.000000000               0.000000000               0.000000000               0.000000000               0.000000000               0.000000000               0.000000000               0.000000000               0.000000000               0.000000000               0.000000000               0.000000000               0.000000000               0.000000000               0.000000000               0.000000000               0.000000000               0.000000000               0.000000000               0.000000000               0.000000000               0.000000000               0.000000000               0.000000000               0.000000000               0.000000000               0.000000000               0.000000000               0.000000000               0.000000000               0.000000000               0.000000000               0.000000000               0.000000000               0.000000000               0.000000000               0.000000000               0.000000000               0.000000000               0.000000000               0.000000000               0.000000000               0.000000000               0.000000000               0.000000000               0.000000000               0.000000000               0.000000000               0.000000000               0.000000000               0.000000000               0.000000000               0.000000000               0.000000000               0.000000000               0.000000000               0.000000000               0.000000000               0.000000000               0.000000000               0.000000000               0.000000000               0.000000000               0.000000000               0.000000000               0.000000000               0.000000000               0.000000000               0.000000000               0.000000000               0.000000000               0.000000000               0.000000000               0.000000000               0.000000000               0.000000000               0.000000000               0.000000000               0.000000000               0.000000000               0.000000000               0.000000000               0.000000000               0.000000000               0.000000000               0.000000000               0.000000000               0.000000000               0.000000000               0.000000000               0.000000000               0.000000000               0.000000000               0.000000000               0.000000000               0.000000000               0.000000000               0.000000000               0.000000000               0.000000000               0.000000000               0.000000000               0.000000000               0.000000000               0.000000000               0.000000000               0.000000000               0.000000000               0.000000000               0.000000000               0.000000000               0.000000000               0.000000000               0.000000000               0.000000000               0.000000000               0.000000000               0.000000000               0.000000000               0.000000000               0.000000000               0.000000000               0.000000000               0.000000000               0.000000000               0.000000000               0.000000000               0.000000000               0.000000000               0.000000000               0.000000000               0.000000000               0.000000000               0.000000000               0.000000000               0.000000000               0.000000000               0.000000000               0.000000000               0.000000000               0.000000000               0.000000000               0.000000000               0.000000000               0.000000000               0.000000000               0.000000000               0.000000000               0.000000000               0.000000000               0.000000000               0.000000000               0.000000000               0.000000000               0.000000000               0.000000000               0.000000000               0.000000000               0.001916558               0.020097412               0.001416471              -0.001793463               0.007296891               0.005503428               0.000000000               0.000000000               0.000000000               0.000000000               0.001822029               0.015942566               0.000739947              -0.001309557               0.005750654               0.004441097               0.000000000               0.000000000               0.000000000               0.000000000               0.002320434               0.012621736               0.000065799              -0.000707552               0.004443054               0.003735502               0.000000000               0.000000000               0.000000000               0.000000000               0.002210765               0.010759664              -0.000221318              -0.000515920               0.003758492               0.003242572               0.000000000               0.000000000               0.000000000               0.000000000               0.001925212               0.009601632              -0.000340817              -0.000478248               0.003359928               0.002881680               0.000000000               0.000000000               0.000000000               0.000000000               0.001611683               0.008815466              -0.000381974              -0.000497551               0.003104310               0.002606759               0.000000000               0.000000000               0.000000000               0.000000000               0.001317810               0.008236058              -0.000390626              -0.000535327               0.002923768               0.002388440               0.000000000               0.000000000               0.000000000               0.000000000               0.001060297               0.007780395              -0.000383727              -0.000574937               0.002785085               0.002210148               0.000000000               0.000000000               0.000000000               0.000000000               0.000838595               0.007396333              -0.000368430              -0.000610067               0.002668775               0.002058708               0.000000000               0.000000000               0.000000000               0.000000000               0.000648769               0.007050417              -0.000348598              -0.000638012               0.002562786               0.001924774               0.000000000               0.000000000               0.000000000               0.000000000               0.000488937               0.006722086              -0.000327628              -0.000656908               0.002459642               0.001802735               0.000000000               0.000000000               0.000000000               0.000000000               0.000353710               0.006402092              -0.000307601              -0.000667619               0.002356549               0.001688930               0.000000000               0.000000000               0.000000000               0.000000000               0.000236041               0.006080696              -0.000281430              -0.000671570               0.002250735               0.001579165               0.000000000               0.000000000               0.000000000               0.000000000               0.000141824               0.005744964              -0.000242909              -0.000664935               0.002136614               0.001471679               0.000000000               0.000000000               0.000000000               0.000000000               0.000075812               0.005381749              -0.000188107              -0.000644288               0.002008661               0.001364373               0.000000000               0.000000000               0.000000000               0.000000000               0.000031510               0.004977835              -0.000108652              -0.000610412               0.001862732               0.001252320               0.000000000               0.000000000               0.000000000               0.000000000              -0.000016482               0.004676899              -0.000066976              -0.000590792               0.001755881               0.001165090               0.000000000               0.000000000               0.000000000               0.000000000               0.002101744               0.018924897               0.002640556              -0.001577455               0.006834054               0.005256599               0.000000000               0.000000000               0.000000000               0.000000000               0.001734321               0.015183398               0.001380013              -0.001247552               0.005476932               0.004229381               0.000000000               0.000000000               0.000000000               0.000000000               0.001941723               0.012295534               0.000135768              -0.000808793               0.004368068               0.003559275               0.000000000               0.000000000               0.000000000               0.000000000               0.001727318               0.010654348              -0.000374543              -0.000684048               0.003779430               0.003095382               0.000000000               0.000000000               0.000000000               0.000000000               0.001423009               0.009604513              -0.000581353              -0.000666934               0.003423784               0.002756849               0.000000000               0.000000000               0.000000000               0.000000000               0.001133460               0.008869909              -0.000651958              -0.000683690               0.003184503               0.002500814               0.000000000               0.000000000               0.000000000               0.000000000               0.000881285               0.008314925              -0.000662941              -0.000708882               0.003007908               0.002299026               0.000000000               0.000000000               0.000000000               0.000000000               0.000671602               0.007866791              -0.000647931              -0.000731497               0.002866070               0.002134573               0.000000000               0.000000000               0.000000000               0.000000000               0.000505237               0.007483178              -0.000619393              -0.000745932               0.002743012               0.001997080               0.000000000               0.000000000               0.000000000               0.000000000               0.000369563               0.007135122              -0.000581939              -0.000753302               0.002629451               0.001876149               0.000000000               0.000000000               0.000000000               0.000000000               0.000259868               0.006810935              -0.000541484              -0.000753915               0.002521594               0.001767679               0.000000000               0.000000000               0.000000000               0.000000000               0.000172170               0.006501616              -0.000502117              -0.000748136               0.002416562               0.001668426               0.000000000               0.000000000               0.000000000               0.000000000               0.000101811               0.006198696              -0.000453868              -0.000736656               0.002311764               0.001575107               0.000000000               0.000000000               0.000000000               0.000000000               0.000051488               0.005899063              -0.000384827              -0.000718073               0.002205692               0.001487619               0.000000000               0.000000000               0.000000000               0.000000000               0.000021050               0.005602246              -0.000290089              -0.000692385               0.002098192               0.001405806               0.000000000               0.000000000               0.000000000               0.000000000               0.000005690               0.005309372              -0.000163287              -0.000661536               0.001990285               0.001328749               0.000000000               0.000000000               0.000000000               0.000000000              -0.000016348               0.005115552              -0.000096983              -0.000645573               0.001920358               0.001274785               0.000000000               0.000000000               0.000000000               0.000000000               0.002304749               0.017139197               0.003527887              -0.001278118               0.006139047               0.004860929               0.000000000               0.000000000               0.000000000               0.000000000               0.001556761               0.014040208               0.001853600              -0.001171239               0.005070435               0.003899197               0.000000000               0.000000000               0.000000000               0.000000000               0.001358130               0.011797473               0.000222186              -0.000965383               0.004254246               0.003288863               0.000000000               0.000000000               0.000000000               0.000000000               0.001020112               0.010467446              -0.000412868              -0.000925887               0.003797743               0.002871856               0.000000000               0.000000000               0.000000000               0.000000000               0.000716609               0.009569072              -0.000656715              -0.000927403               0.003498793               0.002571390               0.000000000               0.000000000               0.000000000               0.000000000               0.000478450               0.008904020              -0.000735648              -0.000933581               0.003279171               0.002345589               0.000000000               0.000000000               0.000000000               0.000000000               0.000299097               0.008379061              -0.000745862              -0.000935219               0.003104732               0.002169513               0.000000000               0.000000000               0.000000000               0.000000000               0.000170606               0.007941239              -0.000726577              -0.000928676               0.002956612               0.002027936               0.000000000               0.000000000               0.000000000               0.000000000               0.000081096               0.007558463              -0.000689145              -0.000914395               0.002824261               0.001909866               0.000000000               0.000000000               0.000000000               0.000000000               0.000014133               0.007211413              -0.000641725              -0.000896125               0.002702489               0.001806364               0.000000000               0.000000000               0.000000000               0.000000000              -0.000030096               0.006894896              -0.000591992              -0.000873146               0.002589324               0.001716178               0.000000000               0.000000000               0.000000000               0.000000000              -0.000050012               0.006603365              -0.000540520              -0.000844173               0.002482490               0.001638317               0.000000000               0.000000000               0.000000000               0.000000000              -0.000051849               0.006331447              -0.000478414              -0.000810872               0.002380752               0.001569880               0.000000000               0.000000000               0.000000000               0.000000000              -0.000041711               0.006084307              -0.000397977              -0.000776178               0.002286808               0.001510630               0.000000000               0.000000000               0.000000000               0.000000000              -0.000025251               0.005874674              -0.000293016              -0.000743802               0.002206139               0.001462337               0.000000000               0.000000000               0.000000000               0.000000000              -0.000012751               0.005712285              -0.000159879              -0.000718815               0.002143681               0.001424866               0.000000000               0.000000000               0.000000000               0.000000000              -0.000012551               0.005630799              -0.000088648              -0.000708555               0.002113099               0.001404544               0.000000000               0.000000000               0.000000000               0.000000000               0.002408945               0.014945194               0.004005047              -0.000964796               0.005303279               0.004338483               0.000000000               0.000000000               0.000000000               0.000000000               0.001263623               0.012658691               0.002140688              -0.001108476               0.004589013               0.003480537               0.000000000               0.000000000               0.000000000               0.000000000               0.000642875               0.011183176               0.000347898              -0.001156816               0.004113293               0.002956477               0.000000000               0.000000000               0.000000000               0.000000000               0.000218151               0.010194017              -0.000310511              -0.001192442               0.003795453               0.002603010               0.000000000               0.000000000               0.000000000               0.000000000              -0.000048696               0.009455683              -0.000551297              -0.001200218               0.003551936               0.002351717               0.000000000               0.000000000               0.000000000               0.000000000              -0.000201369               0.008867293              -0.000627381              -0.001183922               0.003350376               0.002166453               0.000000000               0.000000000               0.000000000               0.000000000              -0.000279315               0.008374883              -0.000638196              -0.001151601               0.003175467               0.002023866               0.000000000               0.000000000               0.000000000               0.000000000              -0.000313549               0.007947614              -0.000619989              -0.001111030               0.003019521               0.001908491               0.000000000               0.000000000               0.000000000               0.000000000              -0.000317378               0.007570108              -0.000583611              -0.001065278               0.002878437               0.001813159               0.000000000               0.000000000               0.000000000               0.000000000              -0.000300883               0.007231442              -0.000538045              -0.001016759               0.002749376               0.001732617               0.000000000               0.000000000               0.000000000               0.000000000              -0.000263633               0.006928343              -0.000490013              -0.000964903               0.002631059               0.001666156               0.000000000               0.000000000               0.000000000               0.000000000              -0.000212889               0.006659803              -0.000438603              -0.000912307               0.002524014               0.001611708               0.000000000               0.000000000               0.000000000               0.000000000              -0.000156873               0.006426045              -0.000375114              -0.000862081               0.002429354               0.001567273               0.000000000               0.000000000               0.000000000               0.000000000              -0.000098255               0.006234784              -0.000299396              -0.000816192               0.002350304               0.001534113               0.000000000               0.000000000               0.000000000               0.000000000              -0.000049789               0.006096267              -0.000211677              -0.000780702               0.002292303               0.001511601               0.000000000               0.000000000               0.000000000               0.000000000              -0.000019402               0.006015291              -0.000109261              -0.000759185               0.002258139               0.001498953               0.000000000               0.000000000               0.000000000               0.000000000              -0.000007829               0.005989985              -0.000054791              -0.000751682               0.002247202               0.001495520               0.000000000               0.000000000               0.000000000               0.000000000               0.002316784               0.012567860               0.004077777              -0.000702190               0.004423307               0.003721117               0.000000000               0.000000000               0.000000000               0.000000000               0.000855152               0.011183781               0.002264323              -0.001077289               0.004086986               0.003009696               0.000000000               0.000000000               0.000000000               0.000000000              -0.000113999               0.010504752               0.000531847              -0.001355840               0.003953496               0.002597655               0.000000000               0.000000000               0.000000000               0.000000000              -0.000546739               0.009837853              -0.000076570              -0.001434755               0.003757503               0.002322748               0.000000000               0.000000000               0.000000000               0.000000000              -0.000727485               0.009242923              -0.000298341              -0.001428169               0.003557000               0.002128831               0.000000000               0.000000000               0.000000000               0.000000000              -0.000774983               0.008724350              -0.000374737              -0.001381159               0.003368474               0.001987315               0.000000000               0.000000000               0.000000000               0.000000000              -0.000747452               0.008271156              -0.000392890              -0.001314186               0.003195086               0.001880901               0.000000000               0.000000000               0.000000000               0.000000000              -0.000682436               0.007869274              -0.000386182              -0.001239570               0.003036255               0.001796685               0.000000000               0.000000000               0.000000000               0.000000000              -0.000596172               0.007508845              -0.000362730              -0.001162167               0.002890312               0.001728145               0.000000000               0.000000000               0.000000000               0.000000000              -0.000500609               0.007185607              -0.000327808              -0.001085927               0.002757154               0.001671227               0.000000000               0.000000000               0.000000000               0.000000000              -0.000398594               0.006900926              -0.000290355              -0.001012086               0.002637648               0.001625562               0.000000000               0.000000000               0.000000000               0.000000000              -0.000296720               0.006652969              -0.000250050              -0.000942889               0.002531930               0.001589042               0.000000000               0.000000000               0.000000000               0.000000000              -0.000206659               0.006441374              -0.000202852              -0.000882667               0.002441326               0.001558659               0.000000000               0.000000000               0.000000000               0.000000000              -0.000128177               0.006277167              -0.000154413              -0.000832710               0.002369938               0.001537228               0.000000000               0.000000000               0.000000000               0.000000000              -0.000067166               0.006160061              -0.000105666              -0.000795193               0.002318397               0.001523204               0.000000000               0.000000000               0.000000000               0.000000000              -0.000026460               0.006077503              -0.000052232              -0.000769608               0.002282350               0.001512742               0.000000000               0.000000000               0.000000000               0.000000000              -0.000020151               0.006029777              -0.000030098              -0.000761277               0.002263665               0.001502388               0.000000000               0.000000000               0.000000000               0.000000000               0.001968668               0.010211902               0.003813922              -0.000538240               0.003583346               0.003045106               0.000000000               0.000000000               0.000000000               0.000000000               0.000354964               0.009736205               0.002267003              -0.001083913               0.003606673               0.002522760               0.000000000               0.000000000               0.000000000               0.000000000              -0.000823062               0.009797029               0.000775987              -0.001533273               0.003776735               0.002243462               0.000000000               0.000000000               0.000000000               0.000000000              -0.001178556               0.009401587               0.000253545              -0.001617153               0.003672882               0.002055729               0.000000000               0.000000000               0.000000000               0.000000000              -0.001230985               0.008929141               0.000044598              -0.001577758               0.003502270               0.001924512               0.000000000               0.000000000               0.000000000               0.000000000              -0.001159425               0.008481229              -0.000045365              -0.001494934               0.003325359               0.001830425               0.000000000               0.000000000               0.000000000               0.000000000              -0.001030196               0.008076039              -0.000083723              -0.001395825               0.003157261               0.001761436               0.000000000               0.000000000               0.000000000               0.000000000              -0.000879125               0.007708775              -0.000096694              -0.001293266               0.003000654               0.001707389               0.000000000               0.000000000               0.000000000               0.000000000              -0.000724848               0.007375659              -0.000091518              -0.001193773               0.002856453               0.001662680               0.000000000               0.000000000               0.000000000               0.000000000              -0.000571556               0.007072503              -0.000078214              -0.001098394               0.002723609               0.001625215               0.000000000               0.000000000               0.000000000               0.000000000              -0.000428390               0.006795392              -0.000065977              -0.001010068               0.002601797               0.001591729               0.000000000               0.000000000               0.000000000               0.000000000              -0.000309816               0.006545594              -0.000054339              -0.000934378               0.002493302               0.001558924               0.000000000               0.000000000               0.000000000               0.000000000              -0.000217753               0.006332594              -0.000044664              -0.000873230               0.002401920               0.001528690               0.000000000               0.000000000               0.000000000               0.000000000              -0.000145293               0.006162120              -0.000041946              -0.000824748               0.002328935               0.001504188               0.000000000               0.000000000               0.000000000               0.000000000              -0.000089896               0.006023267              -0.000040159              -0.000786617               0.002269941               0.001483324               0.000000000               0.000000000               0.000000000               0.000000000              -0.000042784               0.005901508              -0.000026411              -0.000753731               0.002218393               0.001464662               0.000000000               0.000000000               0.000000000               0.000000000              -0.000040165               0.005814461              -0.000027141              -0.000741868               0.002185424               0.001443556               0.000000000               0.000000000               0.000000000               0.000000000               0.001386705               0.008026459               0.003299651              -0.000483295               0.002836557               0.002353262               0.000000000               0.000000000               0.000000000               0.000000000              -0.000209008               0.008404293               0.002189483              -0.001128913               0.003177707               0.002048794               0.000000000               0.000000000               0.000000000               0.000000000              -0.001414842               0.009075695               0.001071178              -0.001665024               0.003580209               0.001915186               0.000000000               0.000000000               0.000000000               0.000000000              -0.001621418               0.008898464               0.000629253              -0.001720335               0.003539570               0.001819235               0.000000000               0.000000000               0.000000000               0.000000000              -0.001528607               0.008541284               0.000412713              -0.001640884               0.003394028               0.001753143               0.000000000               0.000000000               0.000000000               0.000000000              -0.001342867               0.008165415               0.000294941              -0.001524248               0.003229861               0.001705612               0.000000000               0.000000000               0.000000000               0.000000000              -0.001126570               0.007810148               0.000227515              -0.001398729               0.003069600               0.001670871               0.000000000               0.000000000               0.000000000               0.000000000              -0.000910188               0.007481618               0.000185583              -0.001276520               0.002919354               0.001642835               0.000000000               0.000000000               0.000000000               0.000000000              -0.000706155               0.007169191               0.000159543              -0.001160954               0.002776691               0.001615737               0.000000000               0.000000000               0.000000000               0.000000000              -0.000528220               0.006862335               0.000140512              -0.001055872               0.002639379               0.001583508               0.000000000               0.000000000               0.000000000               0.000000000              -0.000386853               0.006572192               0.000118252              -0.000966592               0.002512906               0.001546314               0.000000000               0.000000000               0.000000000               0.000000000              -0.000281821               0.006312383               0.000087736              -0.000894729               0.002402349               0.001507621               0.000000000               0.000000000               0.000000000               0.000000000              -0.000209038               0.006091608               0.000051149              -0.000839838               0.002310462               0.001470624               0.000000000               0.000000000               0.000000000               0.000000000              -0.000155075               0.005904211               0.000011905              -0.000796178               0.002233443               0.001437265               0.000000000               0.000000000               0.000000000               0.000000000              -0.000106767               0.005736579              -0.000019482              -0.000757108               0.002164543               0.001407435               0.000000000               0.000000000               0.000000000               0.000000000              -0.000057903               0.005586091              -0.000025196              -0.000719973               0.002102003               0.001382030               0.000000000               0.000000000               0.000000000               0.000000000              -0.000047228               0.005490834              -0.000029244              -0.000704063               0.002064947               0.001360884               0.000000000               0.000000000               0.000000000               0.000000000               0.000671222               0.006170874               0.002634089              -0.000519652               0.002230154               0.001710502               0.000000000               0.000000000               0.000000000               0.000000000              -0.000751848               0.007215375               0.002079748              -0.001183863               0.002799721               0.001615858               0.000000000               0.000000000               0.000000000               0.000000000              -0.001851041               0.008375273               0.001415152              -0.001741046               0.003372078               0.001631032               0.000000000               0.000000000               0.000000000               0.000000000              -0.001895868               0.008424791               0.001024346              -0.001764045               0.003396251               0.001632206               0.000000000               0.000000000               0.000000000               0.000000000              -0.001686866               0.008197218               0.000783023              -0.001657223               0.003284786               0.001627563               0.000000000               0.000000000               0.000000000               0.000000000              -0.001417567               0.007902172               0.000626351              -0.001519356               0.003140483               0.001621127               0.000000000               0.000000000               0.000000000               0.000000000              -0.001135609               0.007608528               0.000519639              -0.001376916               0.002995123               0.001618207               0.000000000               0.000000000               0.000000000               0.000000000              -0.000871441               0.007315851               0.000442646              -0.001241269               0.002852349               0.001611080               0.000000000               0.000000000               0.000000000               0.000000000              -0.000640688               0.007000249               0.000383996              -0.001115286               0.002705155               0.001589869               0.000000000               0.000000000               0.000000000               0.000000000              -0.000448585               0.006681192               0.000330124              -0.001003366               0.002561497               0.001558131               0.000000000               0.000000000               0.000000000               0.000000000              -0.000305433               0.006381492               0.000268623              -0.000912222               0.002431217               0.001518995               0.000000000               0.000000000               0.000000000               0.000000000              -0.000214992               0.006114575               0.000197177              -0.000844942               0.002319819               0.001474877               0.000000000               0.000000000               0.000000000               0.000000000              -0.000167744               0.005883463               0.000122631              -0.000798335               0.002227246               0.001428911               0.000000000               0.000000000               0.000000000               0.000000000              -0.000146575               0.005674696               0.000055257              -0.000764301               0.002146313               0.001382013               0.000000000               0.000000000               0.000000000               0.000000000              -0.000134788               0.005476802               0.000005979              -0.000735144               0.002070631               0.001335487               0.000000000               0.000000000               0.000000000               0.000000000              -0.000120216               0.005295507              -0.000014437              -0.000707017               0.002000824               0.001293806               0.000000000               0.000000000               0.000000000               0.000000000              -0.000106448               0.005205127              -0.000017072              -0.000690557               0.001965211               0.001274653               0.000000000               0.000000000               0.000000000               0.000000000              -0.000200468               0.004439414               0.001916498              -0.000630102               0.001689823               0.001059721               0.000000000               0.000000000               0.000000000               0.000000000              -0.001192593               0.005849400               0.001951225              -0.001178395               0.002342578               0.001164183               0.000000000               0.000000000               0.000000000               0.000000000              -0.002076885               0.007362258               0.001785827              -0.001699110               0.003020431               0.001321321               0.000000000               0.000000000               0.000000000               0.000000000              -0.002036823               0.007731411               0.001459796              -0.001730231               0.003153855               0.001423624               0.000000000               0.000000000               0.000000000               0.000000000              -0.001777963               0.007719742               0.001192290              -0.001631700               0.003117122               0.001485421               0.000000000               0.000000000               0.000000000               0.000000000              -0.001477573               0.007580527               0.000991692              -0.001501652               0.003027367               0.001525715               0.000000000               0.000000000               0.000000000               0.000000000              -0.001177953               0.007403066               0.000838538              -0.001367112               0.002923368               0.001556256               0.000000000               0.000000000               0.000000000               0.000000000              -0.000905088               0.007182638               0.000721289              -0.001237235               0.002806600               0.001569366               0.000000000               0.000000000               0.000000000               0.000000000              -0.000668240               0.006913981               0.000623934              -0.001114835               0.002676249               0.001561414               0.000000000               0.000000000               0.000000000               0.000000000              -0.000470050               0.006620474               0.000532979              -0.001003826               0.002541411               0.001537586               0.000000000               0.000000000               0.000000000               0.000000000              -0.000321365               0.006318243               0.000438510              -0.000910290               0.002409490               0.001499200               0.000000000               0.000000000               0.000000000               0.000000000              -0.000225018               0.006038401               0.000335537              -0.000839180               0.002292507               0.001453327               0.000000000               0.000000000               0.000000000               0.000000000              -0.000180756               0.005787846               0.000232296              -0.000791262               0.002193017               0.001401755               0.000000000               0.000000000               0.000000000               0.000000000              -0.000173148               0.005566758               0.000137557              -0.000760773               0.002109158               0.001348385               0.000000000               0.000000000               0.000000000               0.000000000              -0.000189798               0.005362362               0.000062149              -0.000741468               0.002034592               0.001293124               0.000000000               0.000000000               0.000000000               0.000000000              -0.000218263               0.005170443               0.000017272              -0.000728152               0.001966181               0.001238029               0.000000000               0.000000000               0.000000000               0.000000000              -0.000228203               0.005081439               0.000003835              -0.000720754               0.001934047               0.001213293               0.000000000               0.000000000               0.000000000               0.000000000              -0.001355870               0.002867668               0.001191449              -0.000866908               0.001244849               0.000377940               0.000000000               0.000000000               0.000000000               0.000000000              -0.001696301               0.004486878               0.001754741              -0.001196970               0.001894600               0.000697630               0.000000000               0.000000000               0.000000000               0.000000000              -0.002218105               0.006199900               0.002075341              -0.001606774               0.002602203               0.000995430               0.000000000               0.000000000               0.000000000               0.000000000              -0.002105773               0.006869763               0.001876443              -0.001648382               0.002839358               0.001190976               0.000000000               0.000000000               0.000000000               0.000000000              -0.001824443               0.007104988               0.001612064              -0.001572286               0.002892401               0.001320114               0.000000000               0.000000000               0.000000000               0.000000000              -0.001516860               0.007152552               0.001379995              -0.001462888               0.002871789               0.001408901               0.000000000               0.000000000               0.000000000               0.000000000              -0.001215649               0.007116326               0.001187600              -0.001345406               0.002820553               0.001475147               0.000000000               0.000000000               0.000000000               0.000000000              -0.000941936               0.007000160               0.001033122              -0.001228243               0.002742778               0.001514534               0.000000000               0.000000000               0.000000000               0.000000000              -0.000703634               0.006813648               0.000903973              -0.001115566               0.002643049               0.001527482               0.000000000               0.000000000               0.000000000               0.000000000              -0.000495856               0.006583183               0.000782596              -0.001008841               0.002530653               0.001521811               0.000000000               0.000000000               0.000000000               0.000000000              -0.000327202               0.006322418               0.000660934              -0.000913001               0.002411785               0.001498784               0.000000000               0.000000000               0.000000000               0.000000000              -0.000202858               0.006055831               0.000535676              -0.000833049               0.002296273               0.001463224               0.000000000               0.000000000               0.000000000               0.000000000              -0.000133189               0.005794441               0.000410382              -0.000774249               0.002189544               0.001415295               0.000000000               0.000000000               0.000000000               0.000000000              -0.000117351               0.005557430               0.000288281              -0.000738683               0.002098686               0.001360003               0.000000000               0.000000000               0.000000000               0.000000000              -0.000149648               0.005347904               0.000172335              -0.000724604               0.002024152               0.001299547               0.000000000               0.000000000               0.000000000               0.000000000              -0.000226127               0.005164149               0.000074908              -0.000730315               0.001964804               0.001234489               0.000000000               0.000000000               0.000000000               0.000000000              -0.000291077               0.005068115               0.000025429              -0.000742666               0.001936910               0.001194244               0.000000000               0.000000000               0.000000000               0.000000000              -0.002713061               0.001568284               0.000515305              -0.001213431               0.000927232              -0.000286199               0.000000000               0.000000000               0.000000000               0.000000000              -0.002311631               0.003204496               0.001468465              -0.001267421               0.001490628               0.000223206               0.000000000               0.000000000               0.000000000               0.000000000              -0.002312396               0.004901935               0.002181243              -0.001479888               0.002127257               0.000647369               0.000000000               0.000000000               0.000000000               0.000000000              -0.002067604               0.005784106               0.002146969              -0.001498362               0.002427469               0.000929107               0.000000000               0.000000000               0.000000000               0.000000000              -0.001757823               0.006249805               0.001930935              -0.001440406               0.002563382               0.001122976               0.000000000               0.000000000               0.000000000               0.000000000              -0.001449546               0.006498156               0.001698751              -0.001355847               0.002617979               0.001262132               0.000000000               0.000000000               0.000000000               0.000000000              -0.001157880               0.006621222               0.001492193              -0.001261855               0.002627670               0.001365815               0.000000000               0.000000000               0.000000000               0.000000000              -0.000893622               0.006634736               0.001317176              -0.001164448               0.002599705               0.001435258               0.000000000               0.000000000               0.000000000               0.000000000              -0.000656696               0.006560963               0.001166323              -0.001066379               0.002542425               0.001476046               0.000000000               0.000000000               0.000000000               0.000000000              -0.000448379               0.006420123               0.001024153              -0.000970655               0.002463571               0.001492916               0.000000000               0.000000000               0.000000000               0.000000000              -0.000270893               0.006236073               0.000882660              -0.000881092               0.002372367               0.001491275               0.000000000               0.000000000               0.000000000               0.000000000              -0.000123178               0.006023458               0.000742353              -0.000799122               0.002274173               0.001475051               0.000000000               0.000000000               0.000000000               0.000000000              -0.000014037               0.005785588               0.000602702              -0.000728461               0.002171330               0.001442869               0.000000000               0.000000000               0.000000000               0.000000000               0.000041633               0.005550992               0.000458727              -0.000678260               0.002076399               0.001398139               0.000000000               0.000000000               0.000000000               0.000000000               0.000034096               0.005343080               0.000306046              -0.000655098               0.001999375               0.001344277               0.000000000               0.000000000               0.000000000               0.000000000              -0.000042693               0.005165318               0.000150769              -0.000661673               0.001942313               0.001280640               0.000000000               0.000000000               0.000000000               0.000000000              -0.000128462               0.005063059               0.000063587              -0.000681054               0.001914688               0.001233634               0.000000000               0.000000000               0.000000000               0.000000000              -0.004170666               0.000601625              -0.000024020              -0.001639201               0.000746937              -0.000892264               0.000000000               0.000000000               0.000000000               0.000000000              -0.003000645               0.002067070               0.001129756              -0.001383623               0.001150223              -0.000233401               0.000000000               0.000000000               0.000000000               0.000000000              -0.002387529               0.003574860               0.002080062              -0.001342179               0.001639000               0.000296821               0.000000000               0.000000000               0.000000000               0.000000000              -0.001947574               0.004564137               0.002196100              -0.001300855               0.001954981               0.000654126               0.000000000               0.000000000               0.000000000               0.000000000              -0.001584526               0.005209857               0.002057421              -0.001245427               0.002151743               0.000906316               0.000000000               0.000000000               0.000000000               0.000000000              -0.001268400               0.005645253               0.001858322              -0.001181305               0.002275500               0.001094195               0.000000000               0.000000000               0.000000000               0.000000000              -0.000986527               0.005932900               0.001664269              -0.001111558               0.002348133               0.001236574               0.000000000               0.000000000               0.000000000               0.000000000              -0.000737981               0.006081966               0.001493370              -0.001036987               0.002372964               0.001335977               0.000000000               0.000000000               0.000000000               0.000000000              -0.000512833               0.006131689               0.001339747              -0.000958771               0.002363466               0.001404694               0.000000000               0.000000000               0.000000000               0.000000000              -0.000307425               0.006107345               0.001188522              -0.000878701               0.002328661               0.001449961               0.000000000               0.000000000               0.000000000               0.000000000              -0.000124225               0.006021609               0.001040665              -0.000799284               0.002273611               0.001474327               0.000000000               0.000000000               0.000000000               0.000000000               0.000042590               0.005888743               0.000900808              -0.000720120               0.002202935               0.001482814               0.000000000               0.000000000               0.000000000               0.000000000               0.000192183               0.005717776               0.000759718              -0.000642652               0.002120123               0.001477472               0.000000000               0.000000000               0.000000000               0.000000000               0.000307821               0.005525890               0.000602684              -0.000575302               0.002033712               0.001458410               0.000000000               0.000000000               0.000000000               0.000000000               0.000370627               0.005337363               0.000423425              -0.000528184               0.001955164               0.001426980               0.000000000               0.000000000               0.000000000               0.000000000               0.000361918               0.005164326               0.000222567              -0.000509820               0.001891365               0.001381545               0.000000000               0.000000000               0.000000000               0.000000000               0.000318390               0.005068816               0.000111363              -0.000514204               0.001860990               0.001346785               0.000000000               0.000000000               0.000000000               0.000000000              -0.005577694              -0.000037786              -0.000350071              -0.002086910               0.000683037              -0.001403873               0.000000000               0.000000000               0.000000000               0.000000000              -0.003694694               0.001142286               0.000785126              -0.001528294               0.000890187              -0.000638107               0.000000000               0.000000000               0.000000000               0.000000000              -0.002454990               0.002349781               0.001772869              -0.001214342               0.001188032              -0.000026310               0.000000000               0.000000000               0.000000000               0.000000000              -0.001779614               0.003348845               0.001981416              -0.001085959               0.001478256               0.000392297               0.000000000               0.000000000               0.000000000               0.000000000              -0.001335664               0.004109597               0.001919901              -0.001014572               0.001708042               0.000693470               0.000000000               0.000000000               0.000000000               0.000000000              -0.000998456               0.004690091               0.001774997              -0.000960681               0.001883574               0.000922893               0.000000000               0.000000000               0.000000000               0.000000000              -0.000718069               0.005117195               0.001618041              -0.000908924               0.002008689               0.001099765               0.000000000               0.000000000               0.000000000               0.000000000              -0.000481530               0.005395141               0.001470907              -0.000854965               0.002083350               0.001228385               0.000000000               0.000000000               0.000000000               0.000000000              -0.000275233               0.005565756               0.001332242              -0.000798930               0.002121543               0.001322613               0.000000000               0.000000000               0.000000000               0.000000000              -0.000082529               0.005655901               0.001192545              -0.000737935               0.002131260               0.001393325               0.000000000               0.000000000               0.000000000               0.000000000               0.000107320               0.005676752               0.001058795              -0.000669348               0.002115347               0.001446000               0.000000000               0.000000000               0.000000000               0.000000000               0.000295137               0.005639034               0.000936143              -0.000594202               0.002077726               0.001483525               0.000000000               0.000000000               0.000000000               0.000000000               0.000478372               0.005558521               0.000808030              -0.000515425               0.002024630               0.001509205               0.000000000               0.000000000               0.000000000               0.000000000               0.000654507               0.005444762               0.000657858              -0.000435154               0.001959954               0.001524799               0.000000000               0.000000000               0.000000000               0.000000000               0.000812382               0.005305838               0.000475404              -0.000358586               0.001888123               0.001529538               0.000000000               0.000000000               0.000000000               0.000000000               0.000931983               0.005154859               0.000255652              -0.000294863               0.001816557               0.001521694               0.000000000               0.000000000               0.000000000               0.000000000               0.000993407               0.005080982               0.000139007              -0.000262595               0.001781175               0.001518581               0.000000000               0.000000000               0.000000000               0.000000000              -0.006763098              -0.000402447              -0.000425321              -0.002485854               0.000694464              -0.001791390               0.000000000               0.000000000               0.000000000               0.000000000              -0.004300498               0.000473973               0.000476476              -0.001671932               0.000715297              -0.000956635               0.000000000               0.000000000               0.000000000               0.000000000              -0.002515935               0.001360480               0.001289150              -0.001113534               0.000824665              -0.000288869               0.000000000               0.000000000               0.000000000               0.000000000              -0.001607103               0.002305769               0.001504977              -0.000890883               0.001065542               0.000174659               0.000000000               0.000000000               0.000000000               0.000000000              -0.001069160               0.003120958               0.001494740              -0.000791053               0.001303993               0.000512939               0.000000000               0.000000000               0.000000000               0.000000000              -0.000700288               0.003792744               0.001407177              -0.000736700               0.001509802               0.000773102               0.000000000               0.000000000               0.000000000               0.000000000              -0.000417811               0.004320633               0.001301350              -0.000696757               0.001672449               0.000975691               0.000000000               0.000000000               0.000000000               0.000000000              -0.000193121               0.004704431               0.001192501              -0.000660473               0.001788285               0.001127812               0.000000000               0.000000000               0.000000000               0.000000000              -0.000001196               0.004977126               0.001085353              -0.000622588               0.001866555               0.001243966               0.000000000               0.000000000               0.000000000               0.000000000               0.000181207               0.005163807               0.000980093              -0.000577522               0.001913759               0.001336237               0.000000000               0.000000000               0.000000000               0.000000000               0.000373269               0.005282037               0.000881143              -0.000520278               0.001934087               0.001413809               0.000000000               0.000000000               0.000000000               0.000000000               0.000573483               0.005339695               0.000787889              -0.000452405               0.001930682               0.001478277               0.000000000               0.000000000               0.000000000               0.000000000               0.000785297               0.005349935               0.000689920              -0.000374255               0.001908045               0.001533790               0.000000000               0.000000000               0.000000000               0.000000000               0.001013969               0.005316874               0.000572690              -0.000284370               0.001867064               0.001582694               0.000000000               0.000000000               0.000000000               0.000000000               0.001259914               0.005241843               0.000421662              -0.000182762               0.001808184               0.001625422               0.000000000               0.000000000               0.000000000               0.000000000               0.001525007               0.005131866               0.000228816              -0.000069606               0.001733807               0.001664201               0.000000000               0.000000000               0.000000000               0.000000000               0.001721786               0.005089575               0.000129216               0.000009472               0.001693351               0.001702823               0.000000000               0.000000000               0.000000000               0.000000000              -0.007555614              -0.000574469              -0.000279487              -0.002761545               0.000729020              -0.002032525               0.000000000               0.000000000               0.000000000               0.000000000              -0.004717981               0.000075841               0.000219228              -0.001778721               0.000618183              -0.001160538               0.000000000               0.000000000               0.000000000               0.000000000              -0.002566860               0.000720259               0.000678252              -0.001052604               0.000590950              -0.000461654               0.000000000               0.000000000               0.000000000               0.000000000              -0.001484393               0.001597440               0.000814176              -0.000756326               0.000784583               0.000028257               0.000000000               0.000000000               0.000000000               0.000000000              -0.000868176               0.002422839               0.000820604              -0.000628420               0.001017078               0.000388658               0.000000000               0.000000000               0.000000000               0.000000000              -0.000465967               0.003144671               0.000780812              -0.000567821               0.001237487               0.000669666               0.000000000               0.000000000               0.000000000               0.000000000              -0.000181198               0.003736544               0.000728777              -0.000535016               0.001423841               0.000888825               0.000000000               0.000000000               0.000000000               0.000000000               0.000034037               0.004186873               0.000671801              -0.000510594               0.001565808               0.001055214               0.000000000               0.000000000               0.000000000               0.000000000               0.000218707               0.004525815               0.000612991              -0.000483711               0.001669827               0.001186116               0.000000000               0.000000000               0.000000000               0.000000000               0.000397651               0.004778523               0.000556880              -0.000448195               0.001742223               0.001294028               0.000000000               0.000000000               0.000000000               0.000000000               0.000587483               0.004966492               0.000503741              -0.000400504               0.001788982               0.001388478               0.000000000               0.000000000               0.000000000               0.000000000               0.000794062               0.005096933               0.000452753              -0.000339343               0.001812075               0.001472732               0.000000000               0.000000000               0.000000000               0.000000000               0.001025422               0.005174710               0.000400809              -0.000262305               0.001812321               0.001550016               0.000000000               0.000000000               0.000000000               0.000000000               0.001290820               0.005201514               0.000334902              -0.000166131               0.001789198               0.001623067               0.000000000               0.000000000               0.000000000               0.000000000               0.001604460               0.005177905               0.000249236              -0.000045566               0.001741140               0.001695574               0.000000000               0.000000000               0.000000000               0.000000000               0.001982818               0.005103633               0.000138472               0.000105601               0.001665994               0.001771595               0.000000000               0.000000000               0.000000000               0.000000000               0.002289394               0.005087910               0.000081872               0.000222532               0.001621776               0.001844307               0.000000000               0.000000000               0.000000000               0.000000000               0.000000000               0.000000000               0.000000000               0.000000000               0.000000000               0.000000000               0.000000000               0.000000000               0.000000000               0.000000000               0.000000000               0.000000000               0.000000000               0.000000000               0.000000000               0.000000000               0.000000000               0.000000000               0.000000000               0.000000000               0.000000000               0.000000000               0.000000000               0.000000000               0.000000000               0.000000000               0.000000000               0.000000000               0.000000000               0.000000000               0.000000000               0.000000000               0.000000000               0.000000000               0.000000000               0.000000000               0.000000000               0.000000000               0.000000000               0.000000000               0.000000000               0.000000000               0.000000000               0.000000000               0.000000000               0.000000000               0.000000000               0.000000000               0.000000000               0.000000000               0.000000000               0.000000000               0.000000000               0.000000000               0.000000000               0.000000000               0.000000000               0.000000000               0.000000000               0.000000000               0.000000000               0.000000000               0.000000000               0.000000000               0.000000000               0.000000000               0.000000000               0.000000000               0.000000000               0.000000000               0.000000000               0.000000000               0.000000000               0.000000000               0.000000000               0.000000000               0.000000000               0.000000000               0.000000000               0.000000000               0.000000000               0.000000000               0.000000000               0.000000000               0.000000000               0.000000000               0.000000000               0.000000000               0.000000000               0.000000000               0.000000000               0.000000000               0.000000000               0.000000000               0.000000000               0.000000000               0.000000000               0.000000000               0.000000000               0.000000000               0.000000000               0.000000000               0.000000000               0.000000000               0.000000000               0.000000000               0.000000000               0.000000000               0.000000000               0.000000000               0.000000000               0.000000000               0.000000000               0.000000000               0.000000000               0.000000000               0.000000000               0.000000000               0.000000000               0.000000000               0.000000000               0.000000000               0.000000000               0.000000000               0.000000000               0.000000000               0.000000000               0.000000000               0.000000000               0.000000000               0.000000000               0.000000000               0.000000000               0.000000000               0.000000000               0.000000000               0.000000000               0.000000000               0.000000000               0.000000000               0.000000000               0.000000000               0.000000000               0.000000000               0.000000000               0.000000000               0.000000000               0.000000000               0.000000000               0.000000000               0.000000000               0.000000000               0.000000000               0.000000000               0.000000000               0.000000000               0.000000000               0.000000000               0.000000000               0.000000000               0.000000000               0.000000000               0.000000000               0.000000000               0.000000000               0.000000000               0.000000000               0.000000000               0.000000000               0.000000000 </DataArray>
</PointData>
</Piece>
</UnstructuredGrid> </VTKFile>
