<?xml version="1.0"?>
<VTKFile type="UnstructuredGrid" version="0.1">
<UnstructuredGrid>
<Piece NumberOfPoints="      1156" NumberOfCells="      1024">
<Points>
<DataArray type="Float64"                                    Name="coordinates"                                                      NumberOfComponents=" 3" format="ascii">
              0.133000000               0.000000000               0.000000000               0.155937500               0.000000000               0.000000000               0.178875000               0.000000000               0.000000000               0.201812500               0.000000000               0.000000000               0.224750000               0.000000000               0.000000000               0.247687500               0.000000000               0.000000000               0.270625000               0.000000000               0.000000000               0.293562500               0.000000000               0.000000000               0.316500000               0.000000000               0.000000000               0.339437500               0.000000000               0.000000000               0.362375000               0.000000000               0.000000000               0.385312500               0.000000000               0.000000000               0.408250000               0.000000000               0.000000000               0.431187500               0.000000000               0.000000000               0.454125000               0.000000000               0.000000000               0.477062500               0.000000000               0.000000000               0.500000000               0.000000000               0.000000000               0.132359569               0.013036280               0.000000000               0.155337096               0.016127762               0.000000000               0.178314623               0.019219245               0.000000000               0.201292150               0.022310727               0.000000000               0.224269676               0.025402210               0.000000000               0.247247203               0.028493692               0.000000000               0.270224730               0.031585175               0.000000000               0.293202257               0.034676657               0.000000000               0.316179784               0.037768140               0.000000000               0.339157311               0.040859622               0.000000000               0.362134838               0.043951105               0.000000000               0.385112365               0.047042587               0.000000000               0.408089892               0.050134070               0.000000000               0.431067419               0.053225552               0.000000000               0.454044946               0.056317035               0.000000000               0.477022473               0.059408517               0.000000000               0.500000000               0.062500000               0.000000000               0.130444442               0.025947013               0.000000000               0.153541665               0.032137825               0.000000000               0.176638887               0.038328636               0.000000000               0.199736109               0.044519448               0.000000000               0.222833332               0.050710260               0.000000000               0.245930554               0.056901071               0.000000000               0.269027776               0.063091883               0.000000000               0.292124999               0.069282695               0.000000000               0.315222221               0.075473506               0.000000000               0.338319444               0.081664318               0.000000000               0.361416666               0.087855130               0.000000000               0.384513888               0.094045942               0.000000000               0.407611111               0.100236753               0.000000000               0.430708333               0.106427565               0.000000000               0.453805555               0.112618377               0.000000000               0.476902778               0.118809188               0.000000000               0.500000000               0.125000000               0.000000000               0.127273065               0.038607862               0.000000000               0.150568498               0.047913621               0.000000000               0.173863932               0.057219379               0.000000000               0.197159365               0.066525138               0.000000000               0.220454798               0.075830897               0.000000000               0.243750232               0.085136655               0.000000000               0.267045665               0.094442414               0.000000000               0.290341099               0.103748172               0.000000000               0.313636532               0.113053931               0.000000000               0.336931966               0.122359690               0.000000000               0.360227399               0.131665448               0.000000000               0.383522833               0.140971207               0.000000000               0.406818266               0.150276966               0.000000000               0.430113700               0.159582724               0.000000000               0.453409133               0.168888483               0.000000000               0.476704567               0.178194241               0.000000000               0.500000000               0.187500000               0.000000000               0.122875978               0.050896897               0.000000000               0.146446229               0.063340840               0.000000000               0.170016481               0.075784784               0.000000000               0.193586732               0.088228728               0.000000000               0.217156983               0.100672672               0.000000000               0.240727235               0.113116616               0.000000000               0.264297486               0.125560560               0.000000000               0.287867738               0.138004504               0.000000000               0.311437989               0.150448448               0.000000000               0.335008240               0.162892392               0.000000000               0.358578492               0.175336336               0.000000000               0.382148743               0.187780280               0.000000000               0.405718994               0.200224224               0.000000000               0.429289246               0.212668168               0.000000000               0.452859497               0.225112112               0.000000000               0.476429749               0.237556056               0.000000000               0.500000000               0.250000000               0.000000000               0.117295528               0.062695766               0.000000000               0.141214558               0.078308531               0.000000000               0.165133587               0.093921295               0.000000000               0.189052617               0.109534060               0.000000000               0.212971646               0.125146824               0.000000000               0.236890676               0.140759589               0.000000000               0.260809705               0.156372354               0.000000000               0.284728735               0.171985118               0.000000000               0.308647764               0.187597883               0.000000000               0.332566794               0.203210648               0.000000000               0.356485823               0.218823412               0.000000000               0.380404853               0.234436177               0.000000000               0.404323882               0.250048941               0.000000000               0.428242912               0.265661706               0.000000000               0.452161941               0.281274471               0.000000000               0.476080971               0.296887235               0.000000000               0.500000000               0.312500000               0.000000000               0.110585458               0.073890841               0.000000000               0.134923867               0.092710163               0.000000000               0.159262276               0.111529486               0.000000000               0.183600685               0.130348808               0.000000000               0.207939094               0.149168131               0.000000000               0.232277503               0.167987453               0.000000000               0.256615912               0.186806776               0.000000000               0.280954320               0.205626098               0.000000000               0.305292729               0.224445420               0.000000000               0.329631138               0.243264743               0.000000000               0.353969547               0.262084065               0.000000000               0.378307956               0.280903388               0.000000000               0.402646365               0.299722710               0.000000000               0.426984773               0.318542033               0.000000000               0.451323182               0.337361355               0.000000000               0.475661591               0.356180678               0.000000000               0.500000000               0.375000000               0.000000000               0.102810390               0.084374307               0.000000000               0.127634741               0.106444663               0.000000000               0.152459092               0.128515018               0.000000000               0.177283442               0.150585374               0.000000000               0.202107793               0.172655730               0.000000000               0.226932143               0.194726086               0.000000000               0.251756494               0.216796442               0.000000000               0.276580845               0.238866798               0.000000000               0.301405195               0.260937153               0.000000000               0.326229546               0.283007509               0.000000000               0.351053896               0.305077865               0.000000000               0.375878247               0.327148221               0.000000000               0.400702598               0.349218577               0.000000000               0.425526948               0.371288933               0.000000000               0.450351299               0.393359288               0.000000000               0.475175649               0.415429644               0.000000000               0.500000000               0.437500000               0.000000000               0.094045202               0.094045202               0.000000000               0.119417377               0.119417377               0.000000000               0.144789552               0.144789552               0.000000000               0.170161727               0.170161727               0.000000000               0.195533901               0.195533901               0.000000000               0.220906076               0.220906076               0.000000000               0.246278251               0.246278251               0.000000000               0.271650426               0.271650426               0.000000000               0.297022601               0.297022601               0.000000000               0.322394776               0.322394776               0.000000000               0.347766951               0.347766951               0.000000000               0.373139126               0.373139126               0.000000000               0.398511300               0.398511300               0.000000000               0.423883475               0.423883475               0.000000000               0.449255650               0.449255650               0.000000000               0.474627825               0.474627825               0.000000000               0.500000000               0.500000000               0.000000000               0.084374307               0.102810390               0.000000000               0.106444663               0.127634741               0.000000000               0.128515018               0.152459092               0.000000000               0.150585374               0.177283442               0.000000000               0.172655730               0.202107793               0.000000000               0.194726086               0.226932143               0.000000000               0.216796442               0.251756494               0.000000000               0.238866798               0.276580845               0.000000000               0.260937153               0.301405195               0.000000000               0.283007509               0.326229546               0.000000000               0.305077865               0.351053896               0.000000000               0.327148221               0.375878247               0.000000000               0.349218577               0.400702598               0.000000000               0.371288933               0.425526948               0.000000000               0.393359288               0.450351299               0.000000000               0.415429644               0.475175649               0.000000000               0.437500000               0.500000000               0.000000000               0.073890841               0.110585458               0.000000000               0.092710163               0.134923867               0.000000000               0.111529486               0.159262276               0.000000000               0.130348808               0.183600685               0.000000000               0.149168131               0.207939094               0.000000000               0.167987453               0.232277503               0.000000000               0.186806776               0.256615912               0.000000000               0.205626098               0.280954320               0.000000000               0.224445420               0.305292729               0.000000000               0.243264743               0.329631138               0.000000000               0.262084065               0.353969547               0.000000000               0.280903388               0.378307956               0.000000000               0.299722710               0.402646365               0.000000000               0.318542033               0.426984773               0.000000000               0.337361355               0.451323182               0.000000000               0.356180678               0.475661591               0.000000000               0.375000000               0.500000000               0.000000000               0.062695766               0.117295528               0.000000000               0.078308531               0.141214558               0.000000000               0.093921295               0.165133587               0.000000000               0.109534060               0.189052617               0.000000000               0.125146824               0.212971646               0.000000000               0.140759589               0.236890676               0.000000000               0.156372354               0.260809705               0.000000000               0.171985118               0.284728735               0.000000000               0.187597883               0.308647764               0.000000000               0.203210648               0.332566794               0.000000000               0.218823412               0.356485823               0.000000000               0.234436177               0.380404853               0.000000000               0.250048941               0.404323882               0.000000000               0.265661706               0.428242912               0.000000000               0.281274471               0.452161941               0.000000000               0.296887235               0.476080971               0.000000000               0.312500000               0.500000000               0.000000000               0.050896897               0.122875978               0.000000000               0.063340840               0.146446229               0.000000000               0.075784784               0.170016481               0.000000000               0.088228728               0.193586732               0.000000000               0.100672672               0.217156983               0.000000000               0.113116616               0.240727235               0.000000000               0.125560560               0.264297486               0.000000000               0.138004504               0.287867738               0.000000000               0.150448448               0.311437989               0.000000000               0.162892392               0.335008240               0.000000000               0.175336336               0.358578492               0.000000000               0.187780280               0.382148743               0.000000000               0.200224224               0.405718994               0.000000000               0.212668168               0.429289246               0.000000000               0.225112112               0.452859497               0.000000000               0.237556056               0.476429749               0.000000000               0.250000000               0.500000000               0.000000000               0.038607862               0.127273065               0.000000000               0.047913621               0.150568498               0.000000000               0.057219379               0.173863932               0.000000000               0.066525138               0.197159365               0.000000000               0.075830897               0.220454798               0.000000000               0.085136655               0.243750232               0.000000000               0.094442414               0.267045665               0.000000000               0.103748172               0.290341099               0.000000000               0.113053931               0.313636532               0.000000000               0.122359690               0.336931966               0.000000000               0.131665448               0.360227399               0.000000000               0.140971207               0.383522833               0.000000000               0.150276966               0.406818266               0.000000000               0.159582724               0.430113700               0.000000000               0.168888483               0.453409133               0.000000000               0.178194241               0.476704567               0.000000000               0.187500000               0.500000000               0.000000000               0.025947013               0.130444442               0.000000000               0.032137825               0.153541665               0.000000000               0.038328636               0.176638887               0.000000000               0.044519448               0.199736109               0.000000000               0.050710260               0.222833332               0.000000000               0.056901071               0.245930554               0.000000000               0.063091883               0.269027776               0.000000000               0.069282695               0.292124999               0.000000000               0.075473506               0.315222221               0.000000000               0.081664318               0.338319444               0.000000000               0.087855130               0.361416666               0.000000000               0.094045942               0.384513888               0.000000000               0.100236753               0.407611111               0.000000000               0.106427565               0.430708333               0.000000000               0.112618377               0.453805555               0.000000000               0.118809188               0.476902778               0.000000000               0.125000000               0.500000000               0.000000000               0.013036280               0.132359569               0.000000000               0.016127762               0.155337096               0.000000000               0.019219245               0.178314623               0.000000000               0.022310727               0.201292150               0.000000000               0.025402210               0.224269676               0.000000000               0.028493692               0.247247203               0.000000000               0.031585175               0.270224730               0.000000000               0.034676657               0.293202257               0.000000000               0.037768140               0.316179784               0.000000000               0.040859622               0.339157311               0.000000000               0.043951105               0.362134838               0.000000000               0.047042587               0.385112365               0.000000000               0.050134070               0.408089892               0.000000000               0.053225552               0.431067419               0.000000000               0.056317035               0.454044946               0.000000000               0.059408517               0.477022473               0.000000000               0.062500000               0.500000000               0.000000000               0.000000000               0.133000000               0.000000000               0.000000000               0.155937500               0.000000000               0.000000000               0.178875000               0.000000000               0.000000000               0.201812500               0.000000000               0.000000000               0.224750000               0.000000000               0.000000000               0.247687500               0.000000000               0.000000000               0.270625000               0.000000000               0.000000000               0.293562500               0.000000000               0.000000000               0.316500000               0.000000000               0.000000000               0.339437500               0.000000000               0.000000000               0.362375000               0.000000000               0.000000000               0.385312500               0.000000000               0.000000000               0.408250000               0.000000000               0.000000000               0.431187500               0.000000000               0.000000000               0.454125000               0.000000000               0.000000000               0.477062500               0.000000000               0.000000000               0.500000000               0.000000000               0.133000000               0.000000000               0.000000000               0.155937500               0.000000000               0.000000000               0.178875000               0.000000000               0.000000000               0.201812500               0.000000000               0.000000000               0.224750000               0.000000000               0.000000000               0.247687500               0.000000000               0.000000000               0.270625000               0.000000000               0.000000000               0.293562500               0.000000000               0.000000000               0.316500000               0.000000000               0.000000000               0.339437500               0.000000000               0.000000000               0.362375000               0.000000000               0.000000000               0.385312500               0.000000000               0.000000000               0.408250000               0.000000000               0.000000000               0.431187500               0.000000000               0.000000000               0.454125000               0.000000000               0.000000000               0.477062500               0.000000000               0.000000000               0.500000000               0.000000000               0.000000000               0.132359569              -0.013036280               0.000000000               0.155337096              -0.016127762               0.000000000               0.178314623              -0.019219245               0.000000000               0.201292150              -0.022310727               0.000000000               0.224269676              -0.025402210               0.000000000               0.247247203              -0.028493692               0.000000000               0.270224730              -0.031585175               0.000000000               0.293202257              -0.034676657               0.000000000               0.316179784              -0.037768140               0.000000000               0.339157311              -0.040859622               0.000000000               0.362134838              -0.043951105               0.000000000               0.385112365              -0.047042587               0.000000000               0.408089892              -0.050134070               0.000000000               0.431067419              -0.053225552               0.000000000               0.454044946              -0.056317035               0.000000000               0.477022473              -0.059408517               0.000000000               0.500000000              -0.062500000               0.000000000               0.130444442              -0.025947013               0.000000000               0.153541665              -0.032137825               0.000000000               0.176638887              -0.038328636               0.000000000               0.199736109              -0.044519448               0.000000000               0.222833332              -0.050710260               0.000000000               0.245930554              -0.056901071               0.000000000               0.269027776              -0.063091883               0.000000000               0.292124999              -0.069282695               0.000000000               0.315222221              -0.075473506               0.000000000               0.338319444              -0.081664318               0.000000000               0.361416666              -0.087855130               0.000000000               0.384513888              -0.094045942               0.000000000               0.407611111              -0.100236753               0.000000000               0.430708333              -0.106427565               0.000000000               0.453805555              -0.112618377               0.000000000               0.476902778              -0.118809188               0.000000000               0.500000000              -0.125000000               0.000000000               0.127273065              -0.038607862               0.000000000               0.150568498              -0.047913621               0.000000000               0.173863932              -0.057219379               0.000000000               0.197159365              -0.066525138               0.000000000               0.220454798              -0.075830897               0.000000000               0.243750232              -0.085136655               0.000000000               0.267045665              -0.094442414               0.000000000               0.290341099              -0.103748172               0.000000000               0.313636532              -0.113053931               0.000000000               0.336931966              -0.122359690               0.000000000               0.360227399              -0.131665448               0.000000000               0.383522833              -0.140971207               0.000000000               0.406818266              -0.150276966               0.000000000               0.430113700              -0.159582724               0.000000000               0.453409133              -0.168888483               0.000000000               0.476704567              -0.178194241               0.000000000               0.500000000              -0.187500000               0.000000000               0.122875978              -0.050896897               0.000000000               0.146446229              -0.063340840               0.000000000               0.170016481              -0.075784784               0.000000000               0.193586732              -0.088228728               0.000000000               0.217156983              -0.100672672               0.000000000               0.240727235              -0.113116616               0.000000000               0.264297486              -0.125560560               0.000000000               0.287867738              -0.138004504               0.000000000               0.311437989              -0.150448448               0.000000000               0.335008240              -0.162892392               0.000000000               0.358578492              -0.175336336               0.000000000               0.382148743              -0.187780280               0.000000000               0.405718994              -0.200224224               0.000000000               0.429289246              -0.212668168               0.000000000               0.452859497              -0.225112112               0.000000000               0.476429749              -0.237556056               0.000000000               0.500000000              -0.250000000               0.000000000               0.117295528              -0.062695766               0.000000000               0.141214558              -0.078308531               0.000000000               0.165133587              -0.093921295               0.000000000               0.189052617              -0.109534060               0.000000000               0.212971646              -0.125146824               0.000000000               0.236890676              -0.140759589               0.000000000               0.260809705              -0.156372354               0.000000000               0.284728735              -0.171985118               0.000000000               0.308647764              -0.187597883               0.000000000               0.332566794              -0.203210648               0.000000000               0.356485823              -0.218823412               0.000000000               0.380404853              -0.234436177               0.000000000               0.404323882              -0.250048941               0.000000000               0.428242912              -0.265661706               0.000000000               0.452161941              -0.281274471               0.000000000               0.476080971              -0.296887235               0.000000000               0.500000000              -0.312500000               0.000000000               0.110585458              -0.073890841               0.000000000               0.134923867              -0.092710163               0.000000000               0.159262276              -0.111529486               0.000000000               0.183600685              -0.130348808               0.000000000               0.207939094              -0.149168131               0.000000000               0.232277503              -0.167987453               0.000000000               0.256615912              -0.186806776               0.000000000               0.280954320              -0.205626098               0.000000000               0.305292729              -0.224445420               0.000000000               0.329631138              -0.243264743               0.000000000               0.353969547              -0.262084065               0.000000000               0.378307956              -0.280903388               0.000000000               0.402646365              -0.299722710               0.000000000               0.426984773              -0.318542033               0.000000000               0.451323182              -0.337361355               0.000000000               0.475661591              -0.356180678               0.000000000               0.500000000              -0.375000000               0.000000000               0.102810390              -0.084374307               0.000000000               0.127634741              -0.106444663               0.000000000               0.152459092              -0.128515018               0.000000000               0.177283442              -0.150585374               0.000000000               0.202107793              -0.172655730               0.000000000               0.226932143              -0.194726086               0.000000000               0.251756494              -0.216796442               0.000000000               0.276580845              -0.238866798               0.000000000               0.301405195              -0.260937153               0.000000000               0.326229546              -0.283007509               0.000000000               0.351053896              -0.305077865               0.000000000               0.375878247              -0.327148221               0.000000000               0.400702598              -0.349218577               0.000000000               0.425526948              -0.371288933               0.000000000               0.450351299              -0.393359288               0.000000000               0.475175649              -0.415429644               0.000000000               0.500000000              -0.437500000               0.000000000               0.094045202              -0.094045202               0.000000000               0.119417377              -0.119417377               0.000000000               0.144789552              -0.144789552               0.000000000               0.170161727              -0.170161727               0.000000000               0.195533901              -0.195533901               0.000000000               0.220906076              -0.220906076               0.000000000               0.246278251              -0.246278251               0.000000000               0.271650426              -0.271650426               0.000000000               0.297022601              -0.297022601               0.000000000               0.322394776              -0.322394776               0.000000000               0.347766951              -0.347766951               0.000000000               0.373139126              -0.373139126               0.000000000               0.398511300              -0.398511300               0.000000000               0.423883475              -0.423883475               0.000000000               0.449255650              -0.449255650               0.000000000               0.474627825              -0.474627825               0.000000000               0.500000000              -0.500000000               0.000000000               0.084374307              -0.102810390               0.000000000               0.106444663              -0.127634741               0.000000000               0.128515018              -0.152459092               0.000000000               0.150585374              -0.177283442               0.000000000               0.172655730              -0.202107793               0.000000000               0.194726086              -0.226932143               0.000000000               0.216796442              -0.251756494               0.000000000               0.238866798              -0.276580845               0.000000000               0.260937153              -0.301405195               0.000000000               0.283007509              -0.326229546               0.000000000               0.305077865              -0.351053896               0.000000000               0.327148221              -0.375878247               0.000000000               0.349218577              -0.400702598               0.000000000               0.371288933              -0.425526948               0.000000000               0.393359288              -0.450351299               0.000000000               0.415429644              -0.475175649               0.000000000               0.437500000              -0.500000000               0.000000000               0.073890841              -0.110585458               0.000000000               0.092710163              -0.134923867               0.000000000               0.111529486              -0.159262276               0.000000000               0.130348808              -0.183600685               0.000000000               0.149168131              -0.207939094               0.000000000               0.167987453              -0.232277503               0.000000000               0.186806776              -0.256615912               0.000000000               0.205626098              -0.280954320               0.000000000               0.224445420              -0.305292729               0.000000000               0.243264743              -0.329631138               0.000000000               0.262084065              -0.353969547               0.000000000               0.280903388              -0.378307956               0.000000000               0.299722710              -0.402646365               0.000000000               0.318542033              -0.426984773               0.000000000               0.337361355              -0.451323182               0.000000000               0.356180678              -0.475661591               0.000000000               0.375000000              -0.500000000               0.000000000               0.062695766              -0.117295528               0.000000000               0.078308531              -0.141214558               0.000000000               0.093921295              -0.165133587               0.000000000               0.109534060              -0.189052617               0.000000000               0.125146824              -0.212971646               0.000000000               0.140759589              -0.236890676               0.000000000               0.156372354              -0.260809705               0.000000000               0.171985118              -0.284728735               0.000000000               0.187597883              -0.308647764               0.000000000               0.203210648              -0.332566794               0.000000000               0.218823412              -0.356485823               0.000000000               0.234436177              -0.380404853               0.000000000               0.250048941              -0.404323882               0.000000000               0.265661706              -0.428242912               0.000000000               0.281274471              -0.452161941               0.000000000               0.296887235              -0.476080971               0.000000000               0.312500000              -0.500000000               0.000000000               0.050896897              -0.122875978               0.000000000               0.063340840              -0.146446229               0.000000000               0.075784784              -0.170016481               0.000000000               0.088228728              -0.193586732               0.000000000               0.100672672              -0.217156983               0.000000000               0.113116616              -0.240727235               0.000000000               0.125560560              -0.264297486               0.000000000               0.138004504              -0.287867738               0.000000000               0.150448448              -0.311437989               0.000000000               0.162892392              -0.335008240               0.000000000               0.175336336              -0.358578492               0.000000000               0.187780280              -0.382148743               0.000000000               0.200224224              -0.405718994               0.000000000               0.212668168              -0.429289246               0.000000000               0.225112112              -0.452859497               0.000000000               0.237556056              -0.476429749               0.000000000               0.250000000              -0.500000000               0.000000000               0.038607862              -0.127273065               0.000000000               0.047913621              -0.150568498               0.000000000               0.057219379              -0.173863932               0.000000000               0.066525138              -0.197159365               0.000000000               0.075830897              -0.220454798               0.000000000               0.085136655              -0.243750232               0.000000000               0.094442414              -0.267045665               0.000000000               0.103748172              -0.290341099               0.000000000               0.113053931              -0.313636532               0.000000000               0.122359690              -0.336931966               0.000000000               0.131665448              -0.360227399               0.000000000               0.140971207              -0.383522833               0.000000000               0.150276966              -0.406818266               0.000000000               0.159582724              -0.430113700               0.000000000               0.168888483              -0.453409133               0.000000000               0.178194241              -0.476704567               0.000000000               0.187500000              -0.500000000               0.000000000               0.025947013              -0.130444442               0.000000000               0.032137825              -0.153541665               0.000000000               0.038328636              -0.176638887               0.000000000               0.044519448              -0.199736109               0.000000000               0.050710260              -0.222833332               0.000000000               0.056901071              -0.245930554               0.000000000               0.063091883              -0.269027776               0.000000000               0.069282695              -0.292124999               0.000000000               0.075473506              -0.315222221               0.000000000               0.081664318              -0.338319444               0.000000000               0.087855130              -0.361416666               0.000000000               0.094045942              -0.384513888               0.000000000               0.100236753              -0.407611111               0.000000000               0.106427565              -0.430708333               0.000000000               0.112618377              -0.453805555               0.000000000               0.118809188              -0.476902778               0.000000000               0.125000000              -0.500000000               0.000000000               0.013036280              -0.132359569               0.000000000               0.016127762              -0.155337096               0.000000000               0.019219245              -0.178314623               0.000000000               0.022310727              -0.201292150               0.000000000               0.025402210              -0.224269676               0.000000000               0.028493692              -0.247247203               0.000000000               0.031585175              -0.270224730               0.000000000               0.034676657              -0.293202257               0.000000000               0.037768140              -0.316179784               0.000000000               0.040859622              -0.339157311               0.000000000               0.043951105              -0.362134838               0.000000000               0.047042587              -0.385112365               0.000000000               0.050134070              -0.408089892               0.000000000               0.053225552              -0.431067419               0.000000000               0.056317035              -0.454044946               0.000000000               0.059408517              -0.477022473               0.000000000               0.062500000              -0.500000000               0.000000000               0.000000000              -0.133000000               0.000000000               0.000000000              -0.155937500               0.000000000               0.000000000              -0.178875000               0.000000000               0.000000000              -0.201812500               0.000000000               0.000000000              -0.224750000               0.000000000               0.000000000              -0.247687500               0.000000000               0.000000000              -0.270625000               0.000000000               0.000000000              -0.293562500               0.000000000               0.000000000              -0.316500000               0.000000000               0.000000000              -0.339437500               0.000000000               0.000000000              -0.362375000               0.000000000               0.000000000              -0.385312500               0.000000000               0.000000000              -0.408250000               0.000000000               0.000000000              -0.431187500               0.000000000               0.000000000              -0.454125000               0.000000000               0.000000000              -0.477062500               0.000000000               0.000000000              -0.500000000               0.000000000              -0.133000000               0.000000000               0.000000000              -0.155937500               0.000000000               0.000000000              -0.178875000               0.000000000               0.000000000              -0.201812500               0.000000000               0.000000000              -0.224750000               0.000000000               0.000000000              -0.247687500               0.000000000               0.000000000              -0.270625000               0.000000000               0.000000000              -0.293562500               0.000000000               0.000000000              -0.316500000               0.000000000               0.000000000              -0.339437500               0.000000000               0.000000000              -0.362375000               0.000000000               0.000000000              -0.385312500               0.000000000               0.000000000              -0.408250000               0.000000000               0.000000000              -0.431187500               0.000000000               0.000000000              -0.454125000               0.000000000               0.000000000              -0.477062500               0.000000000               0.000000000              -0.500000000               0.000000000               0.000000000              -0.132359569              -0.013036280               0.000000000              -0.155337096              -0.016127762               0.000000000              -0.178314623              -0.019219245               0.000000000              -0.201292150              -0.022310727               0.000000000              -0.224269676              -0.025402210               0.000000000              -0.247247203              -0.028493692               0.000000000              -0.270224730              -0.031585175               0.000000000              -0.293202257              -0.034676657               0.000000000              -0.316179784              -0.037768140               0.000000000              -0.339157311              -0.040859622               0.000000000              -0.362134838              -0.043951105               0.000000000              -0.385112365              -0.047042587               0.000000000              -0.408089892              -0.050134070               0.000000000              -0.431067419              -0.053225552               0.000000000              -0.454044946              -0.056317035               0.000000000              -0.477022473              -0.059408517               0.000000000              -0.500000000              -0.062500000               0.000000000              -0.130444442              -0.025947013               0.000000000              -0.153541665              -0.032137825               0.000000000              -0.176638887              -0.038328636               0.000000000              -0.199736109              -0.044519448               0.000000000              -0.222833332              -0.050710260               0.000000000              -0.245930554              -0.056901071               0.000000000              -0.269027776              -0.063091883               0.000000000              -0.292124999              -0.069282695               0.000000000              -0.315222221              -0.075473506               0.000000000              -0.338319444              -0.081664318               0.000000000              -0.361416666              -0.087855130               0.000000000              -0.384513888              -0.094045942               0.000000000              -0.407611111              -0.100236753               0.000000000              -0.430708333              -0.106427565               0.000000000              -0.453805555              -0.112618377               0.000000000              -0.476902778              -0.118809188               0.000000000              -0.500000000              -0.125000000               0.000000000              -0.127273065              -0.038607862               0.000000000              -0.150568498              -0.047913621               0.000000000              -0.173863932              -0.057219379               0.000000000              -0.197159365              -0.066525138               0.000000000              -0.220454798              -0.075830897               0.000000000              -0.243750232              -0.085136655               0.000000000              -0.267045665              -0.094442414               0.000000000              -0.290341099              -0.103748172               0.000000000              -0.313636532              -0.113053931               0.000000000              -0.336931966              -0.122359690               0.000000000              -0.360227399              -0.131665448               0.000000000              -0.383522833              -0.140971207               0.000000000              -0.406818266              -0.150276966               0.000000000              -0.430113700              -0.159582724               0.000000000              -0.453409133              -0.168888483               0.000000000              -0.476704567              -0.178194241               0.000000000              -0.500000000              -0.187500000               0.000000000              -0.122875978              -0.050896897               0.000000000              -0.146446229              -0.063340840               0.000000000              -0.170016481              -0.075784784               0.000000000              -0.193586732              -0.088228728               0.000000000              -0.217156983              -0.100672672               0.000000000              -0.240727235              -0.113116616               0.000000000              -0.264297486              -0.125560560               0.000000000              -0.287867738              -0.138004504               0.000000000              -0.311437989              -0.150448448               0.000000000              -0.335008240              -0.162892392               0.000000000              -0.358578492              -0.175336336               0.000000000              -0.382148743              -0.187780280               0.000000000              -0.405718994              -0.200224224               0.000000000              -0.429289246              -0.212668168               0.000000000              -0.452859497              -0.225112112               0.000000000              -0.476429749              -0.237556056               0.000000000              -0.500000000              -0.250000000               0.000000000              -0.117295528              -0.062695766               0.000000000              -0.141214558              -0.078308531               0.000000000              -0.165133587              -0.093921295               0.000000000              -0.189052617              -0.109534060               0.000000000              -0.212971646              -0.125146824               0.000000000              -0.236890676              -0.140759589               0.000000000              -0.260809705              -0.156372354               0.000000000              -0.284728735              -0.171985118               0.000000000              -0.308647764              -0.187597883               0.000000000              -0.332566794              -0.203210648               0.000000000              -0.356485823              -0.218823412               0.000000000              -0.380404853              -0.234436177               0.000000000              -0.404323882              -0.250048941               0.000000000              -0.428242912              -0.265661706               0.000000000              -0.452161941              -0.281274471               0.000000000              -0.476080971              -0.296887235               0.000000000              -0.500000000              -0.312500000               0.000000000              -0.110585458              -0.073890841               0.000000000              -0.134923867              -0.092710163               0.000000000              -0.159262276              -0.111529486               0.000000000              -0.183600685              -0.130348808               0.000000000              -0.207939094              -0.149168131               0.000000000              -0.232277503              -0.167987453               0.000000000              -0.256615912              -0.186806776               0.000000000              -0.280954320              -0.205626098               0.000000000              -0.305292729              -0.224445420               0.000000000              -0.329631138              -0.243264743               0.000000000              -0.353969547              -0.262084065               0.000000000              -0.378307956              -0.280903388               0.000000000              -0.402646365              -0.299722710               0.000000000              -0.426984773              -0.318542033               0.000000000              -0.451323182              -0.337361355               0.000000000              -0.475661591              -0.356180678               0.000000000              -0.500000000              -0.375000000               0.000000000              -0.102810390              -0.084374307               0.000000000              -0.127634741              -0.106444663               0.000000000              -0.152459092              -0.128515018               0.000000000              -0.177283442              -0.150585374               0.000000000              -0.202107793              -0.172655730               0.000000000              -0.226932143              -0.194726086               0.000000000              -0.251756494              -0.216796442               0.000000000              -0.276580845              -0.238866798               0.000000000              -0.301405195              -0.260937153               0.000000000              -0.326229546              -0.283007509               0.000000000              -0.351053896              -0.305077865               0.000000000              -0.375878247              -0.327148221               0.000000000              -0.400702598              -0.349218577               0.000000000              -0.425526948              -0.371288933               0.000000000              -0.450351299              -0.393359288               0.000000000              -0.475175649              -0.415429644               0.000000000              -0.500000000              -0.437500000               0.000000000              -0.094045202              -0.094045202               0.000000000              -0.119417377              -0.119417377               0.000000000              -0.144789552              -0.144789552               0.000000000              -0.170161727              -0.170161727               0.000000000              -0.195533901              -0.195533901               0.000000000              -0.220906076              -0.220906076               0.000000000              -0.246278251              -0.246278251               0.000000000              -0.271650426              -0.271650426               0.000000000              -0.297022601              -0.297022601               0.000000000              -0.322394776              -0.322394776               0.000000000              -0.347766951              -0.347766951               0.000000000              -0.373139126              -0.373139126               0.000000000              -0.398511300              -0.398511300               0.000000000              -0.423883475              -0.423883475               0.000000000              -0.449255650              -0.449255650               0.000000000              -0.474627825              -0.474627825               0.000000000              -0.500000000              -0.500000000               0.000000000              -0.084374307              -0.102810390               0.000000000              -0.106444663              -0.127634741               0.000000000              -0.128515018              -0.152459092               0.000000000              -0.150585374              -0.177283442               0.000000000              -0.172655730              -0.202107793               0.000000000              -0.194726086              -0.226932143               0.000000000              -0.216796442              -0.251756494               0.000000000              -0.238866798              -0.276580845               0.000000000              -0.260937153              -0.301405195               0.000000000              -0.283007509              -0.326229546               0.000000000              -0.305077865              -0.351053896               0.000000000              -0.327148221              -0.375878247               0.000000000              -0.349218577              -0.400702598               0.000000000              -0.371288933              -0.425526948               0.000000000              -0.393359288              -0.450351299               0.000000000              -0.415429644              -0.475175649               0.000000000              -0.437500000              -0.500000000               0.000000000              -0.073890841              -0.110585458               0.000000000              -0.092710163              -0.134923867               0.000000000              -0.111529486              -0.159262276               0.000000000              -0.130348808              -0.183600685               0.000000000              -0.149168131              -0.207939094               0.000000000              -0.167987453              -0.232277503               0.000000000              -0.186806776              -0.256615912               0.000000000              -0.205626098              -0.280954320               0.000000000              -0.224445420              -0.305292729               0.000000000              -0.243264743              -0.329631138               0.000000000              -0.262084065              -0.353969547               0.000000000              -0.280903388              -0.378307956               0.000000000              -0.299722710              -0.402646365               0.000000000              -0.318542033              -0.426984773               0.000000000              -0.337361355              -0.451323182               0.000000000              -0.356180678              -0.475661591               0.000000000              -0.375000000              -0.500000000               0.000000000              -0.062695766              -0.117295528               0.000000000              -0.078308531              -0.141214558               0.000000000              -0.093921295              -0.165133587               0.000000000              -0.109534060              -0.189052617               0.000000000              -0.125146824              -0.212971646               0.000000000              -0.140759589              -0.236890676               0.000000000              -0.156372354              -0.260809705               0.000000000              -0.171985118              -0.284728735               0.000000000              -0.187597883              -0.308647764               0.000000000              -0.203210648              -0.332566794               0.000000000              -0.218823412              -0.356485823               0.000000000              -0.234436177              -0.380404853               0.000000000              -0.250048941              -0.404323882               0.000000000              -0.265661706              -0.428242912               0.000000000              -0.281274471              -0.452161941               0.000000000              -0.296887235              -0.476080971               0.000000000              -0.312500000              -0.500000000               0.000000000              -0.050896897              -0.122875978               0.000000000              -0.063340840              -0.146446229               0.000000000              -0.075784784              -0.170016481               0.000000000              -0.088228728              -0.193586732               0.000000000              -0.100672672              -0.217156983               0.000000000              -0.113116616              -0.240727235               0.000000000              -0.125560560              -0.264297486               0.000000000              -0.138004504              -0.287867738               0.000000000              -0.150448448              -0.311437989               0.000000000              -0.162892392              -0.335008240               0.000000000              -0.175336336              -0.358578492               0.000000000              -0.187780280              -0.382148743               0.000000000              -0.200224224              -0.405718994               0.000000000              -0.212668168              -0.429289246               0.000000000              -0.225112112              -0.452859497               0.000000000              -0.237556056              -0.476429749               0.000000000              -0.250000000              -0.500000000               0.000000000              -0.038607862              -0.127273065               0.000000000              -0.047913621              -0.150568498               0.000000000              -0.057219379              -0.173863932               0.000000000              -0.066525138              -0.197159365               0.000000000              -0.075830897              -0.220454798               0.000000000              -0.085136655              -0.243750232               0.000000000              -0.094442414              -0.267045665               0.000000000              -0.103748172              -0.290341099               0.000000000              -0.113053931              -0.313636532               0.000000000              -0.122359690              -0.336931966               0.000000000              -0.131665448              -0.360227399               0.000000000              -0.140971207              -0.383522833               0.000000000              -0.150276966              -0.406818266               0.000000000              -0.159582724              -0.430113700               0.000000000              -0.168888483              -0.453409133               0.000000000              -0.178194241              -0.476704567               0.000000000              -0.187500000              -0.500000000               0.000000000              -0.025947013              -0.130444442               0.000000000              -0.032137825              -0.153541665               0.000000000              -0.038328636              -0.176638887               0.000000000              -0.044519448              -0.199736109               0.000000000              -0.050710260              -0.222833332               0.000000000              -0.056901071              -0.245930554               0.000000000              -0.063091883              -0.269027776               0.000000000              -0.069282695              -0.292124999               0.000000000              -0.075473506              -0.315222221               0.000000000              -0.081664318              -0.338319444               0.000000000              -0.087855130              -0.361416666               0.000000000              -0.094045942              -0.384513888               0.000000000              -0.100236753              -0.407611111               0.000000000              -0.106427565              -0.430708333               0.000000000              -0.112618377              -0.453805555               0.000000000              -0.118809188              -0.476902778               0.000000000              -0.125000000              -0.500000000               0.000000000              -0.013036280              -0.132359569               0.000000000              -0.016127762              -0.155337096               0.000000000              -0.019219245              -0.178314623               0.000000000              -0.022310727              -0.201292150               0.000000000              -0.025402210              -0.224269676               0.000000000              -0.028493692              -0.247247203               0.000000000              -0.031585175              -0.270224730               0.000000000              -0.034676657              -0.293202257               0.000000000              -0.037768140              -0.316179784               0.000000000              -0.040859622              -0.339157311               0.000000000              -0.043951105              -0.362134838               0.000000000              -0.047042587              -0.385112365               0.000000000              -0.050134070              -0.408089892               0.000000000              -0.053225552              -0.431067419               0.000000000              -0.056317035              -0.454044946               0.000000000              -0.059408517              -0.477022473               0.000000000              -0.062500000              -0.500000000               0.000000000               0.000000000              -0.133000000               0.000000000               0.000000000              -0.155937500               0.000000000               0.000000000              -0.178875000               0.000000000               0.000000000              -0.201812500               0.000000000               0.000000000              -0.224750000               0.000000000               0.000000000              -0.247687500               0.000000000               0.000000000              -0.270625000               0.000000000               0.000000000              -0.293562500               0.000000000               0.000000000              -0.316500000               0.000000000               0.000000000              -0.339437500               0.000000000               0.000000000              -0.362375000               0.000000000               0.000000000              -0.385312500               0.000000000               0.000000000              -0.408250000               0.000000000               0.000000000              -0.431187500               0.000000000               0.000000000              -0.454125000               0.000000000               0.000000000              -0.477062500               0.000000000               0.000000000              -0.500000000               0.000000000              -0.133000000               0.000000000               0.000000000              -0.155937500               0.000000000               0.000000000              -0.178875000               0.000000000               0.000000000              -0.201812500               0.000000000               0.000000000              -0.224750000               0.000000000               0.000000000              -0.247687500               0.000000000               0.000000000              -0.270625000               0.000000000               0.000000000              -0.293562500               0.000000000               0.000000000              -0.316500000               0.000000000               0.000000000              -0.339437500               0.000000000               0.000000000              -0.362375000               0.000000000               0.000000000              -0.385312500               0.000000000               0.000000000              -0.408250000               0.000000000               0.000000000              -0.431187500               0.000000000               0.000000000              -0.454125000               0.000000000               0.000000000              -0.477062500               0.000000000               0.000000000              -0.500000000               0.000000000               0.000000000              -0.132359569               0.013036280               0.000000000              -0.155337096               0.016127762               0.000000000              -0.178314623               0.019219245               0.000000000              -0.201292150               0.022310727               0.000000000              -0.224269676               0.025402210               0.000000000              -0.247247203               0.028493692               0.000000000              -0.270224730               0.031585175               0.000000000              -0.293202257               0.034676657               0.000000000              -0.316179784               0.037768140               0.000000000              -0.339157311               0.040859622               0.000000000              -0.362134838               0.043951105               0.000000000              -0.385112365               0.047042587               0.000000000              -0.408089892               0.050134070               0.000000000              -0.431067419               0.053225552               0.000000000              -0.454044946               0.056317035               0.000000000              -0.477022473               0.059408517               0.000000000              -0.500000000               0.062500000               0.000000000              -0.130444442               0.025947013               0.000000000              -0.153541665               0.032137825               0.000000000              -0.176638887               0.038328636               0.000000000              -0.199736109               0.044519448               0.000000000              -0.222833332               0.050710260               0.000000000              -0.245930554               0.056901071               0.000000000              -0.269027776               0.063091883               0.000000000              -0.292124999               0.069282695               0.000000000              -0.315222221               0.075473506               0.000000000              -0.338319444               0.081664318               0.000000000              -0.361416666               0.087855130               0.000000000              -0.384513888               0.094045942               0.000000000              -0.407611111               0.100236753               0.000000000              -0.430708333               0.106427565               0.000000000              -0.453805555               0.112618377               0.000000000              -0.476902778               0.118809188               0.000000000              -0.500000000               0.125000000               0.000000000              -0.127273065               0.038607862               0.000000000              -0.150568498               0.047913621               0.000000000              -0.173863932               0.057219379               0.000000000              -0.197159365               0.066525138               0.000000000              -0.220454798               0.075830897               0.000000000              -0.243750232               0.085136655               0.000000000              -0.267045665               0.094442414               0.000000000              -0.290341099               0.103748172               0.000000000              -0.313636532               0.113053931               0.000000000              -0.336931966               0.122359690               0.000000000              -0.360227399               0.131665448               0.000000000              -0.383522833               0.140971207               0.000000000              -0.406818266               0.150276966               0.000000000              -0.430113700               0.159582724               0.000000000              -0.453409133               0.168888483               0.000000000              -0.476704567               0.178194241               0.000000000              -0.500000000               0.187500000               0.000000000              -0.122875978               0.050896897               0.000000000              -0.146446229               0.063340840               0.000000000              -0.170016481               0.075784784               0.000000000              -0.193586732               0.088228728               0.000000000              -0.217156983               0.100672672               0.000000000              -0.240727235               0.113116616               0.000000000              -0.264297486               0.125560560               0.000000000              -0.287867738               0.138004504               0.000000000              -0.311437989               0.150448448               0.000000000              -0.335008240               0.162892392               0.000000000              -0.358578492               0.175336336               0.000000000              -0.382148743               0.187780280               0.000000000              -0.405718994               0.200224224               0.000000000              -0.429289246               0.212668168               0.000000000              -0.452859497               0.225112112               0.000000000              -0.476429749               0.237556056               0.000000000              -0.500000000               0.250000000               0.000000000              -0.117295528               0.062695766               0.000000000              -0.141214558               0.078308531               0.000000000              -0.165133587               0.093921295               0.000000000              -0.189052617               0.109534060               0.000000000              -0.212971646               0.125146824               0.000000000              -0.236890676               0.140759589               0.000000000              -0.260809705               0.156372354               0.000000000              -0.284728735               0.171985118               0.000000000              -0.308647764               0.187597883               0.000000000              -0.332566794               0.203210648               0.000000000              -0.356485823               0.218823412               0.000000000              -0.380404853               0.234436177               0.000000000              -0.404323882               0.250048941               0.000000000              -0.428242912               0.265661706               0.000000000              -0.452161941               0.281274471               0.000000000              -0.476080971               0.296887235               0.000000000              -0.500000000               0.312500000               0.000000000              -0.110585458               0.073890841               0.000000000              -0.134923867               0.092710163               0.000000000              -0.159262276               0.111529486               0.000000000              -0.183600685               0.130348808               0.000000000              -0.207939094               0.149168131               0.000000000              -0.232277503               0.167987453               0.000000000              -0.256615912               0.186806776               0.000000000              -0.280954320               0.205626098               0.000000000              -0.305292729               0.224445420               0.000000000              -0.329631138               0.243264743               0.000000000              -0.353969547               0.262084065               0.000000000              -0.378307956               0.280903388               0.000000000              -0.402646365               0.299722710               0.000000000              -0.426984773               0.318542033               0.000000000              -0.451323182               0.337361355               0.000000000              -0.475661591               0.356180678               0.000000000              -0.500000000               0.375000000               0.000000000              -0.102810390               0.084374307               0.000000000              -0.127634741               0.106444663               0.000000000              -0.152459092               0.128515018               0.000000000              -0.177283442               0.150585374               0.000000000              -0.202107793               0.172655730               0.000000000              -0.226932143               0.194726086               0.000000000              -0.251756494               0.216796442               0.000000000              -0.276580845               0.238866798               0.000000000              -0.301405195               0.260937153               0.000000000              -0.326229546               0.283007509               0.000000000              -0.351053896               0.305077865               0.000000000              -0.375878247               0.327148221               0.000000000              -0.400702598               0.349218577               0.000000000              -0.425526948               0.371288933               0.000000000              -0.450351299               0.393359288               0.000000000              -0.475175649               0.415429644               0.000000000              -0.500000000               0.437500000               0.000000000              -0.094045202               0.094045202               0.000000000              -0.119417377               0.119417377               0.000000000              -0.144789552               0.144789552               0.000000000              -0.170161727               0.170161727               0.000000000              -0.195533901               0.195533901               0.000000000              -0.220906076               0.220906076               0.000000000              -0.246278251               0.246278251               0.000000000              -0.271650426               0.271650426               0.000000000              -0.297022601               0.297022601               0.000000000              -0.322394776               0.322394776               0.000000000              -0.347766951               0.347766951               0.000000000              -0.373139126               0.373139126               0.000000000              -0.398511300               0.398511300               0.000000000              -0.423883475               0.423883475               0.000000000              -0.449255650               0.449255650               0.000000000              -0.474627825               0.474627825               0.000000000              -0.500000000               0.500000000               0.000000000              -0.084374307               0.102810390               0.000000000              -0.106444663               0.127634741               0.000000000              -0.128515018               0.152459092               0.000000000              -0.150585374               0.177283442               0.000000000              -0.172655730               0.202107793               0.000000000              -0.194726086               0.226932143               0.000000000              -0.216796442               0.251756494               0.000000000              -0.238866798               0.276580845               0.000000000              -0.260937153               0.301405195               0.000000000              -0.283007509               0.326229546               0.000000000              -0.305077865               0.351053896               0.000000000              -0.327148221               0.375878247               0.000000000              -0.349218577               0.400702598               0.000000000              -0.371288933               0.425526948               0.000000000              -0.393359288               0.450351299               0.000000000              -0.415429644               0.475175649               0.000000000              -0.437500000               0.500000000               0.000000000              -0.073890841               0.110585458               0.000000000              -0.092710163               0.134923867               0.000000000              -0.111529486               0.159262276               0.000000000              -0.130348808               0.183600685               0.000000000              -0.149168131               0.207939094               0.000000000              -0.167987453               0.232277503               0.000000000              -0.186806776               0.256615912               0.000000000              -0.205626098               0.280954320               0.000000000              -0.224445420               0.305292729               0.000000000              -0.243264743               0.329631138               0.000000000              -0.262084065               0.353969547               0.000000000              -0.280903388               0.378307956               0.000000000              -0.299722710               0.402646365               0.000000000              -0.318542033               0.426984773               0.000000000              -0.337361355               0.451323182               0.000000000              -0.356180678               0.475661591               0.000000000              -0.375000000               0.500000000               0.000000000              -0.062695766               0.117295528               0.000000000              -0.078308531               0.141214558               0.000000000              -0.093921295               0.165133587               0.000000000              -0.109534060               0.189052617               0.000000000              -0.125146824               0.212971646               0.000000000              -0.140759589               0.236890676               0.000000000              -0.156372354               0.260809705               0.000000000              -0.171985118               0.284728735               0.000000000              -0.187597883               0.308647764               0.000000000              -0.203210648               0.332566794               0.000000000              -0.218823412               0.356485823               0.000000000              -0.234436177               0.380404853               0.000000000              -0.250048941               0.404323882               0.000000000              -0.265661706               0.428242912               0.000000000              -0.281274471               0.452161941               0.000000000              -0.296887235               0.476080971               0.000000000              -0.312500000               0.500000000               0.000000000              -0.050896897               0.122875978               0.000000000              -0.063340840               0.146446229               0.000000000              -0.075784784               0.170016481               0.000000000              -0.088228728               0.193586732               0.000000000              -0.100672672               0.217156983               0.000000000              -0.113116616               0.240727235               0.000000000              -0.125560560               0.264297486               0.000000000              -0.138004504               0.287867738               0.000000000              -0.150448448               0.311437989               0.000000000              -0.162892392               0.335008240               0.000000000              -0.175336336               0.358578492               0.000000000              -0.187780280               0.382148743               0.000000000              -0.200224224               0.405718994               0.000000000              -0.212668168               0.429289246               0.000000000              -0.225112112               0.452859497               0.000000000              -0.237556056               0.476429749               0.000000000              -0.250000000               0.500000000               0.000000000              -0.038607862               0.127273065               0.000000000              -0.047913621               0.150568498               0.000000000              -0.057219379               0.173863932               0.000000000              -0.066525138               0.197159365               0.000000000              -0.075830897               0.220454798               0.000000000              -0.085136655               0.243750232               0.000000000              -0.094442414               0.267045665               0.000000000              -0.103748172               0.290341099               0.000000000              -0.113053931               0.313636532               0.000000000              -0.122359690               0.336931966               0.000000000              -0.131665448               0.360227399               0.000000000              -0.140971207               0.383522833               0.000000000              -0.150276966               0.406818266               0.000000000              -0.159582724               0.430113700               0.000000000              -0.168888483               0.453409133               0.000000000              -0.178194241               0.476704567               0.000000000              -0.187500000               0.500000000               0.000000000              -0.025947013               0.130444442               0.000000000              -0.032137825               0.153541665               0.000000000              -0.038328636               0.176638887               0.000000000              -0.044519448               0.199736109               0.000000000              -0.050710260               0.222833332               0.000000000              -0.056901071               0.245930554               0.000000000              -0.063091883               0.269027776               0.000000000              -0.069282695               0.292124999               0.000000000              -0.075473506               0.315222221               0.000000000              -0.081664318               0.338319444               0.000000000              -0.087855130               0.361416666               0.000000000              -0.094045942               0.384513888               0.000000000              -0.100236753               0.407611111               0.000000000              -0.106427565               0.430708333               0.000000000              -0.112618377               0.453805555               0.000000000              -0.118809188               0.476902778               0.000000000              -0.125000000               0.500000000               0.000000000              -0.013036280               0.132359569               0.000000000              -0.016127762               0.155337096               0.000000000              -0.019219245               0.178314623               0.000000000              -0.022310727               0.201292150               0.000000000              -0.025402210               0.224269676               0.000000000              -0.028493692               0.247247203               0.000000000              -0.031585175               0.270224730               0.000000000              -0.034676657               0.293202257               0.000000000              -0.037768140               0.316179784               0.000000000              -0.040859622               0.339157311               0.000000000              -0.043951105               0.362134838               0.000000000              -0.047042587               0.385112365               0.000000000              -0.050134070               0.408089892               0.000000000              -0.053225552               0.431067419               0.000000000              -0.056317035               0.454044946               0.000000000              -0.059408517               0.477022473               0.000000000              -0.062500000               0.500000000               0.000000000               0.000000000               0.133000000               0.000000000               0.000000000               0.155937500               0.000000000               0.000000000               0.178875000               0.000000000               0.000000000               0.201812500               0.000000000               0.000000000               0.224750000               0.000000000               0.000000000               0.247687500               0.000000000               0.000000000               0.270625000               0.000000000               0.000000000               0.293562500               0.000000000               0.000000000               0.316500000               0.000000000               0.000000000               0.339437500               0.000000000               0.000000000               0.362375000               0.000000000               0.000000000               0.385312500               0.000000000               0.000000000               0.408250000               0.000000000               0.000000000               0.431187500               0.000000000               0.000000000               0.454125000               0.000000000               0.000000000               0.477062500               0.000000000               0.000000000               0.500000000               0.000000000 </DataArray>
</Points>
<Cells>
<DataArray type="Int32"                                    Name="connectivity"                                                      NumberOfComponents=" 1" format="ascii">
         0          1         18         17          1          2         19         18          2          3         20         19          3          4         21         20          4          5         22         21          5          6         23         22          6          7         24         23          7          8         25         24          8          9         26         25          9         10         27         26         10         11         28         27         11         12         29         28         12         13         30         29         13         14         31         30         14         15         32         31         15         16         33         32         17         18         35         34         18         19         36         35         19         20         37         36         20         21         38         37         21         22         39         38         22         23         40         39         23         24         41         40         24         25         42         41         25         26         43         42         26         27         44         43         27         28         45         44         28         29         46         45         29         30         47         46         30         31         48         47         31         32         49         48         32         33         50         49         34         35         52         51         35         36         53         52         36         37         54         53         37         38         55         54         38         39         56         55         39         40         57         56         40         41         58         57         41         42         59         58         42         43         60         59         43         44         61         60         44         45         62         61         45         46         63         62         46         47         64         63         47         48         65         64         48         49         66         65         49         50         67         66         51         52         69         68         52         53         70         69         53         54         71         70         54         55         72         71         55         56         73         72         56         57         74         73         57         58         75         74         58         59         76         75         59         60         77         76         60         61         78         77         61         62         79         78         62         63         80         79         63         64         81         80         64         65         82         81         65         66         83         82         66         67         84         83         68         69         86         85         69         70         87         86         70         71         88         87         71         72         89         88         72         73         90         89         73         74         91         90         74         75         92         91         75         76         93         92         76         77         94         93         77         78         95         94         78         79         96         95         79         80         97         96         80         81         98         97         81         82         99         98         82         83        100         99         83         84        101        100         85         86        103        102         86         87        104        103         87         88        105        104         88         89        106        105         89         90        107        106         90         91        108        107         91         92        109        108         92         93        110        109         93         94        111        110         94         95        112        111         95         96        113        112         96         97        114        113         97         98        115        114         98         99        116        115         99        100        117        116        100        101        118        117        102        103        120        119        103        104        121        120        104        105        122        121        105        106        123        122        106        107        124        123        107        108        125        124        108        109        126        125        109        110        127        126        110        111        128        127        111        112        129        128        112        113        130        129        113        114        131        130        114        115        132        131        115        116        133        132        116        117        134        133        117        118        135        134        119        120        137        136        120        121        138        137        121        122        139        138        122        123        140        139        123        124        141        140        124        125        142        141        125        126        143        142        126        127        144        143        127        128        145        144        128        129        146        145        129        130        147        146        130        131        148        147        131        132        149        148        132        133        150        149        133        134        151        150        134        135        152        151        136        137        154        153        137        138        155        154        138        139        156        155        139        140        157        156        140        141        158        157        141        142        159        158        142        143        160        159        143        144        161        160        144        145        162        161        145        146        163        162        146        147        164        163        147        148        165        164        148        149        166        165        149        150        167        166        150        151        168        167        151        152        169        168        153        154        171        170        154        155        172        171        155        156        173        172        156        157        174        173        157        158        175        174        158        159        176        175        159        160        177        176        160        161        178        177        161        162        179        178        162        163        180        179        163        164        181        180        164        165        182        181        165        166        183        182        166        167        184        183        167        168        185        184        168        169        186        185        170        171        188        187        171        172        189        188        172        173        190        189        173        174        191        190        174        175        192        191        175        176        193        192        176        177        194        193        177        178        195        194        178        179        196        195        179        180        197        196        180        181        198        197        181        182        199        198        182        183        200        199        183        184        201        200        184        185        202        201        185        186        203        202        187        188        205        204        188        189        206        205        189        190        207        206        190        191        208        207        191        192        209        208        192        193        210        209        193        194        211        210        194        195        212        211        195        196        213        212        196        197        214        213        197        198        215        214        198        199        216        215        199        200        217        216        200        201        218        217        201        202        219        218        202        203        220        219        204        205        222        221        205        206        223        222        206        207        224        223        207        208        225        224        208        209        226        225        209        210        227        226        210        211        228        227        211        212        229        228        212        213        230        229        213        214        231        230        214        215        232        231        215        216        233        232        216        217        234        233        217        218        235        234        218        219        236        235        219        220        237        236        221        222        239        238        222        223        240        239        223        224        241        240        224        225        242        241        225        226        243        242        226        227        244        243        227        228        245        244        228        229        246        245        229        230        247        246        230        231        248        247        231        232        249        248        232        233        250        249        233        234        251        250        234        235        252        251        235        236        253        252        236        237        254        253        238        239        256        255        239        240        257        256        240        241        258        257        241        242        259        258        242        243        260        259        243        244        261        260        244        245        262        261        245        246        263        262        246        247        264        263        247        248        265        264        248        249        266        265        249        250        267        266        250        251        268        267        251        252        269        268        252        253        270        269        253        254        271        270        255        256        273        272        256        257        274        273        257        258        275        274        258        259        276        275        259        260        277        276        260        261        278        277        261        262        279        278        262        263        280        279        263        264        281        280        264        265        282        281        265        266        283        282        266        267        284        283        267        268        285        284        268        269        286        285        269        270        287        286        270        271        288        287        306        307          1          0        307        308          2          1        308        309          3          2        309        310          4          3        310        311          5          4        311        312          6          5        312        313          7          6        313        314          8          7        314        315          9          8        315        316         10          9        316        317         11         10        317        318         12         11        318        319         13         12        319        320         14         13        320        321         15         14        321        322         16         15        323        324        307        306        324        325        308        307        325        326        309        308        326        327        310        309        327        328        311        310        328        329        312        311        329        330        313        312        330        331        314        313        331        332        315        314        332        333        316        315        333        334        317        316        334        335        318        317        335        336        319        318        336        337        320        319        337        338        321        320        338        339        322        321        340        341        324        323        341        342        325        324        342        343        326        325        343        344        327        326        344        345        328        327        345        346        329        328        346        347        330        329        347        348        331        330        348        349        332        331        349        350        333        332        350        351        334        333        351        352        335        334        352        353        336        335        353        354        337        336        354        355        338        337        355        356        339        338        357        358        341        340        358        359        342        341        359        360        343        342        360        361        344        343        361        362        345        344        362        363        346        345        363        364        347        346        364        365        348        347        365        366        349        348        366        367        350        349        367        368        351        350        368        369        352        351        369        370        353        352        370        371        354        353        371        372        355        354        372        373        356        355        374        375        358        357        375        376        359        358        376        377        360        359        377        378        361        360        378        379        362        361        379        380        363        362        380        381        364        363        381        382        365        364        382        383        366        365        383        384        367        366        384        385        368        367        385        386        369        368        386        387        370        369        387        388        371        370        388        389        372        371        389        390        373        372        391        392        375        374        392        393        376        375        393        394        377        376        394        395        378        377        395        396        379        378        396        397        380        379        397        398        381        380        398        399        382        381        399        400        383        382        400        401        384        383        401        402        385        384        402        403        386        385        403        404        387        386        404        405        388        387        405        406        389        388        406        407        390        389        408        409        392        391        409        410        393        392        410        411        394        393        411        412        395        394        412        413        396        395        413        414        397        396        414        415        398        397        415        416        399        398        416        417        400        399        417        418        401        400        418        419        402        401        419        420        403        402        420        421        404        403        421        422        405        404        422        423        406        405        423        424        407        406        425        426        409        408        426        427        410        409        427        428        411        410        428        429        412        411        429        430        413        412        430        431        414        413        431        432        415        414        432        433        416        415        433        434        417        416        434        435        418        417        435        436        419        418        436        437        420        419        437        438        421        420        438        439        422        421        439        440        423        422        440        441        424        423        442        443        426        425        443        444        427        426        444        445        428        427        445        446        429        428        446        447        430        429        447        448        431        430        448        449        432        431        449        450        433        432        450        451        434        433        451        452        435        434        452        453        436        435        453        454        437        436        454        455        438        437        455        456        439        438        456        457        440        439        457        458        441        440        459        460        443        442        460        461        444        443        461        462        445        444        462        463        446        445        463        464        447        446        464        465        448        447        465        466        449        448        466        467        450        449        467        468        451        450        468        469        452        451        469        470        453        452        470        471        454        453        471        472        455        454        472        473        456        455        473        474        457        456        474        475        458        457        476        477        460        459        477        478        461        460        478        479        462        461        479        480        463        462        480        481        464        463        481        482        465        464        482        483        466        465        483        484        467        466        484        485        468        467        485        486        469        468        486        487        470        469        487        488        471        470        488        489        472        471        489        490        473        472        490        491        474        473        491        492        475        474        493        494        477        476        494        495        478        477        495        496        479        478        496        497        480        479        497        498        481        480        498        499        482        481        499        500        483        482        500        501        484        483        501        502        485        484        502        503        486        485        503        504        487        486        504        505        488        487        505        506        489        488        506        507        490        489        507        508        491        490        508        509        492        491        510        511        494        493        511        512        495        494        512        513        496        495        513        514        497        496        514        515        498        497        515        516        499        498        516        517        500        499        517        518        501        500        518        519        502        501        519        520        503        502        520        521        504        503        521        522        505        504        522        523        506        505        523        524        507        506        524        525        508        507        525        526        509        508        527        528        511        510        528        529        512        511        529        530        513        512        530        531        514        513        531        532        515        514        532        533        516        515        533        534        517        516        534        535        518        517        535        536        519        518        536        537        520        519        537        538        521        520        538        539        522        521        539        540        523        522        540        541        524        523        541        542        525        524        542        543        526        525        544        545        528        527        545        546        529        528        546        547        530        529        547        548        531        530        548        549        532        531        549        550        533        532        550        551        534        533        551        552        535        534        552        553        536        535        553        554        537        536        554        555        538        537        555        556        539        538        556        557        540        539        557        558        541        540        558        559        542        541        559        560        543        542        561        562        545        544        562        563        546        545        563        564        547        546        564        565        548        547        565        566        549        548        566        567        550        549        567        568        551        550        568        569        552        551        569        570        553        552        570        571        554        553        571        572        555        554        572        573        556        555        573        574        557        556        574        575        558        557        575        576        559        558        576        577        560        559        578        579        596        595        579        580        597        596        580        581        598        597        581        582        599        598        582        583        600        599        583        584        601        600        584        585        602        601        585        586        603        602        586        587        604        603        587        588        605        604        588        589        606        605        589        590        607        606        590        591        608        607        591        592        609        608        592        593        610        609        593        594        611        610        595        596        613        612        596        597        614        613        597        598        615        614        598        599        616        615        599        600        617        616        600        601        618        617        601        602        619        618        602        603        620        619        603        604        621        620        604        605        622        621        605        606        623        622        606        607        624        623        607        608        625        624        608        609        626        625        609        610        627        626        610        611        628        627        612        613        630        629        613        614        631        630        614        615        632        631        615        616        633        632        616        617        634        633        617        618        635        634        618        619        636        635        619        620        637        636        620        621        638        637        621        622        639        638        622        623        640        639        623        624        641        640        624        625        642        641        625        626        643        642        626        627        644        643        627        628        645        644        629        630        647        646        630        631        648        647        631        632        649        648        632        633        650        649        633        634        651        650        634        635        652        651        635        636        653        652        636        637        654        653        637        638        655        654        638        639        656        655        639        640        657        656        640        641        658        657        641        642        659        658        642        643        660        659        643        644        661        660        644        645        662        661        646        647        664        663        647        648        665        664        648        649        666        665        649        650        667        666        650        651        668        667        651        652        669        668        652        653        670        669        653        654        671        670        654        655        672        671        655        656        673        672        656        657        674        673        657        658        675        674        658        659        676        675        659        660        677        676        660        661        678        677        661        662        679        678        663        664        681        680        664        665        682        681        665        666        683        682        666        667        684        683        667        668        685        684        668        669        686        685        669        670        687        686        670        671        688        687        671        672        689        688        672        673        690        689        673        674        691        690        674        675        692        691        675        676        693        692        676        677        694        693        677        678        695        694        678        679        696        695        680        681        698        697        681        682        699        698        682        683        700        699        683        684        701        700        684        685        702        701        685        686        703        702        686        687        704        703        687        688        705        704        688        689        706        705        689        690        707        706        690        691        708        707        691        692        709        708        692        693        710        709        693        694        711        710        694        695        712        711        695        696        713        712        697        698        715        714        698        699        716        715        699        700        717        716        700        701        718        717        701        702        719        718        702        703        720        719        703        704        721        720        704        705        722        721        705        706        723        722        706        707        724        723        707        708        725        724        708        709        726        725        709        710        727        726        710        711        728        727        711        712        729        728        712        713        730        729        714        715        732        731        715        716        733        732        716        717        734        733        717        718        735        734        718        719        736        735        719        720        737        736        720        721        738        737        721        722        739        738        722        723        740        739        723        724        741        740        724        725        742        741        725        726        743        742        726        727        744        743        727        728        745        744        728        729        746        745        729        730        747        746        731        732        749        748        732        733        750        749        733        734        751        750        734        735        752        751        735        736        753        752        736        737        754        753        737        738        755        754        738        739        756        755        739        740        757        756        740        741        758        757        741        742        759        758        742        743        760        759        743        744        761        760        744        745        762        761        745        746        763        762        746        747        764        763        748        749        766        765        749        750        767        766        750        751        768        767        751        752        769        768        752        753        770        769        753        754        771        770        754        755        772        771        755        756        773        772        756        757        774        773        757        758        775        774        758        759        776        775        759        760        777        776        760        761        778        777        761        762        779        778        762        763        780        779        763        764        781        780        765        766        783        782        766        767        784        783        767        768        785        784        768        769        786        785        769        770        787        786        770        771        788        787        771        772        789        788        772        773        790        789        773        774        791        790        774        775        792        791        775        776        793        792        776        777        794        793        777        778        795        794        778        779        796        795        779        780        797        796        780        781        798        797        782        783        800        799        783        784        801        800        784        785        802        801        785        786        803        802        786        787        804        803        787        788        805        804        788        789        806        805        789        790        807        806        790        791        808        807        791        792        809        808        792        793        810        809        793        794        811        810        794        795        812        811        795        796        813        812        796        797        814        813        797        798        815        814        799        800        817        816        800        801        818        817        801        802        819        818        802        803        820        819        803        804        821        820        804        805        822        821        805        806        823        822        806        807        824        823        807        808        825        824        808        809        826        825        809        810        827        826        810        811        828        827        811        812        829        828        812        813        830        829        813        814        831        830        814        815        832        831        816        817        834        833        817        818        835        834        818        819        836        835        819        820        837        836        820        821        838        837        821        822        839        838        822        823        840        839        823        824        841        840        824        825        842        841        825        826        843        842        826        827        844        843        827        828        845        844        828        829        846        845        829        830        847        846        830        831        848        847        831        832        849        848        833        834        562        561        834        835        563        562        835        836        564        563        836        837        565        564        837        838        566        565        838        839        567        566        839        840        568        567        840        841        569        568        841        842        570        569        842        843        571        570        843        844        572        571        844        845        573        572        845        846        574        573        846        847        575        574        847        848        576        575        848        849        577        576        884        885        579        578        885        886        580        579        886        887        581        580        887        888        582        581        888        889        583        582        889        890        584        583        890        891        585        584        891        892        586        585        892        893        587        586        893        894        588        587        894        895        589        588        895        896        590        589        896        897        591        590        897        898        592        591        898        899        593        592        899        900        594        593        901        902        885        884        902        903        886        885        903        904        887        886        904        905        888        887        905        906        889        888        906        907        890        889        907        908        891        890        908        909        892        891        909        910        893        892        910        911        894        893        911        912        895        894        912        913        896        895        913        914        897        896        914        915        898        897        915        916        899        898        916        917        900        899        918        919        902        901        919        920        903        902        920        921        904        903        921        922        905        904        922        923        906        905        923        924        907        906        924        925        908        907        925        926        909        908        926        927        910        909        927        928        911        910        928        929        912        911        929        930        913        912        930        931        914        913        931        932        915        914        932        933        916        915        933        934        917        916        935        936        919        918        936        937        920        919        937        938        921        920        938        939        922        921        939        940        923        922        940        941        924        923        941        942        925        924        942        943        926        925        943        944        927        926        944        945        928        927        945        946        929        928        946        947        930        929        947        948        931        930        948        949        932        931        949        950        933        932        950        951        934        933        952        953        936        935        953        954        937        936        954        955        938        937        955        956        939        938        956        957        940        939        957        958        941        940        958        959        942        941        959        960        943        942        960        961        944        943        961        962        945        944        962        963        946        945        963        964        947        946        964        965        948        947        965        966        949        948        966        967        950        949        967        968        951        950        969        970        953        952        970        971        954        953        971        972        955        954        972        973        956        955        973        974        957        956        974        975        958        957        975        976        959        958        976        977        960        959        977        978        961        960        978        979        962        961        979        980        963        962        980        981        964        963        981        982        965        964        982        983        966        965        983        984        967        966        984        985        968        967        986        987        970        969        987        988        971        970        988        989        972        971        989        990        973        972        990        991        974        973        991        992        975        974        992        993        976        975        993        994        977        976        994        995        978        977        995        996        979        978        996        997        980        979        997        998        981        980        998        999        982        981        999       1000        983        982       1000       1001        984        983       1001       1002        985        984       1003       1004        987        986       1004       1005        988        987       1005       1006        989        988       1006       1007        990        989       1007       1008        991        990       1008       1009        992        991       1009       1010        993        992       1010       1011        994        993       1011       1012        995        994       1012       1013        996        995       1013       1014        997        996       1014       1015        998        997       1015       1016        999        998       1016       1017       1000        999       1017       1018       1001       1000       1018       1019       1002       1001       1020       1021       1004       1003       1021       1022       1005       1004       1022       1023       1006       1005       1023       1024       1007       1006       1024       1025       1008       1007       1025       1026       1009       1008       1026       1027       1010       1009       1027       1028       1011       1010       1028       1029       1012       1011       1029       1030       1013       1012       1030       1031       1014       1013       1031       1032       1015       1014       1032       1033       1016       1015       1033       1034       1017       1016       1034       1035       1018       1017       1035       1036       1019       1018       1037       1038       1021       1020       1038       1039       1022       1021       1039       1040       1023       1022       1040       1041       1024       1023       1041       1042       1025       1024       1042       1043       1026       1025       1043       1044       1027       1026       1044       1045       1028       1027       1045       1046       1029       1028       1046       1047       1030       1029       1047       1048       1031       1030       1048       1049       1032       1031       1049       1050       1033       1032       1050       1051       1034       1033       1051       1052       1035       1034       1052       1053       1036       1035       1054       1055       1038       1037       1055       1056       1039       1038       1056       1057       1040       1039       1057       1058       1041       1040       1058       1059       1042       1041       1059       1060       1043       1042       1060       1061       1044       1043       1061       1062       1045       1044       1062       1063       1046       1045       1063       1064       1047       1046       1064       1065       1048       1047       1065       1066       1049       1048       1066       1067       1050       1049       1067       1068       1051       1050       1068       1069       1052       1051       1069       1070       1053       1052       1071       1072       1055       1054       1072       1073       1056       1055       1073       1074       1057       1056       1074       1075       1058       1057       1075       1076       1059       1058       1076       1077       1060       1059       1077       1078       1061       1060       1078       1079       1062       1061       1079       1080       1063       1062       1080       1081       1064       1063       1081       1082       1065       1064       1082       1083       1066       1065       1083       1084       1067       1066       1084       1085       1068       1067       1085       1086       1069       1068       1086       1087       1070       1069       1088       1089       1072       1071       1089       1090       1073       1072       1090       1091       1074       1073       1091       1092       1075       1074       1092       1093       1076       1075       1093       1094       1077       1076       1094       1095       1078       1077       1095       1096       1079       1078       1096       1097       1080       1079       1097       1098       1081       1080       1098       1099       1082       1081       1099       1100       1083       1082       1100       1101       1084       1083       1101       1102       1085       1084       1102       1103       1086       1085       1103       1104       1087       1086       1105       1106       1089       1088       1106       1107       1090       1089       1107       1108       1091       1090       1108       1109       1092       1091       1109       1110       1093       1092       1110       1111       1094       1093       1111       1112       1095       1094       1112       1113       1096       1095       1113       1114       1097       1096       1114       1115       1098       1097       1115       1116       1099       1098       1116       1117       1100       1099       1117       1118       1101       1100       1118       1119       1102       1101       1119       1120       1103       1102       1120       1121       1104       1103       1122       1123       1106       1105       1123       1124       1107       1106       1124       1125       1108       1107       1125       1126       1109       1108       1126       1127       1110       1109       1127       1128       1111       1110       1128       1129       1112       1111       1129       1130       1113       1112       1130       1131       1114       1113       1131       1132       1115       1114       1132       1133       1116       1115       1133       1134       1117       1116       1134       1135       1118       1117       1135       1136       1119       1118       1136       1137       1120       1119       1137       1138       1121       1120        272        273       1123       1122        273        274       1124       1123        274        275       1125       1124        275        276       1126       1125        276        277       1127       1126        277        278       1128       1127        278        279       1129       1128        279        280       1130       1129        280        281       1131       1130        281        282       1132       1131        282        283       1133       1132        283        284       1134       1133        284        285       1135       1134        285        286       1136       1135        286        287       1137       1136        287        288       1138       1137 </DataArray>
<DataArray type="Int32"                                    Name="offsets"                                                      NumberOfComponents=" 1" format="ascii">
         4          8         12         16         20         24         28         32         36         40         44         48         52         56         60         64         68         72         76         80         84         88         92         96        100        104        108        112        116        120        124        128        132        136        140        144        148        152        156        160        164        168        172        176        180        184        188        192        196        200        204        208        212        216        220        224        228        232        236        240        244        248        252        256        260        264        268        272        276        280        284        288        292        296        300        304        308        312        316        320        324        328        332        336        340        344        348        352        356        360        364        368        372        376        380        384        388        392        396        400        404        408        412        416        420        424        428        432        436        440        444        448        452        456        460        464        468        472        476        480        484        488        492        496        500        504        508        512        516        520        524        528        532        536        540        544        548        552        556        560        564        568        572        576        580        584        588        592        596        600        604        608        612        616        620        624        628        632        636        640        644        648        652        656        660        664        668        672        676        680        684        688        692        696        700        704        708        712        716        720        724        728        732        736        740        744        748        752        756        760        764        768        772        776        780        784        788        792        796        800        804        808        812        816        820        824        828        832        836        840        844        848        852        856        860        864        868        872        876        880        884        888        892        896        900        904        908        912        916        920        924        928        932        936        940        944        948        952        956        960        964        968        972        976        980        984        988        992        996       1000       1004       1008       1012       1016       1020       1024       1028       1032       1036       1040       1044       1048       1052       1056       1060       1064       1068       1072       1076       1080       1084       1088       1092       1096       1100       1104       1108       1112       1116       1120       1124       1128       1132       1136       1140       1144       1148       1152       1156       1160       1164       1168       1172       1176       1180       1184       1188       1192       1196       1200       1204       1208       1212       1216       1220       1224       1228       1232       1236       1240       1244       1248       1252       1256       1260       1264       1268       1272       1276       1280       1284       1288       1292       1296       1300       1304       1308       1312       1316       1320       1324       1328       1332       1336       1340       1344       1348       1352       1356       1360       1364       1368       1372       1376       1380       1384       1388       1392       1396       1400       1404       1408       1412       1416       1420       1424       1428       1432       1436       1440       1444       1448       1452       1456       1460       1464       1468       1472       1476       1480       1484       1488       1492       1496       1500       1504       1508       1512       1516       1520       1524       1528       1532       1536       1540       1544       1548       1552       1556       1560       1564       1568       1572       1576       1580       1584       1588       1592       1596       1600       1604       1608       1612       1616       1620       1624       1628       1632       1636       1640       1644       1648       1652       1656       1660       1664       1668       1672       1676       1680       1684       1688       1692       1696       1700       1704       1708       1712       1716       1720       1724       1728       1732       1736       1740       1744       1748       1752       1756       1760       1764       1768       1772       1776       1780       1784       1788       1792       1796       1800       1804       1808       1812       1816       1820       1824       1828       1832       1836       1840       1844       1848       1852       1856       1860       1864       1868       1872       1876       1880       1884       1888       1892       1896       1900       1904       1908       1912       1916       1920       1924       1928       1932       1936       1940       1944       1948       1952       1956       1960       1964       1968       1972       1976       1980       1984       1988       1992       1996       2000       2004       2008       2012       2016       2020       2024       2028       2032       2036       2040       2044       2048       2052       2056       2060       2064       2068       2072       2076       2080       2084       2088       2092       2096       2100       2104       2108       2112       2116       2120       2124       2128       2132       2136       2140       2144       2148       2152       2156       2160       2164       2168       2172       2176       2180       2184       2188       2192       2196       2200       2204       2208       2212       2216       2220       2224       2228       2232       2236       2240       2244       2248       2252       2256       2260       2264       2268       2272       2276       2280       2284       2288       2292       2296       2300       2304       2308       2312       2316       2320       2324       2328       2332       2336       2340       2344       2348       2352       2356       2360       2364       2368       2372       2376       2380       2384       2388       2392       2396       2400       2404       2408       2412       2416       2420       2424       2428       2432       2436       2440       2444       2448       2452       2456       2460       2464       2468       2472       2476       2480       2484       2488       2492       2496       2500       2504       2508       2512       2516       2520       2524       2528       2532       2536       2540       2544       2548       2552       2556       2560       2564       2568       2572       2576       2580       2584       2588       2592       2596       2600       2604       2608       2612       2616       2620       2624       2628       2632       2636       2640       2644       2648       2652       2656       2660       2664       2668       2672       2676       2680       2684       2688       2692       2696       2700       2704       2708       2712       2716       2720       2724       2728       2732       2736       2740       2744       2748       2752       2756       2760       2764       2768       2772       2776       2780       2784       2788       2792       2796       2800       2804       2808       2812       2816       2820       2824       2828       2832       2836       2840       2844       2848       2852       2856       2860       2864       2868       2872       2876       2880       2884       2888       2892       2896       2900       2904       2908       2912       2916       2920       2924       2928       2932       2936       2940       2944       2948       2952       2956       2960       2964       2968       2972       2976       2980       2984       2988       2992       2996       3000       3004       3008       3012       3016       3020       3024       3028       3032       3036       3040       3044       3048       3052       3056       3060       3064       3068       3072       3076       3080       3084       3088       3092       3096       3100       3104       3108       3112       3116       3120       3124       3128       3132       3136       3140       3144       3148       3152       3156       3160       3164       3168       3172       3176       3180       3184       3188       3192       3196       3200       3204       3208       3212       3216       3220       3224       3228       3232       3236       3240       3244       3248       3252       3256       3260       3264       3268       3272       3276       3280       3284       3288       3292       3296       3300       3304       3308       3312       3316       3320       3324       3328       3332       3336       3340       3344       3348       3352       3356       3360       3364       3368       3372       3376       3380       3384       3388       3392       3396       3400       3404       3408       3412       3416       3420       3424       3428       3432       3436       3440       3444       3448       3452       3456       3460       3464       3468       3472       3476       3480       3484       3488       3492       3496       3500       3504       3508       3512       3516       3520       3524       3528       3532       3536       3540       3544       3548       3552       3556       3560       3564       3568       3572       3576       3580       3584       3588       3592       3596       3600       3604       3608       3612       3616       3620       3624       3628       3632       3636       3640       3644       3648       3652       3656       3660       3664       3668       3672       3676       3680       3684       3688       3692       3696       3700       3704       3708       3712       3716       3720       3724       3728       3732       3736       3740       3744       3748       3752       3756       3760       3764       3768       3772       3776       3780       3784       3788       3792       3796       3800       3804       3808       3812       3816       3820       3824       3828       3832       3836       3840       3844       3848       3852       3856       3860       3864       3868       3872       3876       3880       3884       3888       3892       3896       3900       3904       3908       3912       3916       3920       3924       3928       3932       3936       3940       3944       3948       3952       3956       3960       3964       3968       3972       3976       3980       3984       3988       3992       3996       4000       4004       4008       4012       4016       4020       4024       4028       4032       4036       4040       4044       4048       4052       4056       4060       4064       4068       4072       4076       4080       4084       4088       4092       4096 </DataArray>
<DataArray type="UInt8"                                    Name="types"                                                      NumberOfComponents=" 1" format="ascii">
         9          9          9          9          9          9          9          9          9          9          9          9          9          9          9          9          9          9          9          9          9          9          9          9          9          9          9          9          9          9          9          9          9          9          9          9          9          9          9          9          9          9          9          9          9          9          9          9          9          9          9          9          9          9          9          9          9          9          9          9          9          9          9          9          9          9          9          9          9          9          9          9          9          9          9          9          9          9          9          9          9          9          9          9          9          9          9          9          9          9          9          9          9          9          9          9          9          9          9          9          9          9          9          9          9          9          9          9          9          9          9          9          9          9          9          9          9          9          9          9          9          9          9          9          9          9          9          9          9          9          9          9          9          9          9          9          9          9          9          9          9          9          9          9          9          9          9          9          9          9          9          9          9          9          9          9          9          9          9          9          9          9          9          9          9          9          9          9          9          9          9          9          9          9          9          9          9          9          9          9          9          9          9          9          9          9          9          9          9          9          9          9          9          9          9          9          9          9          9          9          9          9          9          9          9          9          9          9          9          9          9          9          9          9          9          9          9          9          9          9          9          9          9          9          9          9          9          9          9          9          9          9          9          9          9          9          9          9          9          9          9          9          9          9          9          9          9          9          9          9          9          9          9          9          9          9          9          9          9          9          9          9          9          9          9          9          9          9          9          9          9          9          9          9          9          9          9          9          9          9          9          9          9          9          9          9          9          9          9          9          9          9          9          9          9          9          9          9          9          9          9          9          9          9          9          9          9          9          9          9          9          9          9          9          9          9          9          9          9          9          9          9          9          9          9          9          9          9          9          9          9          9          9          9          9          9          9          9          9          9          9          9          9          9          9          9          9          9          9          9          9          9          9          9          9          9          9          9          9          9          9          9          9          9          9          9          9          9          9          9          9          9          9          9          9          9          9          9          9          9          9          9          9          9          9          9          9          9          9          9          9          9          9          9          9          9          9          9          9          9          9          9          9          9          9          9          9          9          9          9          9          9          9          9          9          9          9          9          9          9          9          9          9          9          9          9          9          9          9          9          9          9          9          9          9          9          9          9          9          9          9          9          9          9          9          9          9          9          9          9          9          9          9          9          9          9          9          9          9          9          9          9          9          9          9          9          9          9          9          9          9          9          9          9          9          9          9          9          9          9          9          9          9          9          9          9          9          9          9          9          9          9          9          9          9          9          9          9          9          9          9          9          9          9          9          9          9          9          9          9          9          9          9          9          9          9          9          9          9          9          9          9          9          9          9          9          9          9          9          9          9          9          9          9          9          9          9          9          9          9          9          9          9          9          9          9          9          9          9          9          9          9          9          9          9          9          9          9          9          9          9          9          9          9          9          9          9          9          9          9          9          9          9          9          9          9          9          9          9          9          9          9          9          9          9          9          9          9          9          9          9          9          9          9          9          9          9          9          9          9          9          9          9          9          9          9          9          9          9          9          9          9          9          9          9          9          9          9          9          9          9          9          9          9          9          9          9          9          9          9          9          9          9          9          9          9          9          9          9          9          9          9          9          9          9          9          9          9          9          9          9          9          9          9          9          9          9          9          9          9          9          9          9          9          9          9          9          9          9          9          9          9          9          9          9          9          9          9          9          9          9          9          9          9          9          9          9          9          9          9          9          9          9          9          9          9          9          9          9          9          9          9          9          9          9          9          9          9          9          9          9          9          9          9          9          9          9          9          9          9          9          9          9          9          9          9          9          9          9          9          9          9          9          9          9          9          9          9          9          9          9          9          9          9          9          9          9          9          9          9          9          9          9          9          9          9          9          9          9          9          9          9          9          9          9          9          9          9          9          9          9          9          9          9          9          9          9          9          9          9          9          9          9          9          9          9          9          9          9          9          9          9          9          9          9          9          9          9          9          9          9          9          9          9          9          9          9          9          9          9          9          9          9          9          9          9          9          9          9          9          9          9          9          9          9          9          9          9          9          9          9          9          9          9          9          9          9          9          9          9          9          9          9          9          9          9          9          9          9          9          9          9          9          9          9          9          9          9          9          9          9          9          9          9          9          9          9          9          9          9          9          9          9          9          9          9          9          9          9          9          9          9          9          9          9          9          9          9          9          9          9          9          9          9          9          9          9          9          9          9          9          9          9          9          9          9          9          9          9          9          9          9          9          9          9          9          9          9          9          9          9          9          9          9          9          9          9          9          9          9          9          9          9          9          9          9          9          9          9          9          9          9          9          9          9          9          9          9          9          9          9          9          9          9          9          9          9          9          9          9          9          9          9          9          9          9          9          9          9          9          9          9          9          9          9          9          9          9          9          9          9          9          9          9          9          9          9          9          9          9          9          9          9          9          9          9          9          9          9          9          9          9          9          9          9          9          9          9          9          9          9          9          9          9          9          9          9          9          9          9          9          9          9          9 </DataArray>
</Cells>
<CellData>
<DataArray type="Int32"                                    Name="material"                                                      NumberOfComponents=" 1" format="ascii">
         1          1          1          1          1          1          1          1          1          1          1          1          1          1          1          1          1          1          1          1          1          1          1          1          1          1          1          1          1          1          1          1          1          1          1          1          1          1          1          1          1          1          1          1          1          1          1          1          1          1          1          1          1          1          1          1          1          1          1          1          1          1          1          1          1          1          1          1          1          1          1          1          1          1          1          1          1          1          1          1          1          1          1          1          1          1          1          1          1          1          1          1          1          1          1          1          1          1          1          1          1          1          1          1          1          1          1          1          1          1          1          1          1          1          1          1          1          1          1          1          1          1          1          1          1          1          1          1          1          1          1          1          1          1          1          1          1          1          1          1          1          1          1          1          1          1          1          1          1          1          1          1          1          1          1          1          1          1          1          1          1          1          1          1          1          1          1          1          1          1          1          1          1          1          1          1          1          1          1          1          1          1          1          1          1          1          1          1          1          1          1          1          1          1          1          1          1          1          1          1          1          1          1          1          1          1          1          1          1          1          1          1          1          1          1          1          1          1          1          1          1          1          1          1          1          1          1          1          1          1          1          1          1          1          1          1          1          1          1          1          1          1          1          1          1          1          1          1          1          1          1          1          1          1          1          1          1          1          1          1          1          1          1          1          1          1          1          1          1          1          1          1          1          1          1          1          1          1          1          1          1          1          1          1          1          1          1          1          1          1          1          1          1          1          1          1          1          1          1          1          1          1          1          1          1          1          1          1          1          1          1          1          1          1          1          1          1          1          1          1          1          1          1          1          1          1          1          1          1          1          1          1          1          1          1          1          1          1          1          1          1          1          1          1          1          1          1          1          1          1          1          1          1          1          1          1          1          1          1          1          1          1          1          1          1          1          1          1          1          1          1          1          1          1          1          1          1          1          1          1          1          1          1          1          1          1          1          1          1          1          1          1          1          1          1          1          1          1          1          1          1          1          1          1          1          1          1          1          1          1          1          1          1          1          1          1          1          1          1          1          1          1          1          1          1          1          1          1          1          1          1          1          1          1          1          1          1          1          1          1          1          1          1          1          1          1          1          1          1          1          1          1          1          1          1          1          1          1          1          1          1          1          1          1          1          1          1          1          1          1          1          1          1          1          1          1          1          1          1          1          1          1          1          1          1          1          1          1          1          1          1          1          1          1          1          1          1          1          1          1          1          1          1          1          1          1          1          1          1          1          1          1          1          1          1          1          1          1          1          1          1          1          1          1          1          1          1          1          1          1          1          1          1          1          1          1          1          1          1          1          1          1          1          1          1          1          1          1          1          1          1          1          1          1          1          1          1          1          1          1          1          1          1          1          1          1          1          1          1          1          1          1          1          1          1          1          1          1          1          1          1          1          1          1          1          1          1          1          1          1          1          1          1          1          1          1          1          1          1          1          1          1          1          1          1          1          1          1          1          1          1          1          1          1          1          1          1          1          1          1          1          1          1          1          1          1          1          1          1          1          1          1          1          1          1          1          1          1          1          1          1          1          1          1          1          1          1          1          1          1          1          1          1          1          1          1          1          1          1          1          1          1          1          1          1          1          1          1          1          1          1          1          1          1          1          1          1          1          1          1          1          1          1          1          1          1          1          1          1          1          1          1          1          1          1          1          1          1          1          1          1          1          1          1          1          1          1          1          1          1          1          1          1          1          1          1          1          1          1          1          1          1          1          1          1          1          1          1          1          1          1          1          1          1          1          1          1          1          1          1          1          1          1          1          1          1          1          1          1          1          1          1          1          1          1          1          1          1          1          1          1          1          1          1          1          1          1          1          1          1          1          1          1          1          1          1          1          1          1          1          1          1          1          1          1          1          1          1          1          1          1          1          1          1          1          1          1          1          1          1          1          1          1          1          1          1          1          1          1          1          1          1          1          1          1          1          1          1          1          1          1          1          1          1          1          1          1          1          1          1          1          1          1          1          1          1          1          1          1          1          1          1          1          1          1          1          1          1          1          1          1          1          1          1          1          1          1          1          1          1          1          1          1          1          1          1          1          1          1          1          1          1          1          1          1          1          1          1          1          1          1          1          1          1          1          1          1          1          1          1          1          1          1          1          1          1          1          1          1          1          1          1          1          1          1          1          1          1          1          1          1          1          1          1          1          1          1          1          1          1          1          1          1          1          1          1          1          1          1          1          1          1          1          1          1          1          1          1          1          1          1          1          1          1          1          1          1          1          1          1          1          1          1          1          1          1          1          1          1          1          1          1          1          1          1          1          1          1          1          1          1          1          1          1          1          1          1          1          1          1          1          1          1          1          1          1          1          1          1          1          1          1          1          1          1          1          1          1          1          1          1          1          1          1          1          1          1          1          1          1          1          1          1          1          1          1          1          1          1          1          1          1          1          1 </DataArray>
</CellData>
<PointData>
<DataArray type="Float64"                                    Name="u"                                                      NumberOfComponents=" 3" format="ascii">
              0.000009079              -0.000000000               0.999999999               0.000001974               0.000000000               0.999999999              -0.000001287              -0.000000000               0.999999999              -0.000002892              -0.000000000               0.999999999              -0.000003856               0.000000000               0.999999999              -0.000004670               0.000000000               0.999999999              -0.000005630               0.000000000               0.999999999              -0.000006915              -0.000000000               0.999999999              -0.000008614              -0.000000000               0.999999999              -0.000010725               0.000000000               0.999999999              -0.000013312               0.000000000               0.999999999              -0.000016415               0.000000000               0.999999999              -0.000019995              -0.000000000               0.999999999              -0.000024156              -0.000000000               0.999999999              -0.000028834              -0.000000000               0.999999999              -0.000033895              -0.000000000               0.999999999              -0.000039381              -0.000000000               0.999999999               0.000009009               0.000017762               0.999999999               0.000002110               0.000016011               0.999999999              -0.000001042               0.000015568               0.999999999              -0.000002601               0.000015888               0.999999999              -0.000003603               0.000016754               0.999999999              -0.000004535               0.000018013               0.999999999              -0.000005627               0.000019593               0.999999999              -0.000007077               0.000021431               0.999999999              -0.000008913               0.000023503               0.999999999              -0.000011199               0.000025762               0.999999999              -0.000013979               0.000028276               0.999999999              -0.000017269               0.000031071               0.999999999              -0.000021124               0.000033994               0.999999999              -0.000025476               0.000037029               0.999999999              -0.000030245               0.000040067               0.999999999              -0.000035436               0.000043318               0.999999999              -0.000041070               0.000046830               0.999999999               0.000008765               0.000035371               0.999999999               0.000002552               0.000031855               0.999999999              -0.000000253               0.000031022               0.999999999              -0.000001790               0.000031770               0.999999999              -0.000002966               0.000033555               0.999999999              -0.000004190               0.000036146               0.999999999              -0.000005695               0.000039322               0.999999999              -0.000007596               0.000043028               0.999999999              -0.000009918               0.000047095               0.999999999              -0.000012707               0.000051670               0.999999999              -0.000016035               0.000056662               0.999999999              -0.000019909               0.000062173               0.999999999              -0.000024277               0.000067973               0.999999999              -0.000029117               0.000073873               0.999999999              -0.000034385               0.000079806               0.999999999              -0.000040061               0.000086150               0.999999999              -0.000046133               0.000093008               0.999999999               0.000008391               0.000052660               0.999999999               0.000003310               0.000047361               0.999999999               0.000000967               0.000046301               0.999999999              -0.000000585               0.000047615               0.999999999              -0.000002082               0.000050456               0.999999999              -0.000003860               0.000054413               0.999999999              -0.000006006               0.000059250               0.999999999              -0.000008612               0.000064741               0.999999999              -0.000011690               0.000070928               0.999999999              -0.000015279               0.000077720               0.999999999              -0.000019433               0.000085251               0.999999999              -0.000024113               0.000093402               0.999999999              -0.000029269               0.000101873               0.999999999              -0.000034839               0.000110453               0.999999999              -0.000040761               0.000119139               0.999999999              -0.000047050               0.000128395               0.999999999              -0.000053664               0.000138090               0.999999999               0.000007947               0.000069455               0.999999999               0.000004358               0.000062415               0.999999999               0.000002500               0.000061350               0.999999999               0.000000807               0.000063387               0.999999999              -0.000001206               0.000067437               0.999999999              -0.000003675               0.000072851               0.999999999              -0.000006667               0.000079359               0.999999999              -0.000010204               0.000086756               0.999999999              -0.000014244               0.000094978               0.999999999              -0.000018831               0.000104069               0.999999999              -0.000023966               0.000114057               0.999999999              -0.000029566               0.000124696               0.999999999              -0.000035555               0.000135632               0.999999999              -0.000041861               0.000146679               0.999999999              -0.000048480               0.000157974               0.999999999              -0.000055442               0.000169777               0.999999999              -0.000062708               0.000181914               0.999999999               0.000007434               0.000085564               0.999999999               0.000005625               0.000076933               0.999999999               0.000004142               0.000076055               0.999999999               0.000002165               0.000079027               0.999999999              -0.000000506               0.000084405               0.999999999              -0.000003847               0.000091381               0.999999999              -0.000007789               0.000099641               0.999999999              -0.000012282               0.000108906               0.999999999              -0.000017356               0.000119275               0.999999999              -0.000022989               0.000130687               0.999999999              -0.000029103               0.000143151               0.999999999              -0.000035620               0.000156137               0.999999999              -0.000042347               0.000169412               0.999999999              -0.000049348               0.000182811               0.999999999              -0.000056686               0.000196754               0.999999999              -0.000064399               0.000211252               0.999999999              -0.000072488               0.000226089               0.999999999               0.000006858               0.000100801               0.999999999               0.000006991               0.000090839               0.999999999               0.000005713               0.000090355               0.999999999               0.000003259               0.000094410               0.999999999              -0.000000198               0.000101167               0.999999999              -0.000004425               0.000109803               0.999999999              -0.000009269               0.000119880               0.999999999              -0.000014750               0.000131245               0.999999999              -0.000020853               0.000143889               0.999999999              -0.000027456               0.000157748               0.999999999              -0.000034527               0.000172552               0.999999999              -0.000041858               0.000187793               0.999999999              -0.000049363               0.000203303               0.999999999              -0.000057165               0.000219301               0.999999999              -0.000065380               0.000236112               0.999999999              -0.000074001               0.000253579               0.999999999              -0.000083070               0.000271515               0.999999999               0.000006251               0.000115004               0.999999999               0.000008302               0.000104085               0.999999999               0.000007034               0.000104144               0.999999999               0.000003938               0.000109314               0.999999999              -0.000000319               0.000117530               0.999999999              -0.000005410               0.000127954               0.999999999              -0.000011143               0.000140031               0.999999999              -0.000017502               0.000153637               0.999999999              -0.000024458               0.000168649               0.999999999              -0.000032006               0.000185032               0.999999999              -0.000039897               0.000202237               0.999999999              -0.000047954               0.000219892               0.999999999              -0.000056236               0.000238101               0.999999999              -0.000064912               0.000257229               0.999999999              -0.000074061               0.000277355               0.999999999              -0.000083644               0.000298239               0.999999999              -0.000093676               0.000319640               0.999999999               0.000005506               0.000127900               0.999999999               0.000009487               0.000116636               0.999999999               0.000007961               0.000117264               0.999999999               0.000004142               0.000123565               0.999999999              -0.000000921               0.000133363               0.999999999              -0.000006759               0.000145654               0.999999999              -0.000013238               0.000159869               0.999999999              -0.000020365               0.000175894               0.999999999              -0.000028177               0.000193534               0.999999999              -0.000036560               0.000212480               0.999999999              -0.000045076               0.000232321               0.999999999              -0.000053663               0.000252968               0.999999999              -0.000062635               0.000274617               0.999999999              -0.000072098               0.000297494               0.999999999              -0.000081989               0.000321633               0.999999999              -0.000092221               0.000346699               0.999999999              -0.000102764               0.000372390               0.999999999               0.000004510               0.000139941               0.999999999               0.000010075               0.000129509               0.999999999               0.000009307               0.000128964               0.999999999               0.000006035               0.000133922               0.999999999               0.000001496               0.000142299               0.999999999              -0.000003654               0.000153107               0.999999999              -0.000009301               0.000165843               0.999999999              -0.000015422               0.000180279               0.999999999              -0.000022172               0.000196237               0.999999999              -0.000029481               0.000213548               0.999999999              -0.000036989               0.000232000               0.999999999              -0.000044509               0.000251243               0.999999999              -0.000052072               0.000271478               0.999999999              -0.000059751               0.000292752               0.999999999              -0.000067840               0.000315377               0.999999999              -0.000076454               0.000339159               0.999999999              -0.000085508               0.000363995               0.999999999               0.000003622               0.000150841               0.999999999               0.000010072               0.000141735               0.999999999               0.000010077               0.000140661               0.999999999               0.000007471               0.000144531               0.999999999               0.000003558               0.000151641               0.999999999              -0.000000936               0.000161084               0.999999999              -0.000005737               0.000172453               0.999999999              -0.000010937               0.000185459               0.999999999              -0.000016626               0.000199888               0.999999999              -0.000022852               0.000215662               0.999999999              -0.000029264               0.000232587               0.999999999              -0.000035697               0.000250503               0.999999999              -0.000041965               0.000269357               0.999999999              -0.000048288               0.000289182               0.999999999              -0.000054872               0.000310124               0.999999999              -0.000061933               0.000332306               0.999999999              -0.000069433               0.000355727               0.999999999               0.000002785               0.000160338               0.999999999               0.000009485               0.000153052               0.999999999               0.000010168               0.000151943               0.999999999               0.000008255               0.000155058               0.999999999               0.000005035               0.000161149               0.999999999               0.000001287               0.000169484               0.999999999              -0.000002741               0.000179623               0.999999999              -0.000007010               0.000191398               0.999999999              -0.000011651               0.000204537               0.999999999              -0.000016683               0.000218909               0.999999999              -0.000021995               0.000234408               0.999999999              -0.000027297               0.000250983               0.999999999              -0.000032559               0.000268498               0.999999999              -0.000037789               0.000287016               0.999999999              -0.000043077               0.000306564               0.999999999              -0.000048600               0.000327208               0.999999999              -0.000054266               0.000349058               0.999999999               0.000002050               0.000168300               0.999999999               0.000008357               0.000163096               0.999999999               0.000009482               0.000162306               0.999999999               0.000008226               0.000165015               0.999999999               0.000005761               0.000170423               0.999999999               0.000002755               0.000177880               0.999999999              -0.000000427               0.000187095               0.999999999              -0.000003817               0.000197817               0.999999999              -0.000007434               0.000209912               0.999999999              -0.000011308               0.000223109               0.999999999              -0.000015425               0.000237347               0.999999999              -0.000019763               0.000252611               0.999999999              -0.000023999               0.000268910               0.999999999              -0.000028176               0.000286307               0.999999999              -0.000032379               0.000304809               0.999999999              -0.000036407               0.000324417               0.999999999              -0.000040179               0.000345118               0.999999999               0.000001425               0.000174604               0.999999999               0.000006737               0.000171435               0.999999999               0.000007999               0.000171210               0.999999999               0.000007290               0.000173813               0.999999999               0.000005551               0.000178801               0.999999999               0.000003315               0.000185683               0.999999999               0.000000964               0.000194217               0.999999999              -0.000001534               0.000204157               0.999999999              -0.000004182               0.000215342               0.999999999              -0.000007089               0.000227615               0.999999999              -0.000010120               0.000240894               0.999999999              -0.000013253               0.000255190               0.999999999              -0.000016471               0.000270593               0.999999999              -0.000019607               0.000287127               0.999999999              -0.000022639               0.000304863               0.999999999              -0.000025381               0.000323742               0.999999999              -0.000027553               0.000343650               0.999999999               0.000000882               0.000179165               0.999999999               0.000004728               0.000177697               0.999999999               0.000005795               0.000178110               0.999999999               0.000005470               0.000180771               0.999999999               0.000004365               0.000185540               0.999999999               0.000002948               0.000192108               0.999999999               0.000001349               0.000200198               0.999999999              -0.000000254               0.000209619               0.999999999              -0.000002069               0.000220138               0.999999999              -0.000003965               0.000231727               0.999999999              -0.000005925               0.000244419               0.999999999              -0.000007857               0.000258197               0.999999999              -0.000010021               0.000273081               0.999999999              -0.000012217               0.000289107               0.999999999              -0.000014128               0.000306341               0.999999999              -0.000015666               0.000324768               0.999999999              -0.000016664               0.000344178               0.999999999               0.000000423               0.000181972               0.999999999               0.000002447               0.000181597               0.999999999               0.000003028               0.000182470               0.999999999               0.000002941               0.000185245               0.999999999               0.000002414               0.000189942               0.999999999               0.000001706               0.000196342               0.999999999               0.000000937               0.000204210               0.999999999               0.000000108               0.000213332               0.999999999              -0.000000787               0.000223506               0.999999999              -0.000001757               0.000234758               0.999999999              -0.000002603               0.000247112               0.999999999              -0.000003614               0.000260584               0.999999999              -0.000004668               0.000275263               0.999999999              -0.000005794               0.000291199               0.999999999              -0.000006826               0.000308229               0.999999999              -0.000007376               0.000326318               0.999999999              -0.000007516               0.000345413               0.999999999              -0.000000000               0.000182913               0.999999999              -0.000000000               0.000182885               0.999999999              -0.000000000               0.000183942               0.999999999              -0.000000000               0.000186821               0.999999999              -0.000000000               0.000191470               0.999999999              -0.000000000               0.000197826               0.999999999               0.000000000               0.000205640               0.999999999               0.000000000               0.000214639               0.999999999               0.000000000               0.000224734               0.999999999               0.000000000               0.000235874               0.999999999               0.000000000               0.000248056               0.999999999               0.000000000               0.000261511               0.999999999               0.000000000               0.000276193               0.999999999              -0.000000000               0.000292083               0.999999999              -0.000000000               0.000309119               0.999999999              -0.000000000               0.000327043               0.999999999              -0.000000000               0.000345909               0.999999999               0.000009079              -0.000000000               0.999999999               0.000001974               0.000000000               0.999999999              -0.000001287              -0.000000000               0.999999999              -0.000002892              -0.000000000               0.999999999              -0.000003856               0.000000000               0.999999999              -0.000004670               0.000000000               0.999999999              -0.000005630               0.000000000               0.999999999              -0.000006915              -0.000000000               0.999999999              -0.000008614              -0.000000000               0.999999999              -0.000010725               0.000000000               0.999999999              -0.000013312               0.000000000               0.999999999              -0.000016415               0.000000000               0.999999999              -0.000019995              -0.000000000               0.999999999              -0.000024156              -0.000000000               0.999999999              -0.000028834              -0.000000000               0.999999999              -0.000033895              -0.000000000               0.999999999              -0.000039381              -0.000000000               0.999999999               0.000009009              -0.000017762               0.999999999               0.000002110              -0.000016011               0.999999999              -0.000001042              -0.000015568               0.999999999              -0.000002601              -0.000015888               0.999999999              -0.000003603              -0.000016754               0.999999999              -0.000004535              -0.000018013               0.999999999              -0.000005627              -0.000019593               0.999999999              -0.000007077              -0.000021431               0.999999999              -0.000008913              -0.000023503               0.999999999              -0.000011199              -0.000025762               0.999999999              -0.000013979              -0.000028276               0.999999999              -0.000017269              -0.000031071               0.999999999              -0.000021124              -0.000033994               0.999999999              -0.000025476              -0.000037029               0.999999999              -0.000030245              -0.000040067               0.999999999              -0.000035436              -0.000043318               0.999999999              -0.000041070              -0.000046830               0.999999999               0.000008765              -0.000035371               0.999999999               0.000002552              -0.000031855               0.999999999              -0.000000253              -0.000031022               0.999999999              -0.000001790              -0.000031770               0.999999999              -0.000002966              -0.000033555               0.999999999              -0.000004190              -0.000036146               0.999999999              -0.000005695              -0.000039322               0.999999999              -0.000007596              -0.000043028               0.999999999              -0.000009918              -0.000047095               0.999999999              -0.000012707              -0.000051670               0.999999999              -0.000016035              -0.000056662               0.999999999              -0.000019909              -0.000062173               0.999999999              -0.000024277              -0.000067973               0.999999999              -0.000029117              -0.000073873               0.999999999              -0.000034385              -0.000079806               0.999999999              -0.000040061              -0.000086150               0.999999999              -0.000046133              -0.000093008               0.999999999               0.000008391              -0.000052660               0.999999999               0.000003310              -0.000047361               0.999999999               0.000000967              -0.000046301               0.999999999              -0.000000585              -0.000047615               0.999999999              -0.000002082              -0.000050456               0.999999999              -0.000003860              -0.000054413               0.999999999              -0.000006006              -0.000059250               0.999999999              -0.000008612              -0.000064741               0.999999999              -0.000011690              -0.000070928               0.999999999              -0.000015279              -0.000077720               0.999999999              -0.000019433              -0.000085251               0.999999999              -0.000024113              -0.000093402               0.999999999              -0.000029269              -0.000101873               0.999999999              -0.000034839              -0.000110453               0.999999999              -0.000040761              -0.000119139               0.999999999              -0.000047050              -0.000128395               0.999999999              -0.000053664              -0.000138090               0.999999999               0.000007947              -0.000069455               0.999999999               0.000004358              -0.000062415               0.999999999               0.000002500              -0.000061350               0.999999999               0.000000807              -0.000063387               0.999999999              -0.000001206              -0.000067437               0.999999999              -0.000003675              -0.000072851               0.999999999              -0.000006667              -0.000079359               0.999999999              -0.000010204              -0.000086756               0.999999999              -0.000014244              -0.000094978               0.999999999              -0.000018831              -0.000104069               0.999999999              -0.000023966              -0.000114057               0.999999999              -0.000029566              -0.000124696               0.999999999              -0.000035555              -0.000135632               0.999999999              -0.000041861              -0.000146679               0.999999999              -0.000048480              -0.000157974               0.999999999              -0.000055442              -0.000169777               0.999999999              -0.000062708              -0.000181914               0.999999999               0.000007434              -0.000085564               0.999999999               0.000005625              -0.000076933               0.999999999               0.000004142              -0.000076055               0.999999999               0.000002165              -0.000079027               0.999999999              -0.000000506              -0.000084405               0.999999999              -0.000003847              -0.000091381               0.999999999              -0.000007789              -0.000099641               0.999999999              -0.000012282              -0.000108906               0.999999999              -0.000017356              -0.000119275               0.999999999              -0.000022989              -0.000130687               0.999999999              -0.000029103              -0.000143151               0.999999999              -0.000035620              -0.000156137               0.999999999              -0.000042347              -0.000169412               0.999999999              -0.000049348              -0.000182811               0.999999999              -0.000056686              -0.000196754               0.999999999              -0.000064399              -0.000211252               0.999999999              -0.000072488              -0.000226089               0.999999999               0.000006858              -0.000100801               0.999999999               0.000006991              -0.000090839               0.999999999               0.000005713              -0.000090355               0.999999999               0.000003259              -0.000094410               0.999999999              -0.000000198              -0.000101167               0.999999999              -0.000004425              -0.000109803               0.999999999              -0.000009269              -0.000119880               0.999999999              -0.000014750              -0.000131245               0.999999999              -0.000020853              -0.000143889               0.999999999              -0.000027456              -0.000157748               0.999999999              -0.000034527              -0.000172552               0.999999999              -0.000041858              -0.000187793               0.999999999              -0.000049363              -0.000203303               0.999999999              -0.000057165              -0.000219301               0.999999999              -0.000065380              -0.000236112               0.999999999              -0.000074001              -0.000253579               0.999999999              -0.000083070              -0.000271515               0.999999999               0.000006251              -0.000115004               0.999999999               0.000008302              -0.000104085               0.999999999               0.000007034              -0.000104144               0.999999999               0.000003938              -0.000109314               0.999999999              -0.000000319              -0.000117530               0.999999999              -0.000005410              -0.000127954               0.999999999              -0.000011143              -0.000140031               0.999999999              -0.000017502              -0.000153637               0.999999999              -0.000024458              -0.000168649               0.999999999              -0.000032006              -0.000185032               0.999999999              -0.000039897              -0.000202237               0.999999999              -0.000047954              -0.000219892               0.999999999              -0.000056236              -0.000238101               0.999999999              -0.000064912              -0.000257229               0.999999999              -0.000074061              -0.000277355               0.999999999              -0.000083644              -0.000298239               0.999999999              -0.000093676              -0.000319640               0.999999999               0.000005506              -0.000127900               0.999999999               0.000009487              -0.000116636               0.999999999               0.000007961              -0.000117264               0.999999999               0.000004142              -0.000123565               0.999999999              -0.000000921              -0.000133363               0.999999999              -0.000006759              -0.000145654               0.999999999              -0.000013238              -0.000159869               0.999999999              -0.000020365              -0.000175894               0.999999999              -0.000028177              -0.000193534               0.999999999              -0.000036560              -0.000212480               0.999999999              -0.000045076              -0.000232321               0.999999999              -0.000053663              -0.000252968               0.999999999              -0.000062635              -0.000274617               0.999999999              -0.000072098              -0.000297494               0.999999999              -0.000081989              -0.000321633               0.999999999              -0.000092221              -0.000346699               0.999999999              -0.000102764              -0.000372390               0.999999999               0.000004510              -0.000139941               0.999999999               0.000010075              -0.000129509               0.999999999               0.000009307              -0.000128964               0.999999999               0.000006035              -0.000133922               0.999999999               0.000001496              -0.000142299               0.999999999              -0.000003654              -0.000153107               0.999999999              -0.000009301              -0.000165843               0.999999999              -0.000015422              -0.000180279               0.999999999              -0.000022172              -0.000196237               0.999999999              -0.000029481              -0.000213548               0.999999999              -0.000036989              -0.000232000               0.999999999              -0.000044509              -0.000251243               0.999999999              -0.000052072              -0.000271478               0.999999999              -0.000059751              -0.000292752               0.999999999              -0.000067840              -0.000315377               0.999999999              -0.000076454              -0.000339159               0.999999999              -0.000085508              -0.000363995               0.999999999               0.000003622              -0.000150841               0.999999999               0.000010072              -0.000141735               0.999999999               0.000010077              -0.000140661               0.999999999               0.000007471              -0.000144531               0.999999999               0.000003558              -0.000151641               0.999999999              -0.000000936              -0.000161084               0.999999999              -0.000005737              -0.000172453               0.999999999              -0.000010937              -0.000185459               0.999999999              -0.000016626              -0.000199888               0.999999999              -0.000022852              -0.000215662               0.999999999              -0.000029264              -0.000232587               0.999999999              -0.000035697              -0.000250503               0.999999999              -0.000041965              -0.000269357               0.999999999              -0.000048288              -0.000289182               0.999999999              -0.000054872              -0.000310124               0.999999999              -0.000061933              -0.000332306               0.999999999              -0.000069433              -0.000355727               0.999999999               0.000002785              -0.000160338               0.999999999               0.000009485              -0.000153052               0.999999999               0.000010168              -0.000151943               0.999999999               0.000008255              -0.000155058               0.999999999               0.000005035              -0.000161149               0.999999999               0.000001287              -0.000169484               0.999999999              -0.000002741              -0.000179623               0.999999999              -0.000007010              -0.000191398               0.999999999              -0.000011651              -0.000204537               0.999999999              -0.000016683              -0.000218909               0.999999999              -0.000021995              -0.000234408               0.999999999              -0.000027297              -0.000250983               0.999999999              -0.000032559              -0.000268498               0.999999999              -0.000037789              -0.000287016               0.999999999              -0.000043077              -0.000306564               0.999999999              -0.000048600              -0.000327208               0.999999999              -0.000054266              -0.000349058               0.999999999               0.000002050              -0.000168300               0.999999999               0.000008357              -0.000163096               0.999999999               0.000009482              -0.000162306               0.999999999               0.000008226              -0.000165015               0.999999999               0.000005761              -0.000170423               0.999999999               0.000002755              -0.000177880               0.999999999              -0.000000427              -0.000187095               0.999999999              -0.000003817              -0.000197817               0.999999999              -0.000007434              -0.000209912               0.999999999              -0.000011308              -0.000223109               0.999999999              -0.000015425              -0.000237347               0.999999999              -0.000019763              -0.000252611               0.999999999              -0.000023999              -0.000268910               0.999999999              -0.000028176              -0.000286307               0.999999999              -0.000032379              -0.000304809               0.999999999              -0.000036407              -0.000324417               0.999999999              -0.000040179              -0.000345118               0.999999999               0.000001425              -0.000174604               0.999999999               0.000006737              -0.000171435               0.999999999               0.000007999              -0.000171210               0.999999999               0.000007290              -0.000173813               0.999999999               0.000005551              -0.000178801               0.999999999               0.000003315              -0.000185683               0.999999999               0.000000964              -0.000194217               0.999999999              -0.000001534              -0.000204157               0.999999999              -0.000004182              -0.000215342               0.999999999              -0.000007089              -0.000227615               0.999999999              -0.000010120              -0.000240894               0.999999999              -0.000013253              -0.000255190               0.999999999              -0.000016471              -0.000270593               0.999999999              -0.000019607              -0.000287127               0.999999999              -0.000022639              -0.000304863               0.999999999              -0.000025381              -0.000323742               0.999999999              -0.000027553              -0.000343650               0.999999999               0.000000882              -0.000179165               0.999999999               0.000004728              -0.000177697               0.999999999               0.000005795              -0.000178110               0.999999999               0.000005470              -0.000180771               0.999999999               0.000004365              -0.000185540               0.999999999               0.000002948              -0.000192108               0.999999999               0.000001349              -0.000200198               0.999999999              -0.000000254              -0.000209619               0.999999999              -0.000002069              -0.000220138               0.999999999              -0.000003965              -0.000231727               0.999999999              -0.000005925              -0.000244419               0.999999999              -0.000007857              -0.000258197               0.999999999              -0.000010021              -0.000273081               0.999999999              -0.000012217              -0.000289107               0.999999999              -0.000014128              -0.000306341               0.999999999              -0.000015666              -0.000324768               0.999999999              -0.000016664              -0.000344178               0.999999999               0.000000423              -0.000181972               0.999999999               0.000002447              -0.000181597               0.999999999               0.000003028              -0.000182470               0.999999999               0.000002941              -0.000185245               0.999999999               0.000002414              -0.000189942               0.999999999               0.000001706              -0.000196342               0.999999999               0.000000937              -0.000204210               0.999999999               0.000000108              -0.000213332               0.999999999              -0.000000787              -0.000223506               0.999999999              -0.000001757              -0.000234758               0.999999999              -0.000002603              -0.000247112               0.999999999              -0.000003614              -0.000260584               0.999999999              -0.000004668              -0.000275263               0.999999999              -0.000005794              -0.000291199               0.999999999              -0.000006826              -0.000308229               0.999999999              -0.000007376              -0.000326318               0.999999999              -0.000007516              -0.000345413               0.999999999              -0.000000000              -0.000182913               0.999999999               0.000000000              -0.000182885               0.999999999              -0.000000000              -0.000183942               0.999999999              -0.000000000              -0.000186821               0.999999999              -0.000000000              -0.000191470               0.999999999              -0.000000000              -0.000197826               0.999999999               0.000000000              -0.000205640               0.999999999              -0.000000000              -0.000214639               0.999999999               0.000000000              -0.000224734               0.999999999               0.000000000              -0.000235874               0.999999999              -0.000000000              -0.000248056               0.999999999               0.000000000              -0.000261511               0.999999999               0.000000000              -0.000276193               0.999999999               0.000000000              -0.000292083               0.999999999              -0.000000000              -0.000309119               0.999999999               0.000000000              -0.000327043               0.999999999               0.000000000              -0.000345909               0.999999999              -0.000009079               0.000000000               0.999999999              -0.000001974              -0.000000000               0.999999999               0.000001287               0.000000000               0.999999999               0.000002892               0.000000000               0.999999999               0.000003856               0.000000000               0.999999999               0.000004670               0.000000000               0.999999999               0.000005630               0.000000000               0.999999999               0.000006915               0.000000000               0.999999999               0.000008614               0.000000000               0.999999999               0.000010725               0.000000000               0.999999999               0.000013312               0.000000000               0.999999999               0.000016415               0.000000000               0.999999999               0.000019995               0.000000000               0.999999999               0.000024156               0.000000000               0.999999999               0.000028834               0.000000000               0.999999999               0.000033895               0.000000000               0.999999999               0.000039381               0.000000000               0.999999999              -0.000009009              -0.000017762               0.999999999              -0.000002110              -0.000016011               0.999999999               0.000001042              -0.000015568               0.999999999               0.000002601              -0.000015888               0.999999999               0.000003603              -0.000016754               0.999999999               0.000004535              -0.000018013               0.999999999               0.000005627              -0.000019593               0.999999999               0.000007077              -0.000021431               0.999999999               0.000008913              -0.000023503               0.999999999               0.000011199              -0.000025762               0.999999999               0.000013979              -0.000028276               0.999999999               0.000017269              -0.000031071               0.999999999               0.000021124              -0.000033994               0.999999999               0.000025476              -0.000037029               0.999999999               0.000030245              -0.000040067               0.999999999               0.000035436              -0.000043318               0.999999999               0.000041070              -0.000046830               0.999999999              -0.000008765              -0.000035371               0.999999999              -0.000002552              -0.000031855               0.999999999               0.000000253              -0.000031022               0.999999999               0.000001790              -0.000031770               0.999999999               0.000002966              -0.000033555               0.999999999               0.000004190              -0.000036146               0.999999999               0.000005695              -0.000039322               0.999999999               0.000007596              -0.000043028               0.999999999               0.000009918              -0.000047095               0.999999999               0.000012707              -0.000051670               0.999999999               0.000016035              -0.000056662               0.999999999               0.000019909              -0.000062173               0.999999999               0.000024277              -0.000067973               0.999999999               0.000029117              -0.000073873               0.999999999               0.000034385              -0.000079806               0.999999999               0.000040061              -0.000086150               0.999999999               0.000046133              -0.000093008               0.999999999              -0.000008391              -0.000052660               0.999999999              -0.000003310              -0.000047361               0.999999999              -0.000000967              -0.000046301               0.999999999               0.000000585              -0.000047615               0.999999999               0.000002082              -0.000050456               0.999999999               0.000003860              -0.000054413               0.999999999               0.000006006              -0.000059250               0.999999999               0.000008612              -0.000064741               0.999999999               0.000011690              -0.000070928               0.999999999               0.000015279              -0.000077720               0.999999999               0.000019433              -0.000085251               0.999999999               0.000024113              -0.000093402               0.999999999               0.000029269              -0.000101873               0.999999999               0.000034839              -0.000110453               0.999999999               0.000040761              -0.000119139               0.999999999               0.000047050              -0.000128395               0.999999999               0.000053664              -0.000138090               0.999999999              -0.000007947              -0.000069455               0.999999999              -0.000004358              -0.000062415               0.999999999              -0.000002500              -0.000061350               0.999999999              -0.000000807              -0.000063387               0.999999999               0.000001206              -0.000067437               0.999999999               0.000003675              -0.000072851               0.999999999               0.000006667              -0.000079359               0.999999999               0.000010204              -0.000086756               0.999999999               0.000014244              -0.000094978               0.999999999               0.000018831              -0.000104069               0.999999999               0.000023966              -0.000114057               0.999999999               0.000029566              -0.000124696               0.999999999               0.000035555              -0.000135632               0.999999999               0.000041861              -0.000146679               0.999999999               0.000048480              -0.000157974               0.999999999               0.000055442              -0.000169777               0.999999999               0.000062708              -0.000181914               0.999999999              -0.000007434              -0.000085564               0.999999999              -0.000005625              -0.000076933               0.999999999              -0.000004142              -0.000076055               0.999999999              -0.000002165              -0.000079027               0.999999999               0.000000506              -0.000084405               0.999999999               0.000003847              -0.000091381               0.999999999               0.000007789              -0.000099641               0.999999999               0.000012282              -0.000108906               0.999999999               0.000017356              -0.000119275               0.999999999               0.000022989              -0.000130687               0.999999999               0.000029103              -0.000143151               0.999999999               0.000035620              -0.000156137               0.999999999               0.000042347              -0.000169412               0.999999999               0.000049348              -0.000182811               0.999999999               0.000056686              -0.000196754               0.999999999               0.000064399              -0.000211252               0.999999999               0.000072488              -0.000226089               0.999999999              -0.000006858              -0.000100801               0.999999999              -0.000006991              -0.000090839               0.999999999              -0.000005713              -0.000090355               0.999999999              -0.000003259              -0.000094410               0.999999999               0.000000198              -0.000101167               0.999999999               0.000004425              -0.000109803               0.999999999               0.000009269              -0.000119880               0.999999999               0.000014750              -0.000131245               0.999999999               0.000020853              -0.000143889               0.999999999               0.000027456              -0.000157748               0.999999999               0.000034527              -0.000172552               0.999999999               0.000041858              -0.000187793               0.999999999               0.000049363              -0.000203303               0.999999999               0.000057165              -0.000219301               0.999999999               0.000065380              -0.000236112               0.999999999               0.000074001              -0.000253579               0.999999999               0.000083070              -0.000271515               0.999999999              -0.000006251              -0.000115004               0.999999999              -0.000008302              -0.000104085               0.999999999              -0.000007034              -0.000104144               0.999999999              -0.000003938              -0.000109314               0.999999999               0.000000319              -0.000117530               0.999999999               0.000005410              -0.000127954               0.999999999               0.000011143              -0.000140031               0.999999999               0.000017502              -0.000153637               0.999999999               0.000024458              -0.000168649               0.999999999               0.000032006              -0.000185032               0.999999999               0.000039897              -0.000202237               0.999999999               0.000047954              -0.000219892               0.999999999               0.000056236              -0.000238101               0.999999999               0.000064912              -0.000257229               0.999999999               0.000074061              -0.000277355               0.999999999               0.000083644              -0.000298239               0.999999999               0.000093676              -0.000319640               0.999999999              -0.000005506              -0.000127900               0.999999999              -0.000009487              -0.000116636               0.999999999              -0.000007961              -0.000117264               0.999999999              -0.000004142              -0.000123565               0.999999999               0.000000921              -0.000133363               0.999999999               0.000006759              -0.000145654               0.999999999               0.000013238              -0.000159869               0.999999999               0.000020365              -0.000175894               0.999999999               0.000028177              -0.000193534               0.999999999               0.000036560              -0.000212480               0.999999999               0.000045076              -0.000232321               0.999999999               0.000053663              -0.000252968               0.999999999               0.000062635              -0.000274617               0.999999999               0.000072098              -0.000297494               0.999999999               0.000081989              -0.000321633               0.999999999               0.000092221              -0.000346699               0.999999999               0.000102764              -0.000372390               0.999999999              -0.000004510              -0.000139941               0.999999999              -0.000010075              -0.000129509               0.999999999              -0.000009307              -0.000128964               0.999999999              -0.000006035              -0.000133922               0.999999999              -0.000001496              -0.000142299               0.999999999               0.000003654              -0.000153107               0.999999999               0.000009301              -0.000165843               0.999999999               0.000015422              -0.000180279               0.999999999               0.000022172              -0.000196237               0.999999999               0.000029481              -0.000213548               0.999999999               0.000036989              -0.000232000               0.999999999               0.000044509              -0.000251243               0.999999999               0.000052072              -0.000271478               0.999999999               0.000059751              -0.000292752               0.999999999               0.000067840              -0.000315377               0.999999999               0.000076454              -0.000339159               0.999999999               0.000085508              -0.000363995               0.999999999              -0.000003622              -0.000150841               0.999999999              -0.000010072              -0.000141735               0.999999999              -0.000010077              -0.000140661               0.999999999              -0.000007471              -0.000144531               0.999999999              -0.000003558              -0.000151641               0.999999999               0.000000936              -0.000161084               0.999999999               0.000005737              -0.000172453               0.999999999               0.000010937              -0.000185459               0.999999999               0.000016626              -0.000199888               0.999999999               0.000022852              -0.000215662               0.999999999               0.000029264              -0.000232587               0.999999999               0.000035697              -0.000250503               0.999999999               0.000041965              -0.000269357               0.999999999               0.000048288              -0.000289182               0.999999999               0.000054872              -0.000310124               0.999999999               0.000061933              -0.000332306               0.999999999               0.000069433              -0.000355727               0.999999999              -0.000002785              -0.000160338               0.999999999              -0.000009485              -0.000153052               0.999999999              -0.000010168              -0.000151943               0.999999999              -0.000008255              -0.000155058               0.999999999              -0.000005035              -0.000161149               0.999999999              -0.000001287              -0.000169484               0.999999999               0.000002741              -0.000179623               0.999999999               0.000007010              -0.000191398               0.999999999               0.000011651              -0.000204537               0.999999999               0.000016683              -0.000218909               0.999999999               0.000021995              -0.000234408               0.999999999               0.000027297              -0.000250983               0.999999999               0.000032559              -0.000268498               0.999999999               0.000037789              -0.000287016               0.999999999               0.000043077              -0.000306564               0.999999999               0.000048600              -0.000327208               0.999999999               0.000054266              -0.000349058               0.999999999              -0.000002050              -0.000168300               0.999999999              -0.000008357              -0.000163096               0.999999999              -0.000009482              -0.000162306               0.999999999              -0.000008226              -0.000165015               0.999999999              -0.000005761              -0.000170423               0.999999999              -0.000002755              -0.000177880               0.999999999               0.000000427              -0.000187095               0.999999999               0.000003817              -0.000197817               0.999999999               0.000007434              -0.000209912               0.999999999               0.000011308              -0.000223109               0.999999999               0.000015425              -0.000237347               0.999999999               0.000019763              -0.000252611               0.999999999               0.000023999              -0.000268910               0.999999999               0.000028176              -0.000286307               0.999999999               0.000032379              -0.000304809               0.999999999               0.000036407              -0.000324417               0.999999999               0.000040179              -0.000345118               0.999999999              -0.000001425              -0.000174604               0.999999999              -0.000006737              -0.000171435               0.999999999              -0.000007999              -0.000171210               0.999999999              -0.000007290              -0.000173813               0.999999999              -0.000005551              -0.000178801               0.999999999              -0.000003315              -0.000185683               0.999999999              -0.000000964              -0.000194217               0.999999999               0.000001534              -0.000204157               0.999999999               0.000004182              -0.000215342               0.999999999               0.000007089              -0.000227615               0.999999999               0.000010120              -0.000240894               0.999999999               0.000013253              -0.000255190               0.999999999               0.000016471              -0.000270593               0.999999999               0.000019607              -0.000287127               0.999999999               0.000022639              -0.000304863               0.999999999               0.000025381              -0.000323742               0.999999999               0.000027553              -0.000343650               0.999999999              -0.000000882              -0.000179165               0.999999999              -0.000004728              -0.000177697               0.999999999              -0.000005795              -0.000178110               0.999999999              -0.000005470              -0.000180771               0.999999999              -0.000004365              -0.000185540               0.999999999              -0.000002948              -0.000192108               0.999999999              -0.000001349              -0.000200198               0.999999999               0.000000254              -0.000209619               0.999999999               0.000002069              -0.000220138               0.999999999               0.000003965              -0.000231727               0.999999999               0.000005925              -0.000244419               0.999999999               0.000007857              -0.000258197               0.999999999               0.000010021              -0.000273081               0.999999999               0.000012217              -0.000289107               0.999999999               0.000014128              -0.000306341               0.999999999               0.000015666              -0.000324768               0.999999999               0.000016664              -0.000344178               0.999999999              -0.000000423              -0.000181972               0.999999999              -0.000002447              -0.000181597               0.999999999              -0.000003028              -0.000182470               0.999999999              -0.000002941              -0.000185245               0.999999999              -0.000002414              -0.000189942               0.999999999              -0.000001706              -0.000196342               0.999999999              -0.000000937              -0.000204210               0.999999999              -0.000000108              -0.000213332               0.999999999               0.000000787              -0.000223506               0.999999999               0.000001757              -0.000234758               0.999999999               0.000002603              -0.000247112               0.999999999               0.000003614              -0.000260584               0.999999999               0.000004668              -0.000275263               0.999999999               0.000005794              -0.000291199               0.999999999               0.000006826              -0.000308229               0.999999999               0.000007376              -0.000326318               0.999999999               0.000007516              -0.000345413               0.999999999              -0.000000000              -0.000182913               0.999999999               0.000000000              -0.000182885               0.999999999              -0.000000000              -0.000183942               0.999999999              -0.000000000              -0.000186821               0.999999999              -0.000000000              -0.000191470               0.999999999              -0.000000000              -0.000197826               0.999999999               0.000000000              -0.000205640               0.999999999              -0.000000000              -0.000214639               0.999999999               0.000000000              -0.000224734               0.999999999               0.000000000              -0.000235874               0.999999999              -0.000000000              -0.000248056               0.999999999               0.000000000              -0.000261511               0.999999999               0.000000000              -0.000276193               0.999999999               0.000000000              -0.000292083               0.999999999              -0.000000000              -0.000309119               0.999999999               0.000000000              -0.000327043               0.999999999               0.000000000              -0.000345909               0.999999999              -0.000009079               0.000000000               0.999999999              -0.000001974              -0.000000000               0.999999999               0.000001287               0.000000000               0.999999999               0.000002892               0.000000000               0.999999999               0.000003856               0.000000000               0.999999999               0.000004670               0.000000000               0.999999999               0.000005630               0.000000000               0.999999999               0.000006915               0.000000000               0.999999999               0.000008614               0.000000000               0.999999999               0.000010725               0.000000000               0.999999999               0.000013312               0.000000000               0.999999999               0.000016415               0.000000000               0.999999999               0.000019995               0.000000000               0.999999999               0.000024156               0.000000000               0.999999999               0.000028834               0.000000000               0.999999999               0.000033895               0.000000000               0.999999999               0.000039381               0.000000000               0.999999999              -0.000009009               0.000017762               0.999999999              -0.000002110               0.000016011               0.999999999               0.000001042               0.000015568               0.999999999               0.000002601               0.000015888               0.999999999               0.000003603               0.000016754               0.999999999               0.000004535               0.000018013               0.999999999               0.000005627               0.000019593               0.999999999               0.000007077               0.000021431               0.999999999               0.000008913               0.000023503               0.999999999               0.000011199               0.000025762               0.999999999               0.000013979               0.000028276               0.999999999               0.000017269               0.000031071               0.999999999               0.000021124               0.000033994               0.999999999               0.000025476               0.000037029               0.999999999               0.000030245               0.000040067               0.999999999               0.000035436               0.000043318               0.999999999               0.000041070               0.000046830               0.999999999              -0.000008765               0.000035371               0.999999999              -0.000002552               0.000031855               0.999999999               0.000000253               0.000031022               0.999999999               0.000001790               0.000031770               0.999999999               0.000002966               0.000033555               0.999999999               0.000004190               0.000036146               0.999999999               0.000005695               0.000039322               0.999999999               0.000007596               0.000043028               0.999999999               0.000009918               0.000047095               0.999999999               0.000012707               0.000051670               0.999999999               0.000016035               0.000056662               0.999999999               0.000019909               0.000062173               0.999999999               0.000024277               0.000067973               0.999999999               0.000029117               0.000073873               0.999999999               0.000034385               0.000079806               0.999999999               0.000040061               0.000086150               0.999999999               0.000046133               0.000093008               0.999999999              -0.000008391               0.000052660               0.999999999              -0.000003310               0.000047361               0.999999999              -0.000000967               0.000046301               0.999999999               0.000000585               0.000047615               0.999999999               0.000002082               0.000050456               0.999999999               0.000003860               0.000054413               0.999999999               0.000006006               0.000059250               0.999999999               0.000008612               0.000064741               0.999999999               0.000011690               0.000070928               0.999999999               0.000015279               0.000077720               0.999999999               0.000019433               0.000085251               0.999999999               0.000024113               0.000093402               0.999999999               0.000029269               0.000101873               0.999999999               0.000034839               0.000110453               0.999999999               0.000040761               0.000119139               0.999999999               0.000047050               0.000128395               0.999999999               0.000053664               0.000138090               0.999999999              -0.000007947               0.000069455               0.999999999              -0.000004358               0.000062415               0.999999999              -0.000002500               0.000061350               0.999999999              -0.000000807               0.000063387               0.999999999               0.000001206               0.000067437               0.999999999               0.000003675               0.000072851               0.999999999               0.000006667               0.000079359               0.999999999               0.000010204               0.000086756               0.999999999               0.000014244               0.000094978               0.999999999               0.000018831               0.000104069               0.999999999               0.000023966               0.000114057               0.999999999               0.000029566               0.000124696               0.999999999               0.000035555               0.000135632               0.999999999               0.000041861               0.000146679               0.999999999               0.000048480               0.000157974               0.999999999               0.000055442               0.000169777               0.999999999               0.000062708               0.000181914               0.999999999              -0.000007434               0.000085564               0.999999999              -0.000005625               0.000076933               0.999999999              -0.000004142               0.000076055               0.999999999              -0.000002165               0.000079027               0.999999999               0.000000506               0.000084405               0.999999999               0.000003847               0.000091381               0.999999999               0.000007789               0.000099641               0.999999999               0.000012282               0.000108906               0.999999999               0.000017356               0.000119275               0.999999999               0.000022989               0.000130687               0.999999999               0.000029103               0.000143151               0.999999999               0.000035620               0.000156137               0.999999999               0.000042347               0.000169412               0.999999999               0.000049348               0.000182811               0.999999999               0.000056686               0.000196754               0.999999999               0.000064399               0.000211252               0.999999999               0.000072488               0.000226089               0.999999999              -0.000006858               0.000100801               0.999999999              -0.000006991               0.000090839               0.999999999              -0.000005713               0.000090355               0.999999999              -0.000003259               0.000094410               0.999999999               0.000000198               0.000101167               0.999999999               0.000004425               0.000109803               0.999999999               0.000009269               0.000119880               0.999999999               0.000014750               0.000131245               0.999999999               0.000020853               0.000143889               0.999999999               0.000027456               0.000157748               0.999999999               0.000034527               0.000172552               0.999999999               0.000041858               0.000187793               0.999999999               0.000049363               0.000203303               0.999999999               0.000057165               0.000219301               0.999999999               0.000065380               0.000236112               0.999999999               0.000074001               0.000253579               0.999999999               0.000083070               0.000271515               0.999999999              -0.000006251               0.000115004               0.999999999              -0.000008302               0.000104085               0.999999999              -0.000007034               0.000104144               0.999999999              -0.000003938               0.000109314               0.999999999               0.000000319               0.000117530               0.999999999               0.000005410               0.000127954               0.999999999               0.000011143               0.000140031               0.999999999               0.000017502               0.000153637               0.999999999               0.000024458               0.000168649               0.999999999               0.000032006               0.000185032               0.999999999               0.000039897               0.000202237               0.999999999               0.000047954               0.000219892               0.999999999               0.000056236               0.000238101               0.999999999               0.000064912               0.000257229               0.999999999               0.000074061               0.000277355               0.999999999               0.000083644               0.000298239               0.999999999               0.000093676               0.000319640               0.999999999              -0.000005506               0.000127900               0.999999999              -0.000009487               0.000116636               0.999999999              -0.000007961               0.000117264               0.999999999              -0.000004142               0.000123565               0.999999999               0.000000921               0.000133363               0.999999999               0.000006759               0.000145654               0.999999999               0.000013238               0.000159869               0.999999999               0.000020365               0.000175894               0.999999999               0.000028177               0.000193534               0.999999999               0.000036560               0.000212480               0.999999999               0.000045076               0.000232321               0.999999999               0.000053663               0.000252968               0.999999999               0.000062635               0.000274617               0.999999999               0.000072098               0.000297494               0.999999999               0.000081989               0.000321633               0.999999999               0.000092221               0.000346699               0.999999999               0.000102764               0.000372390               0.999999999              -0.000004510               0.000139941               0.999999999              -0.000010075               0.000129509               0.999999999              -0.000009307               0.000128964               0.999999999              -0.000006035               0.000133922               0.999999999              -0.000001496               0.000142299               0.999999999               0.000003654               0.000153107               0.999999999               0.000009301               0.000165843               0.999999999               0.000015422               0.000180279               0.999999999               0.000022172               0.000196237               0.999999999               0.000029481               0.000213548               0.999999999               0.000036989               0.000232000               0.999999999               0.000044509               0.000251243               0.999999999               0.000052072               0.000271478               0.999999999               0.000059751               0.000292752               0.999999999               0.000067840               0.000315377               0.999999999               0.000076454               0.000339159               0.999999999               0.000085508               0.000363995               0.999999999              -0.000003622               0.000150841               0.999999999              -0.000010072               0.000141735               0.999999999              -0.000010077               0.000140661               0.999999999              -0.000007471               0.000144531               0.999999999              -0.000003558               0.000151641               0.999999999               0.000000936               0.000161084               0.999999999               0.000005737               0.000172453               0.999999999               0.000010937               0.000185459               0.999999999               0.000016626               0.000199888               0.999999999               0.000022852               0.000215662               0.999999999               0.000029264               0.000232587               0.999999999               0.000035697               0.000250503               0.999999999               0.000041965               0.000269357               0.999999999               0.000048288               0.000289182               0.999999999               0.000054872               0.000310124               0.999999999               0.000061933               0.000332306               0.999999999               0.000069433               0.000355727               0.999999999              -0.000002785               0.000160338               0.999999999              -0.000009485               0.000153052               0.999999999              -0.000010168               0.000151943               0.999999999              -0.000008255               0.000155058               0.999999999              -0.000005035               0.000161149               0.999999999              -0.000001287               0.000169484               0.999999999               0.000002741               0.000179623               0.999999999               0.000007010               0.000191398               0.999999999               0.000011651               0.000204537               0.999999999               0.000016683               0.000218909               0.999999999               0.000021995               0.000234408               0.999999999               0.000027297               0.000250983               0.999999999               0.000032559               0.000268498               0.999999999               0.000037789               0.000287016               0.999999999               0.000043077               0.000306564               0.999999999               0.000048600               0.000327208               0.999999999               0.000054266               0.000349058               0.999999999              -0.000002050               0.000168300               0.999999999              -0.000008357               0.000163096               0.999999999              -0.000009482               0.000162306               0.999999999              -0.000008226               0.000165015               0.999999999              -0.000005761               0.000170423               0.999999999              -0.000002755               0.000177880               0.999999999               0.000000427               0.000187095               0.999999999               0.000003817               0.000197817               0.999999999               0.000007434               0.000209912               0.999999999               0.000011308               0.000223109               0.999999999               0.000015425               0.000237347               0.999999999               0.000019763               0.000252611               0.999999999               0.000023999               0.000268910               0.999999999               0.000028176               0.000286307               0.999999999               0.000032379               0.000304809               0.999999999               0.000036407               0.000324417               0.999999999               0.000040179               0.000345118               0.999999999              -0.000001425               0.000174604               0.999999999              -0.000006737               0.000171435               0.999999999              -0.000007999               0.000171210               0.999999999              -0.000007290               0.000173813               0.999999999              -0.000005551               0.000178801               0.999999999              -0.000003315               0.000185683               0.999999999              -0.000000964               0.000194217               0.999999999               0.000001534               0.000204157               0.999999999               0.000004182               0.000215342               0.999999999               0.000007089               0.000227615               0.999999999               0.000010120               0.000240894               0.999999999               0.000013253               0.000255190               0.999999999               0.000016471               0.000270593               0.999999999               0.000019607               0.000287127               0.999999999               0.000022639               0.000304863               0.999999999               0.000025381               0.000323742               0.999999999               0.000027553               0.000343650               0.999999999              -0.000000882               0.000179165               0.999999999              -0.000004728               0.000177697               0.999999999              -0.000005795               0.000178110               0.999999999              -0.000005470               0.000180771               0.999999999              -0.000004365               0.000185540               0.999999999              -0.000002948               0.000192108               0.999999999              -0.000001349               0.000200198               0.999999999               0.000000254               0.000209619               0.999999999               0.000002069               0.000220138               0.999999999               0.000003965               0.000231727               0.999999999               0.000005925               0.000244419               0.999999999               0.000007857               0.000258197               0.999999999               0.000010021               0.000273081               0.999999999               0.000012217               0.000289107               0.999999999               0.000014128               0.000306341               0.999999999               0.000015666               0.000324768               0.999999999               0.000016664               0.000344178               0.999999999              -0.000000423               0.000181972               0.999999999              -0.000002447               0.000181597               0.999999999              -0.000003028               0.000182470               0.999999999              -0.000002941               0.000185245               0.999999999              -0.000002414               0.000189942               0.999999999              -0.000001706               0.000196342               0.999999999              -0.000000937               0.000204210               0.999999999              -0.000000108               0.000213332               0.999999999               0.000000787               0.000223506               0.999999999               0.000001757               0.000234758               0.999999999               0.000002603               0.000247112               0.999999999               0.000003614               0.000260584               0.999999999               0.000004668               0.000275263               0.999999999               0.000005794               0.000291199               0.999999999               0.000006826               0.000308229               0.999999999               0.000007376               0.000326318               0.999999999               0.000007516               0.000345413               0.999999999              -0.000000000               0.000182913               0.999999999              -0.000000000               0.000182885               0.999999999              -0.000000000               0.000183942               0.999999999              -0.000000000               0.000186821               0.999999999              -0.000000000               0.000191470               0.999999999              -0.000000000               0.000197826               0.999999999               0.000000000               0.000205640               0.999999999               0.000000000               0.000214639               0.999999999               0.000000000               0.000224734               0.999999999               0.000000000               0.000235874               0.999999999               0.000000000               0.000248056               0.999999999               0.000000000               0.000261511               0.999999999               0.000000000               0.000276193               0.999999999              -0.000000000               0.000292083               0.999999999              -0.000000000               0.000309119               0.999999999              -0.000000000               0.000327043               0.999999999              -0.000000000               0.000345909               0.999999999 </DataArray>
<DataArray type="Float64"                                    Name="defo"                                                      NumberOfComponents=" 3" format="ascii">
              0.000009079              -0.000000000               0.999999999               0.000001974               0.000000000               0.999999999              -0.000001287              -0.000000000               0.999999999              -0.000002892              -0.000000000               0.999999999              -0.000003856               0.000000000               0.999999999              -0.000004670               0.000000000               0.999999999              -0.000005630               0.000000000               0.999999999              -0.000006915              -0.000000000               0.999999999              -0.000008614              -0.000000000               0.999999999              -0.000010725               0.000000000               0.999999999              -0.000013312               0.000000000               0.999999999              -0.000016415               0.000000000               0.999999999              -0.000019995              -0.000000000               0.999999999              -0.000024156              -0.000000000               0.999999999              -0.000028834              -0.000000000               0.999999999              -0.000033895              -0.000000000               0.999999999              -0.000039381              -0.000000000               0.999999999               0.000009009               0.000017762               0.999999999               0.000002110               0.000016011               0.999999999              -0.000001042               0.000015568               0.999999999              -0.000002601               0.000015888               0.999999999              -0.000003603               0.000016754               0.999999999              -0.000004535               0.000018013               0.999999999              -0.000005627               0.000019593               0.999999999              -0.000007077               0.000021431               0.999999999              -0.000008913               0.000023503               0.999999999              -0.000011199               0.000025762               0.999999999              -0.000013979               0.000028276               0.999999999              -0.000017269               0.000031071               0.999999999              -0.000021124               0.000033994               0.999999999              -0.000025476               0.000037029               0.999999999              -0.000030245               0.000040067               0.999999999              -0.000035436               0.000043318               0.999999999              -0.000041070               0.000046830               0.999999999               0.000008765               0.000035371               0.999999999               0.000002552               0.000031855               0.999999999              -0.000000253               0.000031022               0.999999999              -0.000001790               0.000031770               0.999999999              -0.000002966               0.000033555               0.999999999              -0.000004190               0.000036146               0.999999999              -0.000005695               0.000039322               0.999999999              -0.000007596               0.000043028               0.999999999              -0.000009918               0.000047095               0.999999999              -0.000012707               0.000051670               0.999999999              -0.000016035               0.000056662               0.999999999              -0.000019909               0.000062173               0.999999999              -0.000024277               0.000067973               0.999999999              -0.000029117               0.000073873               0.999999999              -0.000034385               0.000079806               0.999999999              -0.000040061               0.000086150               0.999999999              -0.000046133               0.000093008               0.999999999               0.000008391               0.000052660               0.999999999               0.000003310               0.000047361               0.999999999               0.000000967               0.000046301               0.999999999              -0.000000585               0.000047615               0.999999999              -0.000002082               0.000050456               0.999999999              -0.000003860               0.000054413               0.999999999              -0.000006006               0.000059250               0.999999999              -0.000008612               0.000064741               0.999999999              -0.000011690               0.000070928               0.999999999              -0.000015279               0.000077720               0.999999999              -0.000019433               0.000085251               0.999999999              -0.000024113               0.000093402               0.999999999              -0.000029269               0.000101873               0.999999999              -0.000034839               0.000110453               0.999999999              -0.000040761               0.000119139               0.999999999              -0.000047050               0.000128395               0.999999999              -0.000053664               0.000138090               0.999999999               0.000007947               0.000069455               0.999999999               0.000004358               0.000062415               0.999999999               0.000002500               0.000061350               0.999999999               0.000000807               0.000063387               0.999999999              -0.000001206               0.000067437               0.999999999              -0.000003675               0.000072851               0.999999999              -0.000006667               0.000079359               0.999999999              -0.000010204               0.000086756               0.999999999              -0.000014244               0.000094978               0.999999999              -0.000018831               0.000104069               0.999999999              -0.000023966               0.000114057               0.999999999              -0.000029566               0.000124696               0.999999999              -0.000035555               0.000135632               0.999999999              -0.000041861               0.000146679               0.999999999              -0.000048480               0.000157974               0.999999999              -0.000055442               0.000169777               0.999999999              -0.000062708               0.000181914               0.999999999               0.000007434               0.000085564               0.999999999               0.000005625               0.000076933               0.999999999               0.000004142               0.000076055               0.999999999               0.000002165               0.000079027               0.999999999              -0.000000506               0.000084405               0.999999999              -0.000003847               0.000091381               0.999999999              -0.000007789               0.000099641               0.999999999              -0.000012282               0.000108906               0.999999999              -0.000017356               0.000119275               0.999999999              -0.000022989               0.000130687               0.999999999              -0.000029103               0.000143151               0.999999999              -0.000035620               0.000156137               0.999999999              -0.000042347               0.000169412               0.999999999              -0.000049348               0.000182811               0.999999999              -0.000056686               0.000196754               0.999999999              -0.000064399               0.000211252               0.999999999              -0.000072488               0.000226089               0.999999999               0.000006858               0.000100801               0.999999999               0.000006991               0.000090839               0.999999999               0.000005713               0.000090355               0.999999999               0.000003259               0.000094410               0.999999999              -0.000000198               0.000101167               0.999999999              -0.000004425               0.000109803               0.999999999              -0.000009269               0.000119880               0.999999999              -0.000014750               0.000131245               0.999999999              -0.000020853               0.000143889               0.999999999              -0.000027456               0.000157748               0.999999999              -0.000034527               0.000172552               0.999999999              -0.000041858               0.000187793               0.999999999              -0.000049363               0.000203303               0.999999999              -0.000057165               0.000219301               0.999999999              -0.000065380               0.000236112               0.999999999              -0.000074001               0.000253579               0.999999999              -0.000083070               0.000271515               0.999999999               0.000006251               0.000115004               0.999999999               0.000008302               0.000104085               0.999999999               0.000007034               0.000104144               0.999999999               0.000003938               0.000109314               0.999999999              -0.000000319               0.000117530               0.999999999              -0.000005410               0.000127954               0.999999999              -0.000011143               0.000140031               0.999999999              -0.000017502               0.000153637               0.999999999              -0.000024458               0.000168649               0.999999999              -0.000032006               0.000185032               0.999999999              -0.000039897               0.000202237               0.999999999              -0.000047954               0.000219892               0.999999999              -0.000056236               0.000238101               0.999999999              -0.000064912               0.000257229               0.999999999              -0.000074061               0.000277355               0.999999999              -0.000083644               0.000298239               0.999999999              -0.000093676               0.000319640               0.999999999               0.000005506               0.000127900               0.999999999               0.000009487               0.000116636               0.999999999               0.000007961               0.000117264               0.999999999               0.000004142               0.000123565               0.999999999              -0.000000921               0.000133363               0.999999999              -0.000006759               0.000145654               0.999999999              -0.000013238               0.000159869               0.999999999              -0.000020365               0.000175894               0.999999999              -0.000028177               0.000193534               0.999999999              -0.000036560               0.000212480               0.999999999              -0.000045076               0.000232321               0.999999999              -0.000053663               0.000252968               0.999999999              -0.000062635               0.000274617               0.999999999              -0.000072098               0.000297494               0.999999999              -0.000081989               0.000321633               0.999999999              -0.000092221               0.000346699               0.999999999              -0.000102764               0.000372390               0.999999999               0.000004510               0.000139941               0.999999999               0.000010075               0.000129509               0.999999999               0.000009307               0.000128964               0.999999999               0.000006035               0.000133922               0.999999999               0.000001496               0.000142299               0.999999999              -0.000003654               0.000153107               0.999999999              -0.000009301               0.000165843               0.999999999              -0.000015422               0.000180279               0.999999999              -0.000022172               0.000196237               0.999999999              -0.000029481               0.000213548               0.999999999              -0.000036989               0.000232000               0.999999999              -0.000044509               0.000251243               0.999999999              -0.000052072               0.000271478               0.999999999              -0.000059751               0.000292752               0.999999999              -0.000067840               0.000315377               0.999999999              -0.000076454               0.000339159               0.999999999              -0.000085508               0.000363995               0.999999999               0.000003622               0.000150841               0.999999999               0.000010072               0.000141735               0.999999999               0.000010077               0.000140661               0.999999999               0.000007471               0.000144531               0.999999999               0.000003558               0.000151641               0.999999999              -0.000000936               0.000161084               0.999999999              -0.000005737               0.000172453               0.999999999              -0.000010937               0.000185459               0.999999999              -0.000016626               0.000199888               0.999999999              -0.000022852               0.000215662               0.999999999              -0.000029264               0.000232587               0.999999999              -0.000035697               0.000250503               0.999999999              -0.000041965               0.000269357               0.999999999              -0.000048288               0.000289182               0.999999999              -0.000054872               0.000310124               0.999999999              -0.000061933               0.000332306               0.999999999              -0.000069433               0.000355727               0.999999999               0.000002785               0.000160338               0.999999999               0.000009485               0.000153052               0.999999999               0.000010168               0.000151943               0.999999999               0.000008255               0.000155058               0.999999999               0.000005035               0.000161149               0.999999999               0.000001287               0.000169484               0.999999999              -0.000002741               0.000179623               0.999999999              -0.000007010               0.000191398               0.999999999              -0.000011651               0.000204537               0.999999999              -0.000016683               0.000218909               0.999999999              -0.000021995               0.000234408               0.999999999              -0.000027297               0.000250983               0.999999999              -0.000032559               0.000268498               0.999999999              -0.000037789               0.000287016               0.999999999              -0.000043077               0.000306564               0.999999999              -0.000048600               0.000327208               0.999999999              -0.000054266               0.000349058               0.999999999               0.000002050               0.000168300               0.999999999               0.000008357               0.000163096               0.999999999               0.000009482               0.000162306               0.999999999               0.000008226               0.000165015               0.999999999               0.000005761               0.000170423               0.999999999               0.000002755               0.000177880               0.999999999              -0.000000427               0.000187095               0.999999999              -0.000003817               0.000197817               0.999999999              -0.000007434               0.000209912               0.999999999              -0.000011308               0.000223109               0.999999999              -0.000015425               0.000237347               0.999999999              -0.000019763               0.000252611               0.999999999              -0.000023999               0.000268910               0.999999999              -0.000028176               0.000286307               0.999999999              -0.000032379               0.000304809               0.999999999              -0.000036407               0.000324417               0.999999999              -0.000040179               0.000345118               0.999999999               0.000001425               0.000174604               0.999999999               0.000006737               0.000171435               0.999999999               0.000007999               0.000171210               0.999999999               0.000007290               0.000173813               0.999999999               0.000005551               0.000178801               0.999999999               0.000003315               0.000185683               0.999999999               0.000000964               0.000194217               0.999999999              -0.000001534               0.000204157               0.999999999              -0.000004182               0.000215342               0.999999999              -0.000007089               0.000227615               0.999999999              -0.000010120               0.000240894               0.999999999              -0.000013253               0.000255190               0.999999999              -0.000016471               0.000270593               0.999999999              -0.000019607               0.000287127               0.999999999              -0.000022639               0.000304863               0.999999999              -0.000025381               0.000323742               0.999999999              -0.000027553               0.000343650               0.999999999               0.000000882               0.000179165               0.999999999               0.000004728               0.000177697               0.999999999               0.000005795               0.000178110               0.999999999               0.000005470               0.000180771               0.999999999               0.000004365               0.000185540               0.999999999               0.000002948               0.000192108               0.999999999               0.000001349               0.000200198               0.999999999              -0.000000254               0.000209619               0.999999999              -0.000002069               0.000220138               0.999999999              -0.000003965               0.000231727               0.999999999              -0.000005925               0.000244419               0.999999999              -0.000007857               0.000258197               0.999999999              -0.000010021               0.000273081               0.999999999              -0.000012217               0.000289107               0.999999999              -0.000014128               0.000306341               0.999999999              -0.000015666               0.000324768               0.999999999              -0.000016664               0.000344178               0.999999999               0.000000423               0.000181972               0.999999999               0.000002447               0.000181597               0.999999999               0.000003028               0.000182470               0.999999999               0.000002941               0.000185245               0.999999999               0.000002414               0.000189942               0.999999999               0.000001706               0.000196342               0.999999999               0.000000937               0.000204210               0.999999999               0.000000108               0.000213332               0.999999999              -0.000000787               0.000223506               0.999999999              -0.000001757               0.000234758               0.999999999              -0.000002603               0.000247112               0.999999999              -0.000003614               0.000260584               0.999999999              -0.000004668               0.000275263               0.999999999              -0.000005794               0.000291199               0.999999999              -0.000006826               0.000308229               0.999999999              -0.000007376               0.000326318               0.999999999              -0.000007516               0.000345413               0.999999999              -0.000000000               0.000182913               0.999999999              -0.000000000               0.000182885               0.999999999              -0.000000000               0.000183942               0.999999999              -0.000000000               0.000186821               0.999999999              -0.000000000               0.000191470               0.999999999              -0.000000000               0.000197826               0.999999999               0.000000000               0.000205640               0.999999999               0.000000000               0.000214639               0.999999999               0.000000000               0.000224734               0.999999999               0.000000000               0.000235874               0.999999999               0.000000000               0.000248056               0.999999999               0.000000000               0.000261511               0.999999999               0.000000000               0.000276193               0.999999999              -0.000000000               0.000292083               0.999999999              -0.000000000               0.000309119               0.999999999              -0.000000000               0.000327043               0.999999999              -0.000000000               0.000345909               0.999999999               0.000009079              -0.000000000               0.999999999               0.000001974               0.000000000               0.999999999              -0.000001287              -0.000000000               0.999999999              -0.000002892              -0.000000000               0.999999999              -0.000003856               0.000000000               0.999999999              -0.000004670               0.000000000               0.999999999              -0.000005630               0.000000000               0.999999999              -0.000006915              -0.000000000               0.999999999              -0.000008614              -0.000000000               0.999999999              -0.000010725               0.000000000               0.999999999              -0.000013312               0.000000000               0.999999999              -0.000016415               0.000000000               0.999999999              -0.000019995              -0.000000000               0.999999999              -0.000024156              -0.000000000               0.999999999              -0.000028834              -0.000000000               0.999999999              -0.000033895              -0.000000000               0.999999999              -0.000039381              -0.000000000               0.999999999               0.000009009              -0.000017762               0.999999999               0.000002110              -0.000016011               0.999999999              -0.000001042              -0.000015568               0.999999999              -0.000002601              -0.000015888               0.999999999              -0.000003603              -0.000016754               0.999999999              -0.000004535              -0.000018013               0.999999999              -0.000005627              -0.000019593               0.999999999              -0.000007077              -0.000021431               0.999999999              -0.000008913              -0.000023503               0.999999999              -0.000011199              -0.000025762               0.999999999              -0.000013979              -0.000028276               0.999999999              -0.000017269              -0.000031071               0.999999999              -0.000021124              -0.000033994               0.999999999              -0.000025476              -0.000037029               0.999999999              -0.000030245              -0.000040067               0.999999999              -0.000035436              -0.000043318               0.999999999              -0.000041070              -0.000046830               0.999999999               0.000008765              -0.000035371               0.999999999               0.000002552              -0.000031855               0.999999999              -0.000000253              -0.000031022               0.999999999              -0.000001790              -0.000031770               0.999999999              -0.000002966              -0.000033555               0.999999999              -0.000004190              -0.000036146               0.999999999              -0.000005695              -0.000039322               0.999999999              -0.000007596              -0.000043028               0.999999999              -0.000009918              -0.000047095               0.999999999              -0.000012707              -0.000051670               0.999999999              -0.000016035              -0.000056662               0.999999999              -0.000019909              -0.000062173               0.999999999              -0.000024277              -0.000067973               0.999999999              -0.000029117              -0.000073873               0.999999999              -0.000034385              -0.000079806               0.999999999              -0.000040061              -0.000086150               0.999999999              -0.000046133              -0.000093008               0.999999999               0.000008391              -0.000052660               0.999999999               0.000003310              -0.000047361               0.999999999               0.000000967              -0.000046301               0.999999999              -0.000000585              -0.000047615               0.999999999              -0.000002082              -0.000050456               0.999999999              -0.000003860              -0.000054413               0.999999999              -0.000006006              -0.000059250               0.999999999              -0.000008612              -0.000064741               0.999999999              -0.000011690              -0.000070928               0.999999999              -0.000015279              -0.000077720               0.999999999              -0.000019433              -0.000085251               0.999999999              -0.000024113              -0.000093402               0.999999999              -0.000029269              -0.000101873               0.999999999              -0.000034839              -0.000110453               0.999999999              -0.000040761              -0.000119139               0.999999999              -0.000047050              -0.000128395               0.999999999              -0.000053664              -0.000138090               0.999999999               0.000007947              -0.000069455               0.999999999               0.000004358              -0.000062415               0.999999999               0.000002500              -0.000061350               0.999999999               0.000000807              -0.000063387               0.999999999              -0.000001206              -0.000067437               0.999999999              -0.000003675              -0.000072851               0.999999999              -0.000006667              -0.000079359               0.999999999              -0.000010204              -0.000086756               0.999999999              -0.000014244              -0.000094978               0.999999999              -0.000018831              -0.000104069               0.999999999              -0.000023966              -0.000114057               0.999999999              -0.000029566              -0.000124696               0.999999999              -0.000035555              -0.000135632               0.999999999              -0.000041861              -0.000146679               0.999999999              -0.000048480              -0.000157974               0.999999999              -0.000055442              -0.000169777               0.999999999              -0.000062708              -0.000181914               0.999999999               0.000007434              -0.000085564               0.999999999               0.000005625              -0.000076933               0.999999999               0.000004142              -0.000076055               0.999999999               0.000002165              -0.000079027               0.999999999              -0.000000506              -0.000084405               0.999999999              -0.000003847              -0.000091381               0.999999999              -0.000007789              -0.000099641               0.999999999              -0.000012282              -0.000108906               0.999999999              -0.000017356              -0.000119275               0.999999999              -0.000022989              -0.000130687               0.999999999              -0.000029103              -0.000143151               0.999999999              -0.000035620              -0.000156137               0.999999999              -0.000042347              -0.000169412               0.999999999              -0.000049348              -0.000182811               0.999999999              -0.000056686              -0.000196754               0.999999999              -0.000064399              -0.000211252               0.999999999              -0.000072488              -0.000226089               0.999999999               0.000006858              -0.000100801               0.999999999               0.000006991              -0.000090839               0.999999999               0.000005713              -0.000090355               0.999999999               0.000003259              -0.000094410               0.999999999              -0.000000198              -0.000101167               0.999999999              -0.000004425              -0.000109803               0.999999999              -0.000009269              -0.000119880               0.999999999              -0.000014750              -0.000131245               0.999999999              -0.000020853              -0.000143889               0.999999999              -0.000027456              -0.000157748               0.999999999              -0.000034527              -0.000172552               0.999999999              -0.000041858              -0.000187793               0.999999999              -0.000049363              -0.000203303               0.999999999              -0.000057165              -0.000219301               0.999999999              -0.000065380              -0.000236112               0.999999999              -0.000074001              -0.000253579               0.999999999              -0.000083070              -0.000271515               0.999999999               0.000006251              -0.000115004               0.999999999               0.000008302              -0.000104085               0.999999999               0.000007034              -0.000104144               0.999999999               0.000003938              -0.000109314               0.999999999              -0.000000319              -0.000117530               0.999999999              -0.000005410              -0.000127954               0.999999999              -0.000011143              -0.000140031               0.999999999              -0.000017502              -0.000153637               0.999999999              -0.000024458              -0.000168649               0.999999999              -0.000032006              -0.000185032               0.999999999              -0.000039897              -0.000202237               0.999999999              -0.000047954              -0.000219892               0.999999999              -0.000056236              -0.000238101               0.999999999              -0.000064912              -0.000257229               0.999999999              -0.000074061              -0.000277355               0.999999999              -0.000083644              -0.000298239               0.999999999              -0.000093676              -0.000319640               0.999999999               0.000005506              -0.000127900               0.999999999               0.000009487              -0.000116636               0.999999999               0.000007961              -0.000117264               0.999999999               0.000004142              -0.000123565               0.999999999              -0.000000921              -0.000133363               0.999999999              -0.000006759              -0.000145654               0.999999999              -0.000013238              -0.000159869               0.999999999              -0.000020365              -0.000175894               0.999999999              -0.000028177              -0.000193534               0.999999999              -0.000036560              -0.000212480               0.999999999              -0.000045076              -0.000232321               0.999999999              -0.000053663              -0.000252968               0.999999999              -0.000062635              -0.000274617               0.999999999              -0.000072098              -0.000297494               0.999999999              -0.000081989              -0.000321633               0.999999999              -0.000092221              -0.000346699               0.999999999              -0.000102764              -0.000372390               0.999999999               0.000004510              -0.000139941               0.999999999               0.000010075              -0.000129509               0.999999999               0.000009307              -0.000128964               0.999999999               0.000006035              -0.000133922               0.999999999               0.000001496              -0.000142299               0.999999999              -0.000003654              -0.000153107               0.999999999              -0.000009301              -0.000165843               0.999999999              -0.000015422              -0.000180279               0.999999999              -0.000022172              -0.000196237               0.999999999              -0.000029481              -0.000213548               0.999999999              -0.000036989              -0.000232000               0.999999999              -0.000044509              -0.000251243               0.999999999              -0.000052072              -0.000271478               0.999999999              -0.000059751              -0.000292752               0.999999999              -0.000067840              -0.000315377               0.999999999              -0.000076454              -0.000339159               0.999999999              -0.000085508              -0.000363995               0.999999999               0.000003622              -0.000150841               0.999999999               0.000010072              -0.000141735               0.999999999               0.000010077              -0.000140661               0.999999999               0.000007471              -0.000144531               0.999999999               0.000003558              -0.000151641               0.999999999              -0.000000936              -0.000161084               0.999999999              -0.000005737              -0.000172453               0.999999999              -0.000010937              -0.000185459               0.999999999              -0.000016626              -0.000199888               0.999999999              -0.000022852              -0.000215662               0.999999999              -0.000029264              -0.000232587               0.999999999              -0.000035697              -0.000250503               0.999999999              -0.000041965              -0.000269357               0.999999999              -0.000048288              -0.000289182               0.999999999              -0.000054872              -0.000310124               0.999999999              -0.000061933              -0.000332306               0.999999999              -0.000069433              -0.000355727               0.999999999               0.000002785              -0.000160338               0.999999999               0.000009485              -0.000153052               0.999999999               0.000010168              -0.000151943               0.999999999               0.000008255              -0.000155058               0.999999999               0.000005035              -0.000161149               0.999999999               0.000001287              -0.000169484               0.999999999              -0.000002741              -0.000179623               0.999999999              -0.000007010              -0.000191398               0.999999999              -0.000011651              -0.000204537               0.999999999              -0.000016683              -0.000218909               0.999999999              -0.000021995              -0.000234408               0.999999999              -0.000027297              -0.000250983               0.999999999              -0.000032559              -0.000268498               0.999999999              -0.000037789              -0.000287016               0.999999999              -0.000043077              -0.000306564               0.999999999              -0.000048600              -0.000327208               0.999999999              -0.000054266              -0.000349058               0.999999999               0.000002050              -0.000168300               0.999999999               0.000008357              -0.000163096               0.999999999               0.000009482              -0.000162306               0.999999999               0.000008226              -0.000165015               0.999999999               0.000005761              -0.000170423               0.999999999               0.000002755              -0.000177880               0.999999999              -0.000000427              -0.000187095               0.999999999              -0.000003817              -0.000197817               0.999999999              -0.000007434              -0.000209912               0.999999999              -0.000011308              -0.000223109               0.999999999              -0.000015425              -0.000237347               0.999999999              -0.000019763              -0.000252611               0.999999999              -0.000023999              -0.000268910               0.999999999              -0.000028176              -0.000286307               0.999999999              -0.000032379              -0.000304809               0.999999999              -0.000036407              -0.000324417               0.999999999              -0.000040179              -0.000345118               0.999999999               0.000001425              -0.000174604               0.999999999               0.000006737              -0.000171435               0.999999999               0.000007999              -0.000171210               0.999999999               0.000007290              -0.000173813               0.999999999               0.000005551              -0.000178801               0.999999999               0.000003315              -0.000185683               0.999999999               0.000000964              -0.000194217               0.999999999              -0.000001534              -0.000204157               0.999999999              -0.000004182              -0.000215342               0.999999999              -0.000007089              -0.000227615               0.999999999              -0.000010120              -0.000240894               0.999999999              -0.000013253              -0.000255190               0.999999999              -0.000016471              -0.000270593               0.999999999              -0.000019607              -0.000287127               0.999999999              -0.000022639              -0.000304863               0.999999999              -0.000025381              -0.000323742               0.999999999              -0.000027553              -0.000343650               0.999999999               0.000000882              -0.000179165               0.999999999               0.000004728              -0.000177697               0.999999999               0.000005795              -0.000178110               0.999999999               0.000005470              -0.000180771               0.999999999               0.000004365              -0.000185540               0.999999999               0.000002948              -0.000192108               0.999999999               0.000001349              -0.000200198               0.999999999              -0.000000254              -0.000209619               0.999999999              -0.000002069              -0.000220138               0.999999999              -0.000003965              -0.000231727               0.999999999              -0.000005925              -0.000244419               0.999999999              -0.000007857              -0.000258197               0.999999999              -0.000010021              -0.000273081               0.999999999              -0.000012217              -0.000289107               0.999999999              -0.000014128              -0.000306341               0.999999999              -0.000015666              -0.000324768               0.999999999              -0.000016664              -0.000344178               0.999999999               0.000000423              -0.000181972               0.999999999               0.000002447              -0.000181597               0.999999999               0.000003028              -0.000182470               0.999999999               0.000002941              -0.000185245               0.999999999               0.000002414              -0.000189942               0.999999999               0.000001706              -0.000196342               0.999999999               0.000000937              -0.000204210               0.999999999               0.000000108              -0.000213332               0.999999999              -0.000000787              -0.000223506               0.999999999              -0.000001757              -0.000234758               0.999999999              -0.000002603              -0.000247112               0.999999999              -0.000003614              -0.000260584               0.999999999              -0.000004668              -0.000275263               0.999999999              -0.000005794              -0.000291199               0.999999999              -0.000006826              -0.000308229               0.999999999              -0.000007376              -0.000326318               0.999999999              -0.000007516              -0.000345413               0.999999999              -0.000000000              -0.000182913               0.999999999               0.000000000              -0.000182885               0.999999999              -0.000000000              -0.000183942               0.999999999              -0.000000000              -0.000186821               0.999999999              -0.000000000              -0.000191470               0.999999999              -0.000000000              -0.000197826               0.999999999               0.000000000              -0.000205640               0.999999999              -0.000000000              -0.000214639               0.999999999               0.000000000              -0.000224734               0.999999999               0.000000000              -0.000235874               0.999999999              -0.000000000              -0.000248056               0.999999999               0.000000000              -0.000261511               0.999999999               0.000000000              -0.000276193               0.999999999               0.000000000              -0.000292083               0.999999999              -0.000000000              -0.000309119               0.999999999               0.000000000              -0.000327043               0.999999999               0.000000000              -0.000345909               0.999999999              -0.000009079               0.000000000               0.999999999              -0.000001974              -0.000000000               0.999999999               0.000001287               0.000000000               0.999999999               0.000002892               0.000000000               0.999999999               0.000003856               0.000000000               0.999999999               0.000004670               0.000000000               0.999999999               0.000005630               0.000000000               0.999999999               0.000006915               0.000000000               0.999999999               0.000008614               0.000000000               0.999999999               0.000010725               0.000000000               0.999999999               0.000013312               0.000000000               0.999999999               0.000016415               0.000000000               0.999999999               0.000019995               0.000000000               0.999999999               0.000024156               0.000000000               0.999999999               0.000028834               0.000000000               0.999999999               0.000033895               0.000000000               0.999999999               0.000039381               0.000000000               0.999999999              -0.000009009              -0.000017762               0.999999999              -0.000002110              -0.000016011               0.999999999               0.000001042              -0.000015568               0.999999999               0.000002601              -0.000015888               0.999999999               0.000003603              -0.000016754               0.999999999               0.000004535              -0.000018013               0.999999999               0.000005627              -0.000019593               0.999999999               0.000007077              -0.000021431               0.999999999               0.000008913              -0.000023503               0.999999999               0.000011199              -0.000025762               0.999999999               0.000013979              -0.000028276               0.999999999               0.000017269              -0.000031071               0.999999999               0.000021124              -0.000033994               0.999999999               0.000025476              -0.000037029               0.999999999               0.000030245              -0.000040067               0.999999999               0.000035436              -0.000043318               0.999999999               0.000041070              -0.000046830               0.999999999              -0.000008765              -0.000035371               0.999999999              -0.000002552              -0.000031855               0.999999999               0.000000253              -0.000031022               0.999999999               0.000001790              -0.000031770               0.999999999               0.000002966              -0.000033555               0.999999999               0.000004190              -0.000036146               0.999999999               0.000005695              -0.000039322               0.999999999               0.000007596              -0.000043028               0.999999999               0.000009918              -0.000047095               0.999999999               0.000012707              -0.000051670               0.999999999               0.000016035              -0.000056662               0.999999999               0.000019909              -0.000062173               0.999999999               0.000024277              -0.000067973               0.999999999               0.000029117              -0.000073873               0.999999999               0.000034385              -0.000079806               0.999999999               0.000040061              -0.000086150               0.999999999               0.000046133              -0.000093008               0.999999999              -0.000008391              -0.000052660               0.999999999              -0.000003310              -0.000047361               0.999999999              -0.000000967              -0.000046301               0.999999999               0.000000585              -0.000047615               0.999999999               0.000002082              -0.000050456               0.999999999               0.000003860              -0.000054413               0.999999999               0.000006006              -0.000059250               0.999999999               0.000008612              -0.000064741               0.999999999               0.000011690              -0.000070928               0.999999999               0.000015279              -0.000077720               0.999999999               0.000019433              -0.000085251               0.999999999               0.000024113              -0.000093402               0.999999999               0.000029269              -0.000101873               0.999999999               0.000034839              -0.000110453               0.999999999               0.000040761              -0.000119139               0.999999999               0.000047050              -0.000128395               0.999999999               0.000053664              -0.000138090               0.999999999              -0.000007947              -0.000069455               0.999999999              -0.000004358              -0.000062415               0.999999999              -0.000002500              -0.000061350               0.999999999              -0.000000807              -0.000063387               0.999999999               0.000001206              -0.000067437               0.999999999               0.000003675              -0.000072851               0.999999999               0.000006667              -0.000079359               0.999999999               0.000010204              -0.000086756               0.999999999               0.000014244              -0.000094978               0.999999999               0.000018831              -0.000104069               0.999999999               0.000023966              -0.000114057               0.999999999               0.000029566              -0.000124696               0.999999999               0.000035555              -0.000135632               0.999999999               0.000041861              -0.000146679               0.999999999               0.000048480              -0.000157974               0.999999999               0.000055442              -0.000169777               0.999999999               0.000062708              -0.000181914               0.999999999              -0.000007434              -0.000085564               0.999999999              -0.000005625              -0.000076933               0.999999999              -0.000004142              -0.000076055               0.999999999              -0.000002165              -0.000079027               0.999999999               0.000000506              -0.000084405               0.999999999               0.000003847              -0.000091381               0.999999999               0.000007789              -0.000099641               0.999999999               0.000012282              -0.000108906               0.999999999               0.000017356              -0.000119275               0.999999999               0.000022989              -0.000130687               0.999999999               0.000029103              -0.000143151               0.999999999               0.000035620              -0.000156137               0.999999999               0.000042347              -0.000169412               0.999999999               0.000049348              -0.000182811               0.999999999               0.000056686              -0.000196754               0.999999999               0.000064399              -0.000211252               0.999999999               0.000072488              -0.000226089               0.999999999              -0.000006858              -0.000100801               0.999999999              -0.000006991              -0.000090839               0.999999999              -0.000005713              -0.000090355               0.999999999              -0.000003259              -0.000094410               0.999999999               0.000000198              -0.000101167               0.999999999               0.000004425              -0.000109803               0.999999999               0.000009269              -0.000119880               0.999999999               0.000014750              -0.000131245               0.999999999               0.000020853              -0.000143889               0.999999999               0.000027456              -0.000157748               0.999999999               0.000034527              -0.000172552               0.999999999               0.000041858              -0.000187793               0.999999999               0.000049363              -0.000203303               0.999999999               0.000057165              -0.000219301               0.999999999               0.000065380              -0.000236112               0.999999999               0.000074001              -0.000253579               0.999999999               0.000083070              -0.000271515               0.999999999              -0.000006251              -0.000115004               0.999999999              -0.000008302              -0.000104085               0.999999999              -0.000007034              -0.000104144               0.999999999              -0.000003938              -0.000109314               0.999999999               0.000000319              -0.000117530               0.999999999               0.000005410              -0.000127954               0.999999999               0.000011143              -0.000140031               0.999999999               0.000017502              -0.000153637               0.999999999               0.000024458              -0.000168649               0.999999999               0.000032006              -0.000185032               0.999999999               0.000039897              -0.000202237               0.999999999               0.000047954              -0.000219892               0.999999999               0.000056236              -0.000238101               0.999999999               0.000064912              -0.000257229               0.999999999               0.000074061              -0.000277355               0.999999999               0.000083644              -0.000298239               0.999999999               0.000093676              -0.000319640               0.999999999              -0.000005506              -0.000127900               0.999999999              -0.000009487              -0.000116636               0.999999999              -0.000007961              -0.000117264               0.999999999              -0.000004142              -0.000123565               0.999999999               0.000000921              -0.000133363               0.999999999               0.000006759              -0.000145654               0.999999999               0.000013238              -0.000159869               0.999999999               0.000020365              -0.000175894               0.999999999               0.000028177              -0.000193534               0.999999999               0.000036560              -0.000212480               0.999999999               0.000045076              -0.000232321               0.999999999               0.000053663              -0.000252968               0.999999999               0.000062635              -0.000274617               0.999999999               0.000072098              -0.000297494               0.999999999               0.000081989              -0.000321633               0.999999999               0.000092221              -0.000346699               0.999999999               0.000102764              -0.000372390               0.999999999              -0.000004510              -0.000139941               0.999999999              -0.000010075              -0.000129509               0.999999999              -0.000009307              -0.000128964               0.999999999              -0.000006035              -0.000133922               0.999999999              -0.000001496              -0.000142299               0.999999999               0.000003654              -0.000153107               0.999999999               0.000009301              -0.000165843               0.999999999               0.000015422              -0.000180279               0.999999999               0.000022172              -0.000196237               0.999999999               0.000029481              -0.000213548               0.999999999               0.000036989              -0.000232000               0.999999999               0.000044509              -0.000251243               0.999999999               0.000052072              -0.000271478               0.999999999               0.000059751              -0.000292752               0.999999999               0.000067840              -0.000315377               0.999999999               0.000076454              -0.000339159               0.999999999               0.000085508              -0.000363995               0.999999999              -0.000003622              -0.000150841               0.999999999              -0.000010072              -0.000141735               0.999999999              -0.000010077              -0.000140661               0.999999999              -0.000007471              -0.000144531               0.999999999              -0.000003558              -0.000151641               0.999999999               0.000000936              -0.000161084               0.999999999               0.000005737              -0.000172453               0.999999999               0.000010937              -0.000185459               0.999999999               0.000016626              -0.000199888               0.999999999               0.000022852              -0.000215662               0.999999999               0.000029264              -0.000232587               0.999999999               0.000035697              -0.000250503               0.999999999               0.000041965              -0.000269357               0.999999999               0.000048288              -0.000289182               0.999999999               0.000054872              -0.000310124               0.999999999               0.000061933              -0.000332306               0.999999999               0.000069433              -0.000355727               0.999999999              -0.000002785              -0.000160338               0.999999999              -0.000009485              -0.000153052               0.999999999              -0.000010168              -0.000151943               0.999999999              -0.000008255              -0.000155058               0.999999999              -0.000005035              -0.000161149               0.999999999              -0.000001287              -0.000169484               0.999999999               0.000002741              -0.000179623               0.999999999               0.000007010              -0.000191398               0.999999999               0.000011651              -0.000204537               0.999999999               0.000016683              -0.000218909               0.999999999               0.000021995              -0.000234408               0.999999999               0.000027297              -0.000250983               0.999999999               0.000032559              -0.000268498               0.999999999               0.000037789              -0.000287016               0.999999999               0.000043077              -0.000306564               0.999999999               0.000048600              -0.000327208               0.999999999               0.000054266              -0.000349058               0.999999999              -0.000002050              -0.000168300               0.999999999              -0.000008357              -0.000163096               0.999999999              -0.000009482              -0.000162306               0.999999999              -0.000008226              -0.000165015               0.999999999              -0.000005761              -0.000170423               0.999999999              -0.000002755              -0.000177880               0.999999999               0.000000427              -0.000187095               0.999999999               0.000003817              -0.000197817               0.999999999               0.000007434              -0.000209912               0.999999999               0.000011308              -0.000223109               0.999999999               0.000015425              -0.000237347               0.999999999               0.000019763              -0.000252611               0.999999999               0.000023999              -0.000268910               0.999999999               0.000028176              -0.000286307               0.999999999               0.000032379              -0.000304809               0.999999999               0.000036407              -0.000324417               0.999999999               0.000040179              -0.000345118               0.999999999              -0.000001425              -0.000174604               0.999999999              -0.000006737              -0.000171435               0.999999999              -0.000007999              -0.000171210               0.999999999              -0.000007290              -0.000173813               0.999999999              -0.000005551              -0.000178801               0.999999999              -0.000003315              -0.000185683               0.999999999              -0.000000964              -0.000194217               0.999999999               0.000001534              -0.000204157               0.999999999               0.000004182              -0.000215342               0.999999999               0.000007089              -0.000227615               0.999999999               0.000010120              -0.000240894               0.999999999               0.000013253              -0.000255190               0.999999999               0.000016471              -0.000270593               0.999999999               0.000019607              -0.000287127               0.999999999               0.000022639              -0.000304863               0.999999999               0.000025381              -0.000323742               0.999999999               0.000027553              -0.000343650               0.999999999              -0.000000882              -0.000179165               0.999999999              -0.000004728              -0.000177697               0.999999999              -0.000005795              -0.000178110               0.999999999              -0.000005470              -0.000180771               0.999999999              -0.000004365              -0.000185540               0.999999999              -0.000002948              -0.000192108               0.999999999              -0.000001349              -0.000200198               0.999999999               0.000000254              -0.000209619               0.999999999               0.000002069              -0.000220138               0.999999999               0.000003965              -0.000231727               0.999999999               0.000005925              -0.000244419               0.999999999               0.000007857              -0.000258197               0.999999999               0.000010021              -0.000273081               0.999999999               0.000012217              -0.000289107               0.999999999               0.000014128              -0.000306341               0.999999999               0.000015666              -0.000324768               0.999999999               0.000016664              -0.000344178               0.999999999              -0.000000423              -0.000181972               0.999999999              -0.000002447              -0.000181597               0.999999999              -0.000003028              -0.000182470               0.999999999              -0.000002941              -0.000185245               0.999999999              -0.000002414              -0.000189942               0.999999999              -0.000001706              -0.000196342               0.999999999              -0.000000937              -0.000204210               0.999999999              -0.000000108              -0.000213332               0.999999999               0.000000787              -0.000223506               0.999999999               0.000001757              -0.000234758               0.999999999               0.000002603              -0.000247112               0.999999999               0.000003614              -0.000260584               0.999999999               0.000004668              -0.000275263               0.999999999               0.000005794              -0.000291199               0.999999999               0.000006826              -0.000308229               0.999999999               0.000007376              -0.000326318               0.999999999               0.000007516              -0.000345413               0.999999999              -0.000000000              -0.000182913               0.999999999               0.000000000              -0.000182885               0.999999999              -0.000000000              -0.000183942               0.999999999              -0.000000000              -0.000186821               0.999999999              -0.000000000              -0.000191470               0.999999999              -0.000000000              -0.000197826               0.999999999               0.000000000              -0.000205640               0.999999999              -0.000000000              -0.000214639               0.999999999               0.000000000              -0.000224734               0.999999999               0.000000000              -0.000235874               0.999999999              -0.000000000              -0.000248056               0.999999999               0.000000000              -0.000261511               0.999999999               0.000000000              -0.000276193               0.999999999               0.000000000              -0.000292083               0.999999999              -0.000000000              -0.000309119               0.999999999               0.000000000              -0.000327043               0.999999999               0.000000000              -0.000345909               0.999999999              -0.000009079               0.000000000               0.999999999              -0.000001974              -0.000000000               0.999999999               0.000001287               0.000000000               0.999999999               0.000002892               0.000000000               0.999999999               0.000003856               0.000000000               0.999999999               0.000004670               0.000000000               0.999999999               0.000005630               0.000000000               0.999999999               0.000006915               0.000000000               0.999999999               0.000008614               0.000000000               0.999999999               0.000010725               0.000000000               0.999999999               0.000013312               0.000000000               0.999999999               0.000016415               0.000000000               0.999999999               0.000019995               0.000000000               0.999999999               0.000024156               0.000000000               0.999999999               0.000028834               0.000000000               0.999999999               0.000033895               0.000000000               0.999999999               0.000039381               0.000000000               0.999999999              -0.000009009               0.000017762               0.999999999              -0.000002110               0.000016011               0.999999999               0.000001042               0.000015568               0.999999999               0.000002601               0.000015888               0.999999999               0.000003603               0.000016754               0.999999999               0.000004535               0.000018013               0.999999999               0.000005627               0.000019593               0.999999999               0.000007077               0.000021431               0.999999999               0.000008913               0.000023503               0.999999999               0.000011199               0.000025762               0.999999999               0.000013979               0.000028276               0.999999999               0.000017269               0.000031071               0.999999999               0.000021124               0.000033994               0.999999999               0.000025476               0.000037029               0.999999999               0.000030245               0.000040067               0.999999999               0.000035436               0.000043318               0.999999999               0.000041070               0.000046830               0.999999999              -0.000008765               0.000035371               0.999999999              -0.000002552               0.000031855               0.999999999               0.000000253               0.000031022               0.999999999               0.000001790               0.000031770               0.999999999               0.000002966               0.000033555               0.999999999               0.000004190               0.000036146               0.999999999               0.000005695               0.000039322               0.999999999               0.000007596               0.000043028               0.999999999               0.000009918               0.000047095               0.999999999               0.000012707               0.000051670               0.999999999               0.000016035               0.000056662               0.999999999               0.000019909               0.000062173               0.999999999               0.000024277               0.000067973               0.999999999               0.000029117               0.000073873               0.999999999               0.000034385               0.000079806               0.999999999               0.000040061               0.000086150               0.999999999               0.000046133               0.000093008               0.999999999              -0.000008391               0.000052660               0.999999999              -0.000003310               0.000047361               0.999999999              -0.000000967               0.000046301               0.999999999               0.000000585               0.000047615               0.999999999               0.000002082               0.000050456               0.999999999               0.000003860               0.000054413               0.999999999               0.000006006               0.000059250               0.999999999               0.000008612               0.000064741               0.999999999               0.000011690               0.000070928               0.999999999               0.000015279               0.000077720               0.999999999               0.000019433               0.000085251               0.999999999               0.000024113               0.000093402               0.999999999               0.000029269               0.000101873               0.999999999               0.000034839               0.000110453               0.999999999               0.000040761               0.000119139               0.999999999               0.000047050               0.000128395               0.999999999               0.000053664               0.000138090               0.999999999              -0.000007947               0.000069455               0.999999999              -0.000004358               0.000062415               0.999999999              -0.000002500               0.000061350               0.999999999              -0.000000807               0.000063387               0.999999999               0.000001206               0.000067437               0.999999999               0.000003675               0.000072851               0.999999999               0.000006667               0.000079359               0.999999999               0.000010204               0.000086756               0.999999999               0.000014244               0.000094978               0.999999999               0.000018831               0.000104069               0.999999999               0.000023966               0.000114057               0.999999999               0.000029566               0.000124696               0.999999999               0.000035555               0.000135632               0.999999999               0.000041861               0.000146679               0.999999999               0.000048480               0.000157974               0.999999999               0.000055442               0.000169777               0.999999999               0.000062708               0.000181914               0.999999999              -0.000007434               0.000085564               0.999999999              -0.000005625               0.000076933               0.999999999              -0.000004142               0.000076055               0.999999999              -0.000002165               0.000079027               0.999999999               0.000000506               0.000084405               0.999999999               0.000003847               0.000091381               0.999999999               0.000007789               0.000099641               0.999999999               0.000012282               0.000108906               0.999999999               0.000017356               0.000119275               0.999999999               0.000022989               0.000130687               0.999999999               0.000029103               0.000143151               0.999999999               0.000035620               0.000156137               0.999999999               0.000042347               0.000169412               0.999999999               0.000049348               0.000182811               0.999999999               0.000056686               0.000196754               0.999999999               0.000064399               0.000211252               0.999999999               0.000072488               0.000226089               0.999999999              -0.000006858               0.000100801               0.999999999              -0.000006991               0.000090839               0.999999999              -0.000005713               0.000090355               0.999999999              -0.000003259               0.000094410               0.999999999               0.000000198               0.000101167               0.999999999               0.000004425               0.000109803               0.999999999               0.000009269               0.000119880               0.999999999               0.000014750               0.000131245               0.999999999               0.000020853               0.000143889               0.999999999               0.000027456               0.000157748               0.999999999               0.000034527               0.000172552               0.999999999               0.000041858               0.000187793               0.999999999               0.000049363               0.000203303               0.999999999               0.000057165               0.000219301               0.999999999               0.000065380               0.000236112               0.999999999               0.000074001               0.000253579               0.999999999               0.000083070               0.000271515               0.999999999              -0.000006251               0.000115004               0.999999999              -0.000008302               0.000104085               0.999999999              -0.000007034               0.000104144               0.999999999              -0.000003938               0.000109314               0.999999999               0.000000319               0.000117530               0.999999999               0.000005410               0.000127954               0.999999999               0.000011143               0.000140031               0.999999999               0.000017502               0.000153637               0.999999999               0.000024458               0.000168649               0.999999999               0.000032006               0.000185032               0.999999999               0.000039897               0.000202237               0.999999999               0.000047954               0.000219892               0.999999999               0.000056236               0.000238101               0.999999999               0.000064912               0.000257229               0.999999999               0.000074061               0.000277355               0.999999999               0.000083644               0.000298239               0.999999999               0.000093676               0.000319640               0.999999999              -0.000005506               0.000127900               0.999999999              -0.000009487               0.000116636               0.999999999              -0.000007961               0.000117264               0.999999999              -0.000004142               0.000123565               0.999999999               0.000000921               0.000133363               0.999999999               0.000006759               0.000145654               0.999999999               0.000013238               0.000159869               0.999999999               0.000020365               0.000175894               0.999999999               0.000028177               0.000193534               0.999999999               0.000036560               0.000212480               0.999999999               0.000045076               0.000232321               0.999999999               0.000053663               0.000252968               0.999999999               0.000062635               0.000274617               0.999999999               0.000072098               0.000297494               0.999999999               0.000081989               0.000321633               0.999999999               0.000092221               0.000346699               0.999999999               0.000102764               0.000372390               0.999999999              -0.000004510               0.000139941               0.999999999              -0.000010075               0.000129509               0.999999999              -0.000009307               0.000128964               0.999999999              -0.000006035               0.000133922               0.999999999              -0.000001496               0.000142299               0.999999999               0.000003654               0.000153107               0.999999999               0.000009301               0.000165843               0.999999999               0.000015422               0.000180279               0.999999999               0.000022172               0.000196237               0.999999999               0.000029481               0.000213548               0.999999999               0.000036989               0.000232000               0.999999999               0.000044509               0.000251243               0.999999999               0.000052072               0.000271478               0.999999999               0.000059751               0.000292752               0.999999999               0.000067840               0.000315377               0.999999999               0.000076454               0.000339159               0.999999999               0.000085508               0.000363995               0.999999999              -0.000003622               0.000150841               0.999999999              -0.000010072               0.000141735               0.999999999              -0.000010077               0.000140661               0.999999999              -0.000007471               0.000144531               0.999999999              -0.000003558               0.000151641               0.999999999               0.000000936               0.000161084               0.999999999               0.000005737               0.000172453               0.999999999               0.000010937               0.000185459               0.999999999               0.000016626               0.000199888               0.999999999               0.000022852               0.000215662               0.999999999               0.000029264               0.000232587               0.999999999               0.000035697               0.000250503               0.999999999               0.000041965               0.000269357               0.999999999               0.000048288               0.000289182               0.999999999               0.000054872               0.000310124               0.999999999               0.000061933               0.000332306               0.999999999               0.000069433               0.000355727               0.999999999              -0.000002785               0.000160338               0.999999999              -0.000009485               0.000153052               0.999999999              -0.000010168               0.000151943               0.999999999              -0.000008255               0.000155058               0.999999999              -0.000005035               0.000161149               0.999999999              -0.000001287               0.000169484               0.999999999               0.000002741               0.000179623               0.999999999               0.000007010               0.000191398               0.999999999               0.000011651               0.000204537               0.999999999               0.000016683               0.000218909               0.999999999               0.000021995               0.000234408               0.999999999               0.000027297               0.000250983               0.999999999               0.000032559               0.000268498               0.999999999               0.000037789               0.000287016               0.999999999               0.000043077               0.000306564               0.999999999               0.000048600               0.000327208               0.999999999               0.000054266               0.000349058               0.999999999              -0.000002050               0.000168300               0.999999999              -0.000008357               0.000163096               0.999999999              -0.000009482               0.000162306               0.999999999              -0.000008226               0.000165015               0.999999999              -0.000005761               0.000170423               0.999999999              -0.000002755               0.000177880               0.999999999               0.000000427               0.000187095               0.999999999               0.000003817               0.000197817               0.999999999               0.000007434               0.000209912               0.999999999               0.000011308               0.000223109               0.999999999               0.000015425               0.000237347               0.999999999               0.000019763               0.000252611               0.999999999               0.000023999               0.000268910               0.999999999               0.000028176               0.000286307               0.999999999               0.000032379               0.000304809               0.999999999               0.000036407               0.000324417               0.999999999               0.000040179               0.000345118               0.999999999              -0.000001425               0.000174604               0.999999999              -0.000006737               0.000171435               0.999999999              -0.000007999               0.000171210               0.999999999              -0.000007290               0.000173813               0.999999999              -0.000005551               0.000178801               0.999999999              -0.000003315               0.000185683               0.999999999              -0.000000964               0.000194217               0.999999999               0.000001534               0.000204157               0.999999999               0.000004182               0.000215342               0.999999999               0.000007089               0.000227615               0.999999999               0.000010120               0.000240894               0.999999999               0.000013253               0.000255190               0.999999999               0.000016471               0.000270593               0.999999999               0.000019607               0.000287127               0.999999999               0.000022639               0.000304863               0.999999999               0.000025381               0.000323742               0.999999999               0.000027553               0.000343650               0.999999999              -0.000000882               0.000179165               0.999999999              -0.000004728               0.000177697               0.999999999              -0.000005795               0.000178110               0.999999999              -0.000005470               0.000180771               0.999999999              -0.000004365               0.000185540               0.999999999              -0.000002948               0.000192108               0.999999999              -0.000001349               0.000200198               0.999999999               0.000000254               0.000209619               0.999999999               0.000002069               0.000220138               0.999999999               0.000003965               0.000231727               0.999999999               0.000005925               0.000244419               0.999999999               0.000007857               0.000258197               0.999999999               0.000010021               0.000273081               0.999999999               0.000012217               0.000289107               0.999999999               0.000014128               0.000306341               0.999999999               0.000015666               0.000324768               0.999999999               0.000016664               0.000344178               0.999999999              -0.000000423               0.000181972               0.999999999              -0.000002447               0.000181597               0.999999999              -0.000003028               0.000182470               0.999999999              -0.000002941               0.000185245               0.999999999              -0.000002414               0.000189942               0.999999999              -0.000001706               0.000196342               0.999999999              -0.000000937               0.000204210               0.999999999              -0.000000108               0.000213332               0.999999999               0.000000787               0.000223506               0.999999999               0.000001757               0.000234758               0.999999999               0.000002603               0.000247112               0.999999999               0.000003614               0.000260584               0.999999999               0.000004668               0.000275263               0.999999999               0.000005794               0.000291199               0.999999999               0.000006826               0.000308229               0.999999999               0.000007376               0.000326318               0.999999999               0.000007516               0.000345413               0.999999999              -0.000000000               0.000182913               0.999999999              -0.000000000               0.000182885               0.999999999              -0.000000000               0.000183942               0.999999999              -0.000000000               0.000186821               0.999999999              -0.000000000               0.000191470               0.999999999              -0.000000000               0.000197826               0.999999999               0.000000000               0.000205640               0.999999999               0.000000000               0.000214639               0.999999999               0.000000000               0.000224734               0.999999999               0.000000000               0.000235874               0.999999999               0.000000000               0.000248056               0.999999999               0.000000000               0.000261511               0.999999999               0.000000000               0.000276193               0.999999999              -0.000000000               0.000292083               0.999999999              -0.000000000               0.000309119               0.999999999              -0.000000000               0.000327043               0.999999999              -0.000000000               0.000345909               0.999999999 </DataArray>
<DataArray type="Float64"                                    Name="stress"                                                      NumberOfComponents="10" format="ascii">
              0.000299717               0.003346914               0.000000000              -0.000305970               0.001217617               0.000911647               0.000000000               0.000000000               0.000000000               0.000000000               0.000349334               0.002793768              -0.000000000              -0.000218220               0.001003987               0.000785767               0.000000000               0.000000000               0.000000000               0.000000000               0.000505379               0.002343232               0.000000000              -0.000103386               0.000815532               0.000712145               0.000000000               0.000000000               0.000000000               0.000000000               0.000548298               0.002091179               0.000000000              -0.000055785               0.000715648               0.000659862               0.000000000               0.000000000               0.000000000               0.000000000               0.000541415               0.001945462              -0.000000000              -0.000040152               0.000661865               0.000621713               0.000000000               0.000000000               0.000000000               0.000000000               0.000511663               0.001861066              -0.000000000              -0.000040760               0.000633936               0.000593176               0.000000000               0.000000000               0.000000000               0.000000000               0.000467834               0.001813689               0.000000000              -0.000051273               0.000621648               0.000570375               0.000000000               0.000000000               0.000000000               0.000000000               0.000417462               0.001790263              -0.000000000              -0.000067235               0.000619160               0.000551925               0.000000000               0.000000000               0.000000000               0.000000000               0.000367778               0.001784327              -0.000000000              -0.000085124               0.000623144               0.000538021               0.000000000               0.000000000               0.000000000               0.000000000               0.000317378               0.001790006               0.000000000              -0.000104734               0.000631574               0.000526840               0.000000000               0.000000000               0.000000000               0.000000000               0.000265659               0.001807137               0.000000000              -0.000126270               0.000644463               0.000518193               0.000000000               0.000000000               0.000000000               0.000000000               0.000215983               0.001834627               0.000000000              -0.000148334               0.000660981               0.000512647               0.000000000               0.000000000               0.000000000               0.000000000               0.000164709               0.001864162              -0.000000000              -0.000171254               0.000678466               0.000507212               0.000000000               0.000000000               0.000000000               0.000000000               0.000114664               0.001893529              -0.000000000              -0.000193692               0.000695734               0.000502042               0.000000000               0.000000000               0.000000000               0.000000000               0.000073745               0.001923546              -0.000000000              -0.000212788               0.000712105               0.000499317               0.000000000               0.000000000               0.000000000               0.000000000               0.000037552               0.001958933              -0.000000000              -0.000230784               0.000729899               0.000499115               0.000000000               0.000000000               0.000000000               0.000000000               0.000022831               0.001988435               0.000000000              -0.000239992               0.000742803               0.000502810               0.000000000               0.000000000               0.000000000               0.000000000               0.000318939               0.003296231              -0.000263267              -0.000292426               0.001196208               0.000903782               0.000000000               0.000000000               0.000000000               0.000000000               0.000356757               0.002757188              -0.000178896              -0.000210864               0.000989342               0.000778477               0.000000000               0.000000000               0.000000000               0.000000000               0.000499930               0.002323141              -0.000090660              -0.000102919               0.000808679               0.000705760               0.000000000               0.000000000               0.000000000               0.000000000               0.000536742               0.002082153              -0.000048187              -0.000058991               0.000713708               0.000654717               0.000000000               0.000000000               0.000000000               0.000000000               0.000526080               0.001941981              -0.000027034              -0.000045467               0.000662476               0.000617009               0.000000000               0.000000000               0.000000000               0.000000000               0.000495683               0.001861528              -0.000016840              -0.000046810               0.000636106               0.000589297               0.000000000               0.000000000               0.000000000               0.000000000               0.000452938               0.001815974              -0.000012147              -0.000057145               0.000624367               0.000567222               0.000000000               0.000000000               0.000000000               0.000000000               0.000405297               0.001793640              -0.000010183              -0.000072219               0.000621947               0.000549728               0.000000000               0.000000000               0.000000000               0.000000000               0.000357218               0.001786584              -0.000008931              -0.000089366               0.000625311               0.000535945               0.000000000               0.000000000               0.000000000               0.000000000               0.000307348               0.001792767              -0.000007277              -0.000108840               0.000633863               0.000525023               0.000000000               0.000000000               0.000000000               0.000000000               0.000256681               0.001809016              -0.000004342              -0.000129871               0.000646290               0.000516418               0.000000000               0.000000000               0.000000000               0.000000000               0.000206268               0.001833964              -0.000003630              -0.000151895               0.000661947               0.000510052               0.000000000               0.000000000               0.000000000               0.000000000               0.000157040               0.001861865              -0.000006118              -0.000173843               0.000678563               0.000504720               0.000000000               0.000000000               0.000000000               0.000000000               0.000113191               0.001889369              -0.000009756              -0.000193724               0.000694358               0.000500634               0.000000000               0.000000000               0.000000000               0.000000000               0.000074202               0.001916423              -0.000009487              -0.000211726               0.000709377               0.000497650               0.000000000               0.000000000               0.000000000               0.000000000               0.000036687               0.001947981              -0.000003660              -0.000229739               0.000725900               0.000496161               0.000000000               0.000000000               0.000000000               0.000000000               0.000021617               0.001975166              -0.000000970              -0.000238789               0.000737978               0.000499190               0.000000000               0.000000000               0.000000000               0.000000000               0.000375272               0.003149338              -0.000500936              -0.000252940               0.001134082               0.000881142               0.000000000               0.000000000               0.000000000               0.000000000               0.000378477               0.002652055              -0.000339794              -0.000189578               0.000947202               0.000757624               0.000000000               0.000000000               0.000000000               0.000000000               0.000482167               0.002267060              -0.000173245              -0.000102570               0.000789869               0.000687299               0.000000000               0.000000000               0.000000000               0.000000000               0.000500343               0.002055346              -0.000095835              -0.000069289               0.000708205               0.000638915               0.000000000               0.000000000               0.000000000               0.000000000               0.000483713               0.001932371              -0.000057770              -0.000060154               0.000664169               0.000604015               0.000000000               0.000000000               0.000000000               0.000000000               0.000452402               0.001860825              -0.000039106              -0.000062952               0.000641253               0.000578301               0.000000000               0.000000000               0.000000000               0.000000000               0.000412478               0.001819865              -0.000030124              -0.000072804               0.000630883               0.000558080               0.000000000               0.000000000               0.000000000               0.000000000               0.000369617               0.001798259              -0.000025998              -0.000086176               0.000628139               0.000541963               0.000000000               0.000000000               0.000000000               0.000000000               0.000326854               0.001792926              -0.000022594              -0.000101545               0.000631485               0.000529939               0.000000000               0.000000000               0.000000000               0.000000000               0.000280254               0.001798812              -0.000017973              -0.000119756               0.000639516               0.000519761               0.000000000               0.000000000               0.000000000               0.000000000               0.000232352               0.001814486              -0.000012583              -0.000139678               0.000651382               0.000511704               0.000000000               0.000000000               0.000000000               0.000000000               0.000187056               0.001835939              -0.000009973              -0.000159346               0.000665089               0.000505743               0.000000000               0.000000000               0.000000000               0.000000000               0.000144516               0.001858151              -0.000013642              -0.000178075               0.000678736               0.000500661               0.000000000               0.000000000               0.000000000               0.000000000               0.000105057               0.001878114              -0.000020015              -0.000195367               0.000691154               0.000495787               0.000000000               0.000000000               0.000000000               0.000000000               0.000068206               0.001898417              -0.000018311              -0.000211724               0.000703374               0.000491650               0.000000000               0.000000000               0.000000000               0.000000000               0.000032905               0.001922198              -0.000006793              -0.000227935               0.000716705               0.000488770               0.000000000               0.000000000               0.000000000               0.000000000               0.000018281               0.001941277              -0.000001110              -0.000235804               0.000725687               0.000489884               0.000000000               0.000000000               0.000000000               0.000000000               0.000453633               0.002919823              -0.000691269              -0.000194866               0.001038220               0.000843354               0.000000000               0.000000000               0.000000000               0.000000000               0.000405475               0.002491184              -0.000470136              -0.000159345               0.000883501               0.000724157               0.000000000               0.000000000               0.000000000               0.000000000               0.000452685               0.002184823              -0.000244843              -0.000103346               0.000762716               0.000659370               0.000000000               0.000000000               0.000000000               0.000000000               0.000446352               0.002015194              -0.000143044              -0.000084517               0.000699897               0.000615380               0.000000000               0.000000000               0.000000000               0.000000000               0.000421942               0.001917134              -0.000094096              -0.000081413               0.000666176               0.000584763               0.000000000               0.000000000               0.000000000               0.000000000               0.000390799               0.001857882              -0.000068913              -0.000085685               0.000647850               0.000562164               0.000000000               0.000000000               0.000000000               0.000000000               0.000356537               0.001823625              -0.000056278              -0.000094252               0.000639286               0.000545035               0.000000000               0.000000000               0.000000000               0.000000000               0.000320721               0.001806052              -0.000048492              -0.000105486               0.000637173               0.000531687               0.000000000               0.000000000               0.000000000               0.000000000               0.000284458               0.001803103              -0.000041292              -0.000118716               0.000640600               0.000521885               0.000000000               0.000000000               0.000000000               0.000000000               0.000243819               0.001809439              -0.000032416              -0.000134747               0.000648056               0.000513309               0.000000000               0.000000000               0.000000000               0.000000000               0.000202799               0.001824165              -0.000022900              -0.000151971               0.000658706               0.000506735               0.000000000               0.000000000               0.000000000               0.000000000               0.000164123               0.001839469              -0.000019122              -0.000168387               0.000669279               0.000500892               0.000000000               0.000000000               0.000000000               0.000000000               0.000127927               0.001851921              -0.000022725              -0.000183517               0.000678473               0.000494956               0.000000000               0.000000000               0.000000000               0.000000000               0.000094774               0.001863335              -0.000027543              -0.000197376               0.000686898               0.000489521               0.000000000               0.000000000               0.000000000               0.000000000               0.000062318               0.001876448              -0.000021483              -0.000211186               0.000695872               0.000484685               0.000000000               0.000000000               0.000000000               0.000000000               0.000029649               0.001888434              -0.000007425              -0.000224935               0.000704450               0.000479515               0.000000000               0.000000000               0.000000000               0.000000000               0.000015166               0.001896094              -0.000001678              -0.000231324               0.000709133               0.000477809               0.000000000               0.000000000               0.000000000               0.000000000               0.000535464               0.002629382              -0.000823050              -0.000127874               0.000919076               0.000791202               0.000000000               0.000000000               0.000000000               0.000000000               0.000429578               0.002292805              -0.000564237              -0.000125509               0.000806097               0.000680588               0.000000000               0.000000000               0.000000000               0.000000000               0.000413776               0.002084248              -0.000304192              -0.000105365               0.000729864               0.000624499               0.000000000               0.000000000               0.000000000               0.000000000               0.000383748               0.001965783              -0.000190006              -0.000101817               0.000689193               0.000587376               0.000000000               0.000000000               0.000000000               0.000000000               0.000354582               0.001896586              -0.000134895              -0.000104105               0.000666891               0.000562786               0.000000000               0.000000000               0.000000000               0.000000000               0.000326106               0.001853589              -0.000105490              -0.000109409               0.000654326               0.000544918               0.000000000               0.000000000               0.000000000               0.000000000               0.000296502               0.001827683              -0.000087886              -0.000117272               0.000648312               0.000531040               0.000000000               0.000000000               0.000000000               0.000000000               0.000266743               0.001815171              -0.000074590              -0.000126867               0.000647340               0.000520473               0.000000000               0.000000000               0.000000000               0.000000000               0.000236629               0.001815239              -0.000061389              -0.000138169               0.000651130               0.000512961               0.000000000               0.000000000               0.000000000               0.000000000               0.000204048               0.001824930              -0.000046342              -0.000151598               0.000658837               0.000507239               0.000000000               0.000000000               0.000000000               0.000000000               0.000171995               0.001838029              -0.000033361              -0.000165255               0.000667755               0.000502500               0.000000000               0.000000000               0.000000000               0.000000000               0.000142447               0.001846224              -0.000028184              -0.000177360               0.000674522               0.000497162               0.000000000               0.000000000               0.000000000               0.000000000               0.000114068               0.001850380              -0.000029140              -0.000188521               0.000679628               0.000491106               0.000000000               0.000000000               0.000000000               0.000000000               0.000085316               0.001854531              -0.000028240              -0.000199823               0.000684778               0.000484956               0.000000000               0.000000000               0.000000000               0.000000000               0.000055448               0.001863735              -0.000018776              -0.000212173               0.000691963               0.000479790               0.000000000               0.000000000               0.000000000               0.000000000               0.000024841               0.001871408              -0.000007171              -0.000224610               0.000698666               0.000474056               0.000000000               0.000000000               0.000000000               0.000000000               0.000012014               0.001876933              -0.000003955              -0.000230111               0.000702342               0.000472231               0.000000000               0.000000000               0.000000000               0.000000000               0.000607961               0.002304570              -0.000893579              -0.000060087               0.000788211               0.000728124               0.000000000               0.000000000               0.000000000               0.000000000               0.000446648               0.002075518              -0.000623085              -0.000091947               0.000722481               0.000630534               0.000000000               0.000000000               0.000000000               0.000000000               0.000371863               0.001975139              -0.000352638              -0.000107444               0.000694188               0.000586744               0.000000000               0.000000000               0.000000000               0.000000000               0.000325675               0.001910314              -0.000235908              -0.000116661               0.000675652               0.000558991               0.000000000               0.000000000               0.000000000               0.000000000               0.000292725               0.001867679              -0.000177310              -0.000123688               0.000663783               0.000540095               0.000000000               0.000000000               0.000000000               0.000000000               0.000267705               0.001842154              -0.000143399              -0.000129879               0.000657338               0.000527459               0.000000000               0.000000000               0.000000000               0.000000000               0.000243834               0.001828024              -0.000119825              -0.000137065               0.000655024               0.000517959               0.000000000               0.000000000               0.000000000               0.000000000               0.000218719               0.001825416              -0.000099593              -0.000146157               0.000657185               0.000511028               0.000000000               0.000000000               0.000000000               0.000000000               0.000193506               0.001834232              -0.000079188              -0.000156714               0.000663642               0.000506928               0.000000000               0.000000000               0.000000000               0.000000000               0.000168465               0.001848168              -0.000058007              -0.000167846               0.000671999               0.000504152               0.000000000               0.000000000               0.000000000               0.000000000               0.000144368               0.001857695              -0.000042783              -0.000178074               0.000678583               0.000500510               0.000000000               0.000000000               0.000000000               0.000000000               0.000125095               0.001859772              -0.000036300              -0.000185560               0.000681771               0.000496211               0.000000000               0.000000000               0.000000000               0.000000000               0.000105588               0.001859755              -0.000033503              -0.000192873               0.000684203               0.000491330               0.000000000               0.000000000               0.000000000               0.000000000               0.000080059               0.001865376              -0.000026222              -0.000203149               0.000689502               0.000486353               0.000000000               0.000000000               0.000000000               0.000000000               0.000052483               0.001879547              -0.000013428              -0.000215262               0.000698263               0.000483002               0.000000000               0.000000000               0.000000000               0.000000000               0.000023843               0.001895060              -0.000004956              -0.000227941               0.000707661               0.000479720               0.000000000               0.000000000               0.000000000               0.000000000               0.000013186               0.001908013              -0.000004873              -0.000233556               0.000713850               0.000480294               0.000000000               0.000000000               0.000000000               0.000000000               0.000659526               0.001971895              -0.000907157               0.000000834               0.000657014               0.000657848               0.000000000               0.000000000               0.000000000               0.000000000               0.000457070               0.001857740              -0.000651066              -0.000060817               0.000639512               0.000578696               0.000000000               0.000000000               0.000000000               0.000000000               0.000333661               0.001864670              -0.000392089              -0.000107961               0.000657537               0.000549576               0.000000000               0.000000000               0.000000000               0.000000000               0.000278765               0.001846741              -0.000278663              -0.000126306               0.000657676               0.000531371               0.000000000               0.000000000               0.000000000               0.000000000               0.000246537               0.001830303              -0.000216521              -0.000136336               0.000655540               0.000519204               0.000000000               0.000000000               0.000000000               0.000000000               0.000226491               0.001825167              -0.000176652              -0.000143211               0.000656120               0.000512909               0.000000000               0.000000000               0.000000000               0.000000000               0.000206364               0.001827464              -0.000146264              -0.000151046               0.000659497               0.000508451               0.000000000               0.000000000               0.000000000               0.000000000               0.000182653               0.001839098              -0.000119029              -0.000161392               0.000666824               0.000505432               0.000000000               0.000000000               0.000000000               0.000000000               0.000159318               0.001856057              -0.000091480              -0.000172263               0.000676100               0.000503838               0.000000000               0.000000000               0.000000000               0.000000000               0.000139098               0.001873686              -0.000067723              -0.000182049               0.000685238               0.000503190               0.000000000               0.000000000               0.000000000               0.000000000               0.000121904               0.001881143              -0.000052572              -0.000189428               0.000690184               0.000500756               0.000000000               0.000000000               0.000000000               0.000000000               0.000110291               0.001884634              -0.000044868              -0.000194220               0.000692945               0.000498725               0.000000000               0.000000000               0.000000000               0.000000000               0.000096229               0.001893602              -0.000037105              -0.000200614               0.000698066               0.000497452               0.000000000               0.000000000               0.000000000               0.000000000               0.000074972               0.001914693              -0.000024091              -0.000211222               0.000708632               0.000497410               0.000000000               0.000000000               0.000000000               0.000000000               0.000051330               0.001942186              -0.000010368              -0.000223524               0.000721897               0.000498373               0.000000000               0.000000000               0.000000000               0.000000000               0.000025806               0.001969665              -0.000003699              -0.000236530               0.000735392               0.000498862               0.000000000               0.000000000               0.000000000               0.000000000               0.000016443               0.001990164              -0.000004976              -0.000242604               0.000744249               0.000501645               0.000000000               0.000000000               0.000000000               0.000000000               0.000687348               0.001650051              -0.000872544               0.000051498               0.000532845               0.000584343               0.000000000               0.000000000               0.000000000               0.000000000               0.000460615               0.001651092              -0.000653429              -0.000033657               0.000561577               0.000527920               0.000000000               0.000000000               0.000000000               0.000000000               0.000303977               0.001753147              -0.000423748              -0.000105152               0.000619427               0.000514275               0.000000000               0.000000000               0.000000000               0.000000000               0.000248471               0.001777020              -0.000314557              -0.000128951               0.000635318               0.000506367               0.000000000               0.000000000               0.000000000               0.000000000               0.000221820               0.001790363              -0.000247902              -0.000140613               0.000643653               0.000503040               0.000000000               0.000000000               0.000000000               0.000000000               0.000203861               0.001805930              -0.000200882              -0.000149293               0.000651735               0.000502442               0.000000000               0.000000000               0.000000000               0.000000000               0.000184999               0.001825768              -0.000163521              -0.000158846               0.000661532               0.000502686               0.000000000               0.000000000               0.000000000               0.000000000               0.000161683               0.001851133              -0.000130145              -0.000170760               0.000673958               0.000503198               0.000000000               0.000000000               0.000000000               0.000000000               0.000136611               0.001876872              -0.000098957              -0.000183380               0.000686744               0.000503365               0.000000000               0.000000000               0.000000000               0.000000000               0.000119002               0.001897889              -0.000074132              -0.000192610               0.000696827               0.000504217               0.000000000               0.000000000               0.000000000               0.000000000               0.000109930               0.001914021              -0.000058460              -0.000198028               0.000704010               0.000505982               0.000000000               0.000000000               0.000000000               0.000000000               0.000101340               0.001935630              -0.000047566              -0.000203951               0.000713187               0.000509236               0.000000000               0.000000000               0.000000000               0.000000000               0.000087301               0.001969917              -0.000034654              -0.000213501               0.000727800               0.000514298               0.000000000               0.000000000               0.000000000               0.000000000               0.000067862               0.002014538              -0.000018233              -0.000226368               0.000746962               0.000520594               0.000000000               0.000000000               0.000000000               0.000000000               0.000047419               0.002062776              -0.000005355              -0.000240064               0.000767607               0.000527542               0.000000000               0.000000000               0.000000000               0.000000000               0.000024921               0.002109538              -0.000000667              -0.000254346               0.000787954               0.000533608               0.000000000               0.000000000               0.000000000               0.000000000               0.000015717               0.002141222              -0.000003170              -0.000261758               0.000800986               0.000539228               0.000000000               0.000000000               0.000000000               0.000000000               0.000702209               0.001365182              -0.000804361               0.000092679               0.000424163               0.000516842               0.000000000               0.000000000               0.000000000               0.000000000               0.000467943               0.001462684              -0.000641222              -0.000007358               0.000490009               0.000482651               0.000000000               0.000000000               0.000000000               0.000000000               0.000293499               0.001647234              -0.000456459              -0.000095842               0.000581020               0.000485178               0.000000000               0.000000000               0.000000000               0.000000000               0.000241025               0.001714491              -0.000350740              -0.000123927               0.000612800               0.000488873               0.000000000               0.000000000               0.000000000               0.000000000               0.000221301               0.001755720              -0.000278828              -0.000136477               0.000630726               0.000494249               0.000000000               0.000000000               0.000000000               0.000000000               0.000203944               0.001786802              -0.000223252              -0.000146871               0.000644551               0.000497681               0.000000000               0.000000000               0.000000000               0.000000000               0.000183685               0.001820964              -0.000178595              -0.000158738               0.000659895               0.000501156               0.000000000               0.000000000               0.000000000               0.000000000               0.000159753               0.001859934              -0.000141468              -0.000172584               0.000677500               0.000504916               0.000000000               0.000000000               0.000000000               0.000000000               0.000136643               0.001896510              -0.000111492              -0.000185822               0.000694104               0.000508282               0.000000000               0.000000000               0.000000000               0.000000000               0.000122518               0.001925739              -0.000085168              -0.000194773               0.000706831               0.000512058               0.000000000               0.000000000               0.000000000               0.000000000               0.000117778               0.001954967              -0.000062919              -0.000200204               0.000718384               0.000518180               0.000000000               0.000000000               0.000000000               0.000000000               0.000109693               0.001995401              -0.000044952              -0.000208290               0.000734557               0.000526267               0.000000000               0.000000000               0.000000000               0.000000000               0.000093949               0.002053179              -0.000028101              -0.000221416               0.000758191               0.000536776               0.000000000               0.000000000               0.000000000               0.000000000               0.000074800               0.002122383              -0.000009851              -0.000237247               0.000786536               0.000549289               0.000000000               0.000000000               0.000000000               0.000000000               0.000059041               0.002194693               0.000003053              -0.000252195               0.000815622               0.000563427               0.000000000               0.000000000               0.000000000               0.000000000               0.000046683               0.002261880               0.000006950              -0.000265228               0.000842362               0.000577134               0.000000000               0.000000000               0.000000000               0.000000000               0.000040907               0.002300480               0.000005261              -0.000272219               0.000857559               0.000585340               0.000000000               0.000000000               0.000000000               0.000000000               0.000695376               0.001086025              -0.000719389               0.000125011               0.000320334               0.000445345               0.000000000               0.000000000               0.000000000               0.000000000               0.000483324               0.001240622              -0.000622810               0.000026168               0.000404814               0.000430981               0.000000000               0.000000000               0.000000000               0.000000000               0.000309690               0.001488585              -0.000496248              -0.000069940               0.000519503               0.000449564               0.000000000               0.000000000               0.000000000               0.000000000               0.000254962               0.001602502              -0.000398068              -0.000104702               0.000569063               0.000464361               0.000000000               0.000000000               0.000000000               0.000000000               0.000234354               0.001668907              -0.000321785              -0.000120730               0.000596540               0.000475810               0.000000000               0.000000000               0.000000000               0.000000000               0.000219206               0.001717980              -0.000258639              -0.000132545               0.000616836               0.000484291               0.000000000               0.000000000               0.000000000               0.000000000               0.000200706               0.001766925              -0.000207950              -0.000145601               0.000637503               0.000491902               0.000000000               0.000000000               0.000000000               0.000000000               0.000179326               0.001816915              -0.000168760              -0.000159867               0.000658921               0.000499054               0.000000000               0.000000000               0.000000000               0.000000000               0.000157929               0.001865077              -0.000138480              -0.000173911               0.000679657               0.000505746               0.000000000               0.000000000               0.000000000               0.000000000               0.000143008               0.001911926              -0.000109745              -0.000185362               0.000699090               0.000513728               0.000000000               0.000000000               0.000000000               0.000000000               0.000133265               0.001952443              -0.000081038              -0.000194080               0.000715501               0.000521421               0.000000000               0.000000000               0.000000000               0.000000000               0.000126299               0.002001000              -0.000055507              -0.000202762               0.000734581               0.000531818               0.000000000               0.000000000               0.000000000               0.000000000               0.000115388               0.002065713              -0.000031904              -0.000214943               0.000760212               0.000545269               0.000000000               0.000000000               0.000000000               0.000000000               0.000103432               0.002148283              -0.000012963              -0.000229748               0.000792670               0.000562922               0.000000000               0.000000000               0.000000000               0.000000000               0.000094815               0.002239806              -0.000002273              -0.000244419               0.000828067               0.000583648               0.000000000               0.000000000               0.000000000               0.000000000               0.000091976               0.002329504               0.000000918              -0.000256696               0.000862059               0.000605363               0.000000000               0.000000000               0.000000000               0.000000000               0.000088166               0.002373028               0.000002541              -0.000263566               0.000878857               0.000615291               0.000000000               0.000000000               0.000000000               0.000000000               0.000657857               0.000817833              -0.000618601               0.000144465               0.000224453               0.000368918               0.000000000               0.000000000               0.000000000               0.000000000               0.000499847               0.001017421              -0.000589280               0.000060264               0.000319049               0.000379313               0.000000000               0.000000000               0.000000000               0.000000000               0.000345489               0.001310604              -0.000524619              -0.000034268               0.000448286               0.000414019               0.000000000               0.000000000               0.000000000               0.000000000               0.000286833               0.001464467              -0.000442128              -0.000075496               0.000513316               0.000437820               0.000000000               0.000000000               0.000000000               0.000000000               0.000260630               0.001558394              -0.000367032              -0.000097063               0.000551814               0.000454751               0.000000000               0.000000000               0.000000000               0.000000000               0.000246088               0.001631169              -0.000300178              -0.000111613               0.000580922               0.000469309               0.000000000               0.000000000               0.000000000               0.000000000               0.000231173               0.001697983              -0.000245067              -0.000125558               0.000607841               0.000482284               0.000000000               0.000000000               0.000000000               0.000000000               0.000212057               0.001760103              -0.000203445              -0.000140491               0.000633526               0.000493034               0.000000000               0.000000000               0.000000000               0.000000000               0.000190092               0.001819158              -0.000171318              -0.000156110               0.000658417               0.000502307               0.000000000               0.000000000               0.000000000               0.000000000               0.000170882               0.001875826              -0.000140063              -0.000170397               0.000682068               0.000511671               0.000000000               0.000000000               0.000000000               0.000000000               0.000158115               0.001927919              -0.000106952              -0.000181696               0.000703199               0.000521502               0.000000000               0.000000000               0.000000000               0.000000000               0.000151021               0.001984345              -0.000074978              -0.000191410               0.000725245               0.000533835               0.000000000               0.000000000               0.000000000               0.000000000               0.000147430               0.002049610              -0.000047249              -0.000200914               0.000750168               0.000549254               0.000000000               0.000000000               0.000000000               0.000000000               0.000146931               0.002130333              -0.000028163              -0.000211192               0.000780501               0.000569309               0.000000000               0.000000000               0.000000000               0.000000000               0.000145945               0.002223159              -0.000016214              -0.000223165               0.000815434               0.000592269               0.000000000               0.000000000               0.000000000               0.000000000               0.000144127               0.002322891              -0.000007974              -0.000236313               0.000853060               0.000616747               0.000000000               0.000000000               0.000000000               0.000000000               0.000134441               0.002366983              -0.000000295              -0.000245457               0.000870805               0.000625348               0.000000000               0.000000000               0.000000000               0.000000000               0.000591412               0.000578488              -0.000501866               0.000149467               0.000143005               0.000292472               0.000000000               0.000000000               0.000000000               0.000000000               0.000504051               0.000803329              -0.000530481               0.000088602               0.000238240               0.000326841               0.000000000               0.000000000               0.000000000               0.000000000               0.000387778               0.001112522              -0.000522017               0.000006351               0.000368720               0.000375071               0.000000000               0.000000000               0.000000000               0.000000000               0.000331260               0.001297367              -0.000461980              -0.000037949               0.000445101               0.000407152               0.000000000               0.000000000               0.000000000               0.000000000               0.000300037               0.001422155              -0.000394798              -0.000065256               0.000495799               0.000430543               0.000000000               0.000000000               0.000000000               0.000000000               0.000281645               0.001519515              -0.000330062              -0.000084323               0.000534607               0.000450285               0.000000000               0.000000000               0.000000000               0.000000000               0.000266869               0.001607241              -0.000274382              -0.000100829               0.000569351               0.000468522               0.000000000               0.000000000               0.000000000               0.000000000               0.000249510               0.001686803              -0.000230671              -0.000117284               0.000601357               0.000484073               0.000000000               0.000000000               0.000000000               0.000000000               0.000226978               0.001756672              -0.000196769              -0.000134467               0.000630374               0.000495907               0.000000000               0.000000000               0.000000000               0.000000000               0.000202656               0.001819523              -0.000165156              -0.000151444               0.000656983               0.000505539               0.000000000               0.000000000               0.000000000               0.000000000               0.000186900               0.001883104              -0.000132336              -0.000165300               0.000682795               0.000517495               0.000000000               0.000000000               0.000000000               0.000000000               0.000181943               0.001949640              -0.000099787              -0.000175476               0.000708366               0.000532890               0.000000000               0.000000000               0.000000000               0.000000000               0.000184423               0.002024350              -0.000071810              -0.000183885               0.000736071               0.000552187               0.000000000               0.000000000               0.000000000               0.000000000               0.000190928               0.002112420              -0.000050739              -0.000192454               0.000768284               0.000575830               0.000000000               0.000000000               0.000000000               0.000000000               0.000196072               0.002209804              -0.000035540              -0.000202698               0.000804160               0.000601462               0.000000000               0.000000000               0.000000000               0.000000000               0.000193100               0.002313777              -0.000019647              -0.000216809               0.000843521               0.000626712               0.000000000               0.000000000               0.000000000               0.000000000               0.000177726               0.002358801              -0.000006180              -0.000228202               0.000862326               0.000634124               0.000000000               0.000000000               0.000000000               0.000000000               0.000502358               0.000384568              -0.000379286               0.000140312               0.000081417               0.000221729               0.000000000               0.000000000               0.000000000               0.000000000               0.000495336               0.000606776              -0.000448548               0.000109902               0.000165622               0.000275525               0.000000000               0.000000000               0.000000000               0.000000000               0.000433280               0.000907495              -0.000483605               0.000049042               0.000286148               0.000335190               0.000000000               0.000000000               0.000000000               0.000000000               0.000386825               0.001115240              -0.000447182               0.000005654               0.000369858               0.000375512               0.000000000               0.000000000               0.000000000               0.000000000               0.000352019               0.001266234              -0.000393324              -0.000026273               0.000430831               0.000404559               0.000000000               0.000000000               0.000000000               0.000000000               0.000329037               0.001387630              -0.000335890              -0.000050065               0.000479227               0.000429162               0.000000000               0.000000000               0.000000000               0.000000000               0.000310314               0.001495115              -0.000284088              -0.000070522               0.000521874               0.000451352               0.000000000               0.000000000               0.000000000               0.000000000               0.000292241               0.001591022              -0.000241709              -0.000089287               0.000560098               0.000470811               0.000000000               0.000000000               0.000000000               0.000000000               0.000270875               0.001672618              -0.000207372              -0.000107499               0.000593367               0.000485868               0.000000000               0.000000000               0.000000000               0.000000000               0.000248539               0.001743619              -0.000177876              -0.000124750               0.000622784               0.000498034               0.000000000               0.000000000               0.000000000               0.000000000               0.000230384               0.001816151              -0.000150277              -0.000140624               0.000652252               0.000511628               0.000000000               0.000000000               0.000000000               0.000000000               0.000222969               0.001896561              -0.000121887              -0.000153457               0.000683333               0.000529876               0.000000000               0.000000000               0.000000000               0.000000000               0.000226913               0.001990334              -0.000094774              -0.000163699               0.000718004               0.000554305               0.000000000               0.000000000               0.000000000               0.000000000               0.000236759               0.002096092              -0.000073477              -0.000173226               0.000756432               0.000583206               0.000000000               0.000000000               0.000000000               0.000000000               0.000246476               0.002207892              -0.000053658              -0.000183558               0.000797143               0.000613585               0.000000000               0.000000000               0.000000000               0.000000000               0.000247633               0.002319051              -0.000028735              -0.000197018               0.000838682               0.000641664               0.000000000               0.000000000               0.000000000               0.000000000               0.000234153               0.002366679              -0.000011463              -0.000208027               0.000858227               0.000650200               0.000000000               0.000000000               0.000000000               0.000000000               0.000406366               0.000241068              -0.000262951               0.000122252               0.000039604               0.000161857               0.000000000               0.000000000               0.000000000               0.000000000               0.000477847               0.000440379              -0.000348661               0.000124144               0.000105410               0.000229554               0.000000000               0.000000000               0.000000000               0.000000000               0.000477168               0.000716241              -0.000407415               0.000089407               0.000208942               0.000298349               0.000000000               0.000000000               0.000000000               0.000000000               0.000447121               0.000934844              -0.000391081               0.000050814               0.000294673               0.000345488               0.000000000               0.000000000               0.000000000               0.000000000               0.000412620               0.001105989              -0.000352283               0.000016483               0.000363165               0.000379648               0.000000000               0.000000000               0.000000000               0.000000000               0.000383040               0.001247376              -0.000306627              -0.000012282               0.000419882               0.000407600               0.000000000               0.000000000               0.000000000               0.000000000               0.000361177               0.001371182              -0.000263136              -0.000035956               0.000469042               0.000433085               0.000000000               0.000000000               0.000000000               0.000000000               0.000339364               0.001477837              -0.000226739              -0.000057468               0.000511764               0.000454295               0.000000000               0.000000000               0.000000000               0.000000000               0.000319471               0.001570820              -0.000196976              -0.000076551               0.000549118               0.000472567               0.000000000               0.000000000               0.000000000               0.000000000               0.000300246               0.001656952              -0.000171387              -0.000094526               0.000583820               0.000489294               0.000000000               0.000000000               0.000000000               0.000000000               0.000283130               0.001745448              -0.000147905              -0.000112007               0.000619146               0.000507139               0.000000000               0.000000000               0.000000000               0.000000000               0.000271571               0.001843827              -0.000127373              -0.000128639               0.000657482               0.000528843               0.000000000               0.000000000               0.000000000               0.000000000               0.000275480               0.001956294              -0.000108149              -0.000141232               0.000699169               0.000557937               0.000000000               0.000000000               0.000000000               0.000000000               0.000288742               0.002080071              -0.000088272              -0.000151730               0.000743927               0.000592196               0.000000000               0.000000000               0.000000000               0.000000000               0.000300800               0.002207129              -0.000065678              -0.000163091               0.000790066               0.000626975               0.000000000               0.000000000               0.000000000               0.000000000               0.000307786               0.002325527              -0.000035995              -0.000175271               0.000833591               0.000658321               0.000000000               0.000000000               0.000000000               0.000000000               0.000301860               0.002376448              -0.000016942              -0.000183858               0.000853427               0.000669569               0.000000000               0.000000000               0.000000000               0.000000000               0.000319237               0.000146817              -0.000162013               0.000101361               0.000015151               0.000116512               0.000000000               0.000000000               0.000000000               0.000000000               0.000457399               0.000315587              -0.000237711               0.000132075               0.000061170               0.000193244               0.000000000               0.000000000               0.000000000               0.000000000               0.000513854               0.000558797              -0.000295327               0.000122844               0.000145316               0.000268160               0.000000000               0.000000000               0.000000000               0.000000000               0.000500992               0.000777658              -0.000291820               0.000090664               0.000228995               0.000319659               0.000000000               0.000000000               0.000000000               0.000000000               0.000469499               0.000963598              -0.000267288               0.000055612               0.000302659               0.000358271               0.000000000               0.000000000               0.000000000               0.000000000               0.000436204               0.001119751              -0.000236362               0.000023607               0.000365377               0.000388985               0.000000000               0.000000000               0.000000000               0.000000000               0.000409068               0.001254695              -0.000205376              -0.000003437               0.000419373               0.000415936               0.000000000               0.000000000               0.000000000               0.000000000               0.000384632               0.001368955              -0.000179538              -0.000026883               0.000465275               0.000438392               0.000000000               0.000000000               0.000000000               0.000000000               0.000362779               0.001471549              -0.000158308              -0.000047901               0.000506479               0.000458577               0.000000000               0.000000000               0.000000000               0.000000000               0.000344578               0.001576317              -0.000137821              -0.000067823               0.000548041               0.000480219               0.000000000               0.000000000               0.000000000               0.000000000               0.000329769               0.001685378              -0.000119550              -0.000087009               0.000590790               0.000503781               0.000000000               0.000000000               0.000000000               0.000000000               0.000323849               0.001802027              -0.000108034              -0.000103810               0.000635273               0.000531463               0.000000000               0.000000000               0.000000000               0.000000000               0.000326823               0.001928050              -0.000099635              -0.000118447               0.000682159               0.000563712               0.000000000               0.000000000               0.000000000               0.000000000               0.000339862               0.002062705              -0.000085370              -0.000130389               0.000731024               0.000600635               0.000000000               0.000000000               0.000000000               0.000000000               0.000357066               0.002199296              -0.000063234              -0.000141012               0.000780095               0.000639083               0.000000000               0.000000000               0.000000000               0.000000000               0.000370737               0.002323690              -0.000034928              -0.000151434               0.000825034               0.000673599               0.000000000               0.000000000               0.000000000               0.000000000               0.000372628               0.002378043              -0.000018473              -0.000157519               0.000845179               0.000687660               0.000000000               0.000000000               0.000000000               0.000000000               0.000257117               0.000091011              -0.000076251               0.000085042               0.000001989               0.000087031               0.000000000               0.000000000               0.000000000               0.000000000               0.000441250               0.000235928              -0.000119908               0.000135976               0.000033316               0.000169293               0.000000000               0.000000000               0.000000000               0.000000000               0.000536675               0.000454085              -0.000154711               0.000144491               0.000103197               0.000247688               0.000000000               0.000000000               0.000000000               0.000000000               0.000539111               0.000670860              -0.000156274               0.000118308               0.000184182               0.000302490               0.000000000               0.000000000               0.000000000               0.000000000               0.000510157               0.000863573              -0.000144942               0.000083362               0.000260068               0.000343429               0.000000000               0.000000000               0.000000000               0.000000000               0.000476167               0.001029646              -0.000129039               0.000049856               0.000326593               0.000376450               0.000000000               0.000000000               0.000000000               0.000000000               0.000444264               0.001170735              -0.000113374               0.000020257               0.000383489               0.000403746               0.000000000               0.000000000               0.000000000               0.000000000               0.000416600               0.001290370              -0.000099954              -0.000005071               0.000431809               0.000426738               0.000000000               0.000000000               0.000000000               0.000000000               0.000391619               0.001401464              -0.000089224              -0.000028326               0.000476592               0.000448266               0.000000000               0.000000000               0.000000000               0.000000000               0.000374472               0.001517253              -0.000076903              -0.000049230               0.000522156               0.000472926               0.000000000               0.000000000               0.000000000               0.000000000               0.000366002               0.001640424              -0.000067193              -0.000067802               0.000569403               0.000501601               0.000000000               0.000000000               0.000000000               0.000000000               0.000366354               0.001773420              -0.000063378              -0.000084294               0.000619232               0.000534938               0.000000000               0.000000000               0.000000000               0.000000000               0.000370518               0.001913830              -0.000060555              -0.000100284               0.000671365               0.000571081               0.000000000               0.000000000               0.000000000               0.000000000               0.000378535               0.002051731              -0.000055108              -0.000114515               0.000722075               0.000607560               0.000000000               0.000000000               0.000000000               0.000000000               0.000393977               0.002181716              -0.000040295              -0.000124973               0.000768889               0.000643916               0.000000000               0.000000000               0.000000000               0.000000000               0.000419334               0.002306976              -0.000019071              -0.000131121               0.000812691               0.000681570               0.000000000               0.000000000               0.000000000               0.000000000               0.000434913               0.002367603              -0.000008122              -0.000132858               0.000833479               0.000700621               0.000000000               0.000000000               0.000000000               0.000000000               0.000234705               0.000070532              -0.000000000               0.000079197              -0.000002889               0.000076309               0.000000000               0.000000000               0.000000000               0.000000000               0.000435563               0.000208164              -0.000000000               0.000137314               0.000023616               0.000160930               0.000000000               0.000000000               0.000000000               0.000000000               0.000544133               0.000419029              -0.000000000               0.000151670               0.000089118               0.000240788               0.000000000               0.000000000               0.000000000               0.000000000               0.000553291               0.000633460              -0.000000000               0.000128300               0.000168385               0.000296685               0.000000000               0.000000000               0.000000000               0.000000000               0.000525225               0.000826860              -0.000000000               0.000093601               0.000244417               0.000338018               0.000000000               0.000000000               0.000000000               0.000000000               0.000490618               0.000997383               0.000000000               0.000059308               0.000312688               0.000371996               0.000000000               0.000000000               0.000000000               0.000000000               0.000457771               0.001139867               0.000000000               0.000029180               0.000370225               0.000399406               0.000000000               0.000000000               0.000000000               0.000000000               0.000427653               0.001261604               0.000000000               0.000002669               0.000419641               0.000422310               0.000000000               0.000000000               0.000000000               0.000000000               0.000402122               0.001376514              -0.000000000              -0.000021269               0.000465923               0.000444654               0.000000000               0.000000000               0.000000000               0.000000000               0.000384092               0.001492803              -0.000000000              -0.000042566               0.000511785               0.000469219               0.000000000               0.000000000               0.000000000               0.000000000               0.000381625               0.001624172               0.000000000              -0.000059912               0.000561356               0.000501444               0.000000000               0.000000000               0.000000000               0.000000000               0.000383375               0.001766318               0.000000000              -0.000077024               0.000614441               0.000537417               0.000000000               0.000000000               0.000000000               0.000000000               0.000387468               0.001909529              -0.000000000              -0.000093391               0.000667633               0.000574243               0.000000000               0.000000000               0.000000000               0.000000000               0.000392992               0.002047724              -0.000000000              -0.000108593               0.000718766               0.000610172               0.000000000               0.000000000               0.000000000               0.000000000               0.000404413               0.002171599              -0.000000000              -0.000119794               0.000763790               0.000643996               0.000000000               0.000000000               0.000000000               0.000000000               0.000436211               0.002292717               0.000000000              -0.000123010               0.000805235               0.000682225               0.000000000               0.000000000               0.000000000               0.000000000               0.000461221               0.002355786               0.000000000              -0.000121515               0.000825759               0.000704244               0.000000000               0.000000000               0.000000000               0.000000000               0.000000000               0.000000000               0.000000000               0.000000000               0.000000000               0.000000000               0.000000000               0.000000000               0.000000000               0.000000000               0.000000000               0.000000000               0.000000000               0.000000000               0.000000000               0.000000000               0.000000000               0.000000000               0.000000000               0.000000000               0.000000000               0.000000000               0.000000000               0.000000000               0.000000000               0.000000000               0.000000000               0.000000000               0.000000000               0.000000000               0.000000000               0.000000000               0.000000000               0.000000000               0.000000000               0.000000000               0.000000000               0.000000000               0.000000000               0.000000000               0.000000000               0.000000000               0.000000000               0.000000000               0.000000000               0.000000000               0.000000000               0.000000000               0.000000000               0.000000000               0.000000000               0.000000000               0.000000000               0.000000000               0.000000000               0.000000000               0.000000000               0.000000000               0.000000000               0.000000000               0.000000000               0.000000000               0.000000000               0.000000000               0.000000000               0.000000000               0.000000000               0.000000000               0.000000000               0.000000000               0.000000000               0.000000000               0.000000000               0.000000000               0.000000000               0.000000000               0.000000000               0.000000000               0.000000000               0.000000000               0.000000000               0.000000000               0.000000000               0.000000000               0.000000000               0.000000000               0.000000000               0.000000000               0.000000000               0.000000000               0.000000000               0.000000000               0.000000000               0.000000000               0.000000000               0.000000000               0.000000000               0.000000000               0.000000000               0.000000000               0.000000000               0.000000000               0.000000000               0.000000000               0.000000000               0.000000000               0.000000000               0.000000000               0.000000000               0.000000000               0.000000000               0.000000000               0.000000000               0.000000000               0.000000000               0.000000000               0.000000000               0.000000000               0.000000000               0.000000000               0.000000000               0.000000000               0.000000000               0.000000000               0.000000000               0.000000000               0.000000000               0.000000000               0.000000000               0.000000000               0.000000000               0.000000000               0.000000000               0.000000000               0.000000000               0.000000000               0.000000000               0.000000000               0.000000000               0.000000000               0.000000000               0.000000000               0.000000000               0.000000000               0.000000000               0.000000000               0.000000000               0.000000000               0.000000000               0.000000000               0.000000000               0.000000000               0.000000000               0.000000000               0.000000000               0.000000000               0.000000000               0.000000000               0.000000000               0.000000000               0.000000000               0.000000000               0.000000000               0.000000000               0.000000000               0.000000000               0.000000000               0.000000000               0.000000000               0.000000000               0.000318939               0.003296231               0.000263267              -0.000292426               0.001196208               0.000903782               0.000000000               0.000000000               0.000000000               0.000000000               0.000356757               0.002757188               0.000178896              -0.000210864               0.000989342               0.000778477               0.000000000               0.000000000               0.000000000               0.000000000               0.000499930               0.002323141               0.000090660              -0.000102919               0.000808679               0.000705760               0.000000000               0.000000000               0.000000000               0.000000000               0.000536742               0.002082153               0.000048187              -0.000058991               0.000713708               0.000654717               0.000000000               0.000000000               0.000000000               0.000000000               0.000526080               0.001941981               0.000027034              -0.000045467               0.000662476               0.000617009               0.000000000               0.000000000               0.000000000               0.000000000               0.000495683               0.001861528               0.000016840              -0.000046810               0.000636106               0.000589297               0.000000000               0.000000000               0.000000000               0.000000000               0.000452938               0.001815974               0.000012147              -0.000057145               0.000624367               0.000567222               0.000000000               0.000000000               0.000000000               0.000000000               0.000405297               0.001793640               0.000010183              -0.000072219               0.000621947               0.000549728               0.000000000               0.000000000               0.000000000               0.000000000               0.000357218               0.001786584               0.000008931              -0.000089366               0.000625311               0.000535945               0.000000000               0.000000000               0.000000000               0.000000000               0.000307348               0.001792767               0.000007277              -0.000108840               0.000633863               0.000525023               0.000000000               0.000000000               0.000000000               0.000000000               0.000256681               0.001809016               0.000004342              -0.000129871               0.000646290               0.000516418               0.000000000               0.000000000               0.000000000               0.000000000               0.000206268               0.001833964               0.000003630              -0.000151895               0.000661947               0.000510052               0.000000000               0.000000000               0.000000000               0.000000000               0.000157040               0.001861865               0.000006118              -0.000173843               0.000678563               0.000504720               0.000000000               0.000000000               0.000000000               0.000000000               0.000113191               0.001889369               0.000009756              -0.000193724               0.000694358               0.000500634               0.000000000               0.000000000               0.000000000               0.000000000               0.000074202               0.001916423               0.000009487              -0.000211726               0.000709377               0.000497650               0.000000000               0.000000000               0.000000000               0.000000000               0.000036687               0.001947981               0.000003660              -0.000229739               0.000725900               0.000496161               0.000000000               0.000000000               0.000000000               0.000000000               0.000021617               0.001975166               0.000000970              -0.000238789               0.000737978               0.000499190               0.000000000               0.000000000               0.000000000               0.000000000               0.000375272               0.003149338               0.000500936              -0.000252940               0.001134082               0.000881142               0.000000000               0.000000000               0.000000000               0.000000000               0.000378477               0.002652055               0.000339794              -0.000189578               0.000947202               0.000757624               0.000000000               0.000000000               0.000000000               0.000000000               0.000482167               0.002267060               0.000173245              -0.000102570               0.000789869               0.000687299               0.000000000               0.000000000               0.000000000               0.000000000               0.000500343               0.002055346               0.000095835              -0.000069289               0.000708205               0.000638915               0.000000000               0.000000000               0.000000000               0.000000000               0.000483713               0.001932371               0.000057770              -0.000060154               0.000664169               0.000604015               0.000000000               0.000000000               0.000000000               0.000000000               0.000452402               0.001860825               0.000039106              -0.000062952               0.000641253               0.000578301               0.000000000               0.000000000               0.000000000               0.000000000               0.000412478               0.001819865               0.000030124              -0.000072804               0.000630883               0.000558080               0.000000000               0.000000000               0.000000000               0.000000000               0.000369617               0.001798259               0.000025998              -0.000086176               0.000628139               0.000541963               0.000000000               0.000000000               0.000000000               0.000000000               0.000326854               0.001792926               0.000022594              -0.000101545               0.000631485               0.000529939               0.000000000               0.000000000               0.000000000               0.000000000               0.000280254               0.001798812               0.000017973              -0.000119756               0.000639516               0.000519761               0.000000000               0.000000000               0.000000000               0.000000000               0.000232352               0.001814486               0.000012583              -0.000139678               0.000651382               0.000511704               0.000000000               0.000000000               0.000000000               0.000000000               0.000187056               0.001835939               0.000009973              -0.000159346               0.000665089               0.000505743               0.000000000               0.000000000               0.000000000               0.000000000               0.000144516               0.001858151               0.000013642              -0.000178075               0.000678736               0.000500661               0.000000000               0.000000000               0.000000000               0.000000000               0.000105057               0.001878114               0.000020015              -0.000195367               0.000691154               0.000495787               0.000000000               0.000000000               0.000000000               0.000000000               0.000068206               0.001898417               0.000018311              -0.000211724               0.000703374               0.000491650               0.000000000               0.000000000               0.000000000               0.000000000               0.000032905               0.001922198               0.000006793              -0.000227935               0.000716705               0.000488770               0.000000000               0.000000000               0.000000000               0.000000000               0.000018281               0.001941277               0.000001110              -0.000235804               0.000725687               0.000489884               0.000000000               0.000000000               0.000000000               0.000000000               0.000453633               0.002919823               0.000691269              -0.000194866               0.001038220               0.000843354               0.000000000               0.000000000               0.000000000               0.000000000               0.000405475               0.002491184               0.000470136              -0.000159345               0.000883501               0.000724157               0.000000000               0.000000000               0.000000000               0.000000000               0.000452685               0.002184823               0.000244843              -0.000103346               0.000762716               0.000659370               0.000000000               0.000000000               0.000000000               0.000000000               0.000446352               0.002015194               0.000143044              -0.000084517               0.000699897               0.000615380               0.000000000               0.000000000               0.000000000               0.000000000               0.000421942               0.001917134               0.000094096              -0.000081413               0.000666176               0.000584763               0.000000000               0.000000000               0.000000000               0.000000000               0.000390799               0.001857882               0.000068913              -0.000085685               0.000647850               0.000562164               0.000000000               0.000000000               0.000000000               0.000000000               0.000356537               0.001823625               0.000056278              -0.000094252               0.000639286               0.000545035               0.000000000               0.000000000               0.000000000               0.000000000               0.000320721               0.001806052               0.000048492              -0.000105486               0.000637173               0.000531687               0.000000000               0.000000000               0.000000000               0.000000000               0.000284458               0.001803103               0.000041292              -0.000118716               0.000640600               0.000521885               0.000000000               0.000000000               0.000000000               0.000000000               0.000243819               0.001809439               0.000032416              -0.000134747               0.000648056               0.000513309               0.000000000               0.000000000               0.000000000               0.000000000               0.000202799               0.001824165               0.000022900              -0.000151971               0.000658706               0.000506735               0.000000000               0.000000000               0.000000000               0.000000000               0.000164123               0.001839469               0.000019122              -0.000168387               0.000669279               0.000500892               0.000000000               0.000000000               0.000000000               0.000000000               0.000127927               0.001851921               0.000022725              -0.000183517               0.000678473               0.000494956               0.000000000               0.000000000               0.000000000               0.000000000               0.000094774               0.001863335               0.000027543              -0.000197376               0.000686898               0.000489521               0.000000000               0.000000000               0.000000000               0.000000000               0.000062318               0.001876448               0.000021483              -0.000211186               0.000695872               0.000484685               0.000000000               0.000000000               0.000000000               0.000000000               0.000029649               0.001888434               0.000007425              -0.000224935               0.000704450               0.000479515               0.000000000               0.000000000               0.000000000               0.000000000               0.000015166               0.001896094               0.000001678              -0.000231324               0.000709133               0.000477809               0.000000000               0.000000000               0.000000000               0.000000000               0.000535464               0.002629382               0.000823050              -0.000127874               0.000919076               0.000791202               0.000000000               0.000000000               0.000000000               0.000000000               0.000429578               0.002292805               0.000564237              -0.000125509               0.000806097               0.000680588               0.000000000               0.000000000               0.000000000               0.000000000               0.000413776               0.002084248               0.000304192              -0.000105365               0.000729864               0.000624499               0.000000000               0.000000000               0.000000000               0.000000000               0.000383748               0.001965783               0.000190006              -0.000101817               0.000689193               0.000587376               0.000000000               0.000000000               0.000000000               0.000000000               0.000354582               0.001896586               0.000134895              -0.000104105               0.000666891               0.000562786               0.000000000               0.000000000               0.000000000               0.000000000               0.000326106               0.001853589               0.000105490              -0.000109409               0.000654326               0.000544918               0.000000000               0.000000000               0.000000000               0.000000000               0.000296502               0.001827683               0.000087886              -0.000117272               0.000648312               0.000531040               0.000000000               0.000000000               0.000000000               0.000000000               0.000266743               0.001815171               0.000074590              -0.000126867               0.000647340               0.000520473               0.000000000               0.000000000               0.000000000               0.000000000               0.000236629               0.001815239               0.000061389              -0.000138169               0.000651130               0.000512961               0.000000000               0.000000000               0.000000000               0.000000000               0.000204048               0.001824930               0.000046342              -0.000151598               0.000658837               0.000507239               0.000000000               0.000000000               0.000000000               0.000000000               0.000171995               0.001838029               0.000033361              -0.000165255               0.000667755               0.000502500               0.000000000               0.000000000               0.000000000               0.000000000               0.000142447               0.001846224               0.000028184              -0.000177360               0.000674522               0.000497162               0.000000000               0.000000000               0.000000000               0.000000000               0.000114068               0.001850380               0.000029140              -0.000188521               0.000679628               0.000491106               0.000000000               0.000000000               0.000000000               0.000000000               0.000085316               0.001854531               0.000028240              -0.000199823               0.000684778               0.000484956               0.000000000               0.000000000               0.000000000               0.000000000               0.000055448               0.001863735               0.000018776              -0.000212173               0.000691963               0.000479790               0.000000000               0.000000000               0.000000000               0.000000000               0.000024841               0.001871408               0.000007171              -0.000224610               0.000698666               0.000474056               0.000000000               0.000000000               0.000000000               0.000000000               0.000012014               0.001876933               0.000003955              -0.000230111               0.000702342               0.000472231               0.000000000               0.000000000               0.000000000               0.000000000               0.000607961               0.002304570               0.000893579              -0.000060087               0.000788211               0.000728124               0.000000000               0.000000000               0.000000000               0.000000000               0.000446648               0.002075518               0.000623085              -0.000091947               0.000722481               0.000630534               0.000000000               0.000000000               0.000000000               0.000000000               0.000371863               0.001975139               0.000352638              -0.000107444               0.000694188               0.000586744               0.000000000               0.000000000               0.000000000               0.000000000               0.000325675               0.001910314               0.000235908              -0.000116661               0.000675652               0.000558991               0.000000000               0.000000000               0.000000000               0.000000000               0.000292725               0.001867679               0.000177310              -0.000123688               0.000663783               0.000540095               0.000000000               0.000000000               0.000000000               0.000000000               0.000267705               0.001842154               0.000143399              -0.000129879               0.000657338               0.000527459               0.000000000               0.000000000               0.000000000               0.000000000               0.000243834               0.001828024               0.000119825              -0.000137065               0.000655024               0.000517959               0.000000000               0.000000000               0.000000000               0.000000000               0.000218719               0.001825416               0.000099593              -0.000146157               0.000657185               0.000511028               0.000000000               0.000000000               0.000000000               0.000000000               0.000193506               0.001834232               0.000079188              -0.000156714               0.000663642               0.000506928               0.000000000               0.000000000               0.000000000               0.000000000               0.000168465               0.001848168               0.000058007              -0.000167846               0.000671999               0.000504152               0.000000000               0.000000000               0.000000000               0.000000000               0.000144368               0.001857695               0.000042783              -0.000178074               0.000678583               0.000500510               0.000000000               0.000000000               0.000000000               0.000000000               0.000125095               0.001859772               0.000036300              -0.000185560               0.000681771               0.000496211               0.000000000               0.000000000               0.000000000               0.000000000               0.000105588               0.001859755               0.000033503              -0.000192873               0.000684203               0.000491330               0.000000000               0.000000000               0.000000000               0.000000000               0.000080059               0.001865376               0.000026222              -0.000203149               0.000689502               0.000486353               0.000000000               0.000000000               0.000000000               0.000000000               0.000052483               0.001879547               0.000013428              -0.000215262               0.000698263               0.000483002               0.000000000               0.000000000               0.000000000               0.000000000               0.000023843               0.001895060               0.000004956              -0.000227941               0.000707661               0.000479720               0.000000000               0.000000000               0.000000000               0.000000000               0.000013186               0.001908013               0.000004873              -0.000233556               0.000713850               0.000480294               0.000000000               0.000000000               0.000000000               0.000000000               0.000659526               0.001971895               0.000907157               0.000000834               0.000657014               0.000657848               0.000000000               0.000000000               0.000000000               0.000000000               0.000457070               0.001857740               0.000651066              -0.000060817               0.000639512               0.000578696               0.000000000               0.000000000               0.000000000               0.000000000               0.000333661               0.001864670               0.000392089              -0.000107961               0.000657537               0.000549576               0.000000000               0.000000000               0.000000000               0.000000000               0.000278765               0.001846741               0.000278663              -0.000126306               0.000657676               0.000531371               0.000000000               0.000000000               0.000000000               0.000000000               0.000246537               0.001830303               0.000216521              -0.000136336               0.000655540               0.000519204               0.000000000               0.000000000               0.000000000               0.000000000               0.000226491               0.001825167               0.000176652              -0.000143211               0.000656120               0.000512909               0.000000000               0.000000000               0.000000000               0.000000000               0.000206364               0.001827464               0.000146264              -0.000151046               0.000659497               0.000508451               0.000000000               0.000000000               0.000000000               0.000000000               0.000182653               0.001839098               0.000119029              -0.000161392               0.000666824               0.000505432               0.000000000               0.000000000               0.000000000               0.000000000               0.000159318               0.001856057               0.000091480              -0.000172263               0.000676100               0.000503838               0.000000000               0.000000000               0.000000000               0.000000000               0.000139098               0.001873686               0.000067723              -0.000182049               0.000685238               0.000503190               0.000000000               0.000000000               0.000000000               0.000000000               0.000121904               0.001881143               0.000052572              -0.000189428               0.000690184               0.000500756               0.000000000               0.000000000               0.000000000               0.000000000               0.000110291               0.001884634               0.000044868              -0.000194220               0.000692945               0.000498725               0.000000000               0.000000000               0.000000000               0.000000000               0.000096229               0.001893602               0.000037105              -0.000200614               0.000698066               0.000497452               0.000000000               0.000000000               0.000000000               0.000000000               0.000074972               0.001914693               0.000024091              -0.000211222               0.000708632               0.000497410               0.000000000               0.000000000               0.000000000               0.000000000               0.000051330               0.001942186               0.000010368              -0.000223524               0.000721897               0.000498373               0.000000000               0.000000000               0.000000000               0.000000000               0.000025806               0.001969665               0.000003699              -0.000236530               0.000735392               0.000498862               0.000000000               0.000000000               0.000000000               0.000000000               0.000016443               0.001990164               0.000004976              -0.000242604               0.000744249               0.000501645               0.000000000               0.000000000               0.000000000               0.000000000               0.000687348               0.001650051               0.000872544               0.000051498               0.000532845               0.000584343               0.000000000               0.000000000               0.000000000               0.000000000               0.000460615               0.001651092               0.000653429              -0.000033657               0.000561577               0.000527920               0.000000000               0.000000000               0.000000000               0.000000000               0.000303977               0.001753147               0.000423748              -0.000105152               0.000619427               0.000514275               0.000000000               0.000000000               0.000000000               0.000000000               0.000248471               0.001777020               0.000314557              -0.000128951               0.000635318               0.000506367               0.000000000               0.000000000               0.000000000               0.000000000               0.000221820               0.001790363               0.000247902              -0.000140613               0.000643653               0.000503040               0.000000000               0.000000000               0.000000000               0.000000000               0.000203861               0.001805930               0.000200882              -0.000149293               0.000651735               0.000502442               0.000000000               0.000000000               0.000000000               0.000000000               0.000184999               0.001825768               0.000163521              -0.000158846               0.000661532               0.000502686               0.000000000               0.000000000               0.000000000               0.000000000               0.000161683               0.001851133               0.000130145              -0.000170760               0.000673958               0.000503198               0.000000000               0.000000000               0.000000000               0.000000000               0.000136611               0.001876872               0.000098957              -0.000183380               0.000686744               0.000503365               0.000000000               0.000000000               0.000000000               0.000000000               0.000119002               0.001897889               0.000074132              -0.000192610               0.000696827               0.000504217               0.000000000               0.000000000               0.000000000               0.000000000               0.000109930               0.001914021               0.000058460              -0.000198028               0.000704010               0.000505982               0.000000000               0.000000000               0.000000000               0.000000000               0.000101340               0.001935630               0.000047566              -0.000203951               0.000713187               0.000509236               0.000000000               0.000000000               0.000000000               0.000000000               0.000087301               0.001969917               0.000034654              -0.000213501               0.000727800               0.000514298               0.000000000               0.000000000               0.000000000               0.000000000               0.000067862               0.002014538               0.000018233              -0.000226368               0.000746962               0.000520594               0.000000000               0.000000000               0.000000000               0.000000000               0.000047419               0.002062776               0.000005355              -0.000240064               0.000767607               0.000527542               0.000000000               0.000000000               0.000000000               0.000000000               0.000024921               0.002109538               0.000000667              -0.000254346               0.000787954               0.000533608               0.000000000               0.000000000               0.000000000               0.000000000               0.000015717               0.002141222               0.000003170              -0.000261758               0.000800986               0.000539228               0.000000000               0.000000000               0.000000000               0.000000000               0.000702209               0.001365182               0.000804361               0.000092679               0.000424163               0.000516842               0.000000000               0.000000000               0.000000000               0.000000000               0.000467943               0.001462684               0.000641222              -0.000007358               0.000490009               0.000482651               0.000000000               0.000000000               0.000000000               0.000000000               0.000293499               0.001647234               0.000456459              -0.000095842               0.000581020               0.000485178               0.000000000               0.000000000               0.000000000               0.000000000               0.000241025               0.001714491               0.000350740              -0.000123927               0.000612800               0.000488873               0.000000000               0.000000000               0.000000000               0.000000000               0.000221301               0.001755720               0.000278828              -0.000136477               0.000630726               0.000494249               0.000000000               0.000000000               0.000000000               0.000000000               0.000203944               0.001786802               0.000223252              -0.000146871               0.000644551               0.000497681               0.000000000               0.000000000               0.000000000               0.000000000               0.000183685               0.001820964               0.000178595              -0.000158738               0.000659895               0.000501156               0.000000000               0.000000000               0.000000000               0.000000000               0.000159753               0.001859934               0.000141468              -0.000172584               0.000677500               0.000504916               0.000000000               0.000000000               0.000000000               0.000000000               0.000136643               0.001896510               0.000111492              -0.000185822               0.000694104               0.000508282               0.000000000               0.000000000               0.000000000               0.000000000               0.000122518               0.001925739               0.000085168              -0.000194773               0.000706831               0.000512058               0.000000000               0.000000000               0.000000000               0.000000000               0.000117778               0.001954967               0.000062919              -0.000200204               0.000718384               0.000518180               0.000000000               0.000000000               0.000000000               0.000000000               0.000109693               0.001995401               0.000044952              -0.000208290               0.000734557               0.000526267               0.000000000               0.000000000               0.000000000               0.000000000               0.000093949               0.002053179               0.000028101              -0.000221416               0.000758191               0.000536776               0.000000000               0.000000000               0.000000000               0.000000000               0.000074800               0.002122383               0.000009851              -0.000237247               0.000786536               0.000549289               0.000000000               0.000000000               0.000000000               0.000000000               0.000059041               0.002194693              -0.000003053              -0.000252195               0.000815622               0.000563427               0.000000000               0.000000000               0.000000000               0.000000000               0.000046683               0.002261880              -0.000006950              -0.000265228               0.000842362               0.000577134               0.000000000               0.000000000               0.000000000               0.000000000               0.000040907               0.002300480              -0.000005261              -0.000272219               0.000857559               0.000585340               0.000000000               0.000000000               0.000000000               0.000000000               0.000695376               0.001086025               0.000719389               0.000125011               0.000320334               0.000445345               0.000000000               0.000000000               0.000000000               0.000000000               0.000483324               0.001240622               0.000622810               0.000026168               0.000404814               0.000430981               0.000000000               0.000000000               0.000000000               0.000000000               0.000309690               0.001488585               0.000496248              -0.000069940               0.000519503               0.000449564               0.000000000               0.000000000               0.000000000               0.000000000               0.000254962               0.001602502               0.000398068              -0.000104702               0.000569063               0.000464361               0.000000000               0.000000000               0.000000000               0.000000000               0.000234354               0.001668907               0.000321785              -0.000120730               0.000596540               0.000475810               0.000000000               0.000000000               0.000000000               0.000000000               0.000219206               0.001717980               0.000258639              -0.000132545               0.000616836               0.000484291               0.000000000               0.000000000               0.000000000               0.000000000               0.000200706               0.001766925               0.000207950              -0.000145601               0.000637503               0.000491902               0.000000000               0.000000000               0.000000000               0.000000000               0.000179326               0.001816915               0.000168760              -0.000159867               0.000658921               0.000499054               0.000000000               0.000000000               0.000000000               0.000000000               0.000157929               0.001865077               0.000138480              -0.000173911               0.000679657               0.000505746               0.000000000               0.000000000               0.000000000               0.000000000               0.000143008               0.001911926               0.000109745              -0.000185362               0.000699090               0.000513728               0.000000000               0.000000000               0.000000000               0.000000000               0.000133265               0.001952443               0.000081038              -0.000194080               0.000715501               0.000521421               0.000000000               0.000000000               0.000000000               0.000000000               0.000126299               0.002001000               0.000055507              -0.000202762               0.000734581               0.000531818               0.000000000               0.000000000               0.000000000               0.000000000               0.000115388               0.002065713               0.000031904              -0.000214943               0.000760212               0.000545269               0.000000000               0.000000000               0.000000000               0.000000000               0.000103432               0.002148283               0.000012963              -0.000229748               0.000792670               0.000562922               0.000000000               0.000000000               0.000000000               0.000000000               0.000094815               0.002239806               0.000002273              -0.000244419               0.000828067               0.000583648               0.000000000               0.000000000               0.000000000               0.000000000               0.000091976               0.002329504              -0.000000918              -0.000256696               0.000862059               0.000605363               0.000000000               0.000000000               0.000000000               0.000000000               0.000088166               0.002373028              -0.000002541              -0.000263566               0.000878857               0.000615291               0.000000000               0.000000000               0.000000000               0.000000000               0.000657857               0.000817833               0.000618601               0.000144465               0.000224453               0.000368918               0.000000000               0.000000000               0.000000000               0.000000000               0.000499847               0.001017421               0.000589280               0.000060264               0.000319049               0.000379313               0.000000000               0.000000000               0.000000000               0.000000000               0.000345489               0.001310604               0.000524619              -0.000034268               0.000448286               0.000414019               0.000000000               0.000000000               0.000000000               0.000000000               0.000286833               0.001464467               0.000442128              -0.000075496               0.000513316               0.000437820               0.000000000               0.000000000               0.000000000               0.000000000               0.000260630               0.001558394               0.000367032              -0.000097063               0.000551814               0.000454751               0.000000000               0.000000000               0.000000000               0.000000000               0.000246088               0.001631169               0.000300178              -0.000111613               0.000580922               0.000469309               0.000000000               0.000000000               0.000000000               0.000000000               0.000231173               0.001697983               0.000245067              -0.000125558               0.000607841               0.000482284               0.000000000               0.000000000               0.000000000               0.000000000               0.000212057               0.001760103               0.000203445              -0.000140491               0.000633526               0.000493034               0.000000000               0.000000000               0.000000000               0.000000000               0.000190092               0.001819158               0.000171318              -0.000156110               0.000658417               0.000502307               0.000000000               0.000000000               0.000000000               0.000000000               0.000170882               0.001875826               0.000140063              -0.000170397               0.000682068               0.000511671               0.000000000               0.000000000               0.000000000               0.000000000               0.000158115               0.001927919               0.000106952              -0.000181696               0.000703199               0.000521502               0.000000000               0.000000000               0.000000000               0.000000000               0.000151021               0.001984345               0.000074978              -0.000191410               0.000725245               0.000533835               0.000000000               0.000000000               0.000000000               0.000000000               0.000147430               0.002049610               0.000047249              -0.000200914               0.000750168               0.000549254               0.000000000               0.000000000               0.000000000               0.000000000               0.000146931               0.002130333               0.000028163              -0.000211192               0.000780501               0.000569309               0.000000000               0.000000000               0.000000000               0.000000000               0.000145945               0.002223159               0.000016214              -0.000223165               0.000815434               0.000592269               0.000000000               0.000000000               0.000000000               0.000000000               0.000144127               0.002322891               0.000007974              -0.000236313               0.000853060               0.000616747               0.000000000               0.000000000               0.000000000               0.000000000               0.000134441               0.002366983               0.000000295              -0.000245457               0.000870805               0.000625348               0.000000000               0.000000000               0.000000000               0.000000000               0.000591412               0.000578488               0.000501866               0.000149467               0.000143005               0.000292472               0.000000000               0.000000000               0.000000000               0.000000000               0.000504051               0.000803329               0.000530481               0.000088602               0.000238240               0.000326841               0.000000000               0.000000000               0.000000000               0.000000000               0.000387778               0.001112522               0.000522017               0.000006351               0.000368720               0.000375071               0.000000000               0.000000000               0.000000000               0.000000000               0.000331260               0.001297367               0.000461980              -0.000037949               0.000445101               0.000407152               0.000000000               0.000000000               0.000000000               0.000000000               0.000300037               0.001422155               0.000394798              -0.000065256               0.000495799               0.000430543               0.000000000               0.000000000               0.000000000               0.000000000               0.000281645               0.001519515               0.000330062              -0.000084323               0.000534607               0.000450285               0.000000000               0.000000000               0.000000000               0.000000000               0.000266869               0.001607241               0.000274382              -0.000100829               0.000569351               0.000468522               0.000000000               0.000000000               0.000000000               0.000000000               0.000249510               0.001686803               0.000230671              -0.000117284               0.000601357               0.000484073               0.000000000               0.000000000               0.000000000               0.000000000               0.000226978               0.001756672               0.000196769              -0.000134467               0.000630374               0.000495907               0.000000000               0.000000000               0.000000000               0.000000000               0.000202656               0.001819523               0.000165156              -0.000151444               0.000656983               0.000505539               0.000000000               0.000000000               0.000000000               0.000000000               0.000186900               0.001883104               0.000132336              -0.000165300               0.000682795               0.000517495               0.000000000               0.000000000               0.000000000               0.000000000               0.000181943               0.001949640               0.000099787              -0.000175476               0.000708366               0.000532890               0.000000000               0.000000000               0.000000000               0.000000000               0.000184423               0.002024350               0.000071810              -0.000183885               0.000736071               0.000552187               0.000000000               0.000000000               0.000000000               0.000000000               0.000190928               0.002112420               0.000050739              -0.000192454               0.000768284               0.000575830               0.000000000               0.000000000               0.000000000               0.000000000               0.000196072               0.002209804               0.000035540              -0.000202698               0.000804160               0.000601462               0.000000000               0.000000000               0.000000000               0.000000000               0.000193100               0.002313777               0.000019647              -0.000216809               0.000843521               0.000626712               0.000000000               0.000000000               0.000000000               0.000000000               0.000177726               0.002358801               0.000006180              -0.000228202               0.000862326               0.000634124               0.000000000               0.000000000               0.000000000               0.000000000               0.000502358               0.000384568               0.000379286               0.000140312               0.000081417               0.000221729               0.000000000               0.000000000               0.000000000               0.000000000               0.000495336               0.000606776               0.000448548               0.000109902               0.000165622               0.000275525               0.000000000               0.000000000               0.000000000               0.000000000               0.000433280               0.000907495               0.000483605               0.000049042               0.000286148               0.000335190               0.000000000               0.000000000               0.000000000               0.000000000               0.000386825               0.001115240               0.000447182               0.000005654               0.000369858               0.000375512               0.000000000               0.000000000               0.000000000               0.000000000               0.000352019               0.001266234               0.000393324              -0.000026273               0.000430831               0.000404559               0.000000000               0.000000000               0.000000000               0.000000000               0.000329037               0.001387630               0.000335890              -0.000050065               0.000479227               0.000429162               0.000000000               0.000000000               0.000000000               0.000000000               0.000310314               0.001495115               0.000284088              -0.000070522               0.000521874               0.000451352               0.000000000               0.000000000               0.000000000               0.000000000               0.000292241               0.001591022               0.000241709              -0.000089287               0.000560098               0.000470811               0.000000000               0.000000000               0.000000000               0.000000000               0.000270875               0.001672618               0.000207372              -0.000107499               0.000593367               0.000485868               0.000000000               0.000000000               0.000000000               0.000000000               0.000248539               0.001743619               0.000177876              -0.000124750               0.000622784               0.000498034               0.000000000               0.000000000               0.000000000               0.000000000               0.000230384               0.001816151               0.000150277              -0.000140624               0.000652252               0.000511628               0.000000000               0.000000000               0.000000000               0.000000000               0.000222969               0.001896561               0.000121887              -0.000153457               0.000683333               0.000529876               0.000000000               0.000000000               0.000000000               0.000000000               0.000226913               0.001990334               0.000094774              -0.000163699               0.000718004               0.000554305               0.000000000               0.000000000               0.000000000               0.000000000               0.000236759               0.002096092               0.000073477              -0.000173226               0.000756432               0.000583206               0.000000000               0.000000000               0.000000000               0.000000000               0.000246476               0.002207892               0.000053658              -0.000183558               0.000797143               0.000613585               0.000000000               0.000000000               0.000000000               0.000000000               0.000247633               0.002319051               0.000028735              -0.000197018               0.000838682               0.000641664               0.000000000               0.000000000               0.000000000               0.000000000               0.000234153               0.002366679               0.000011463              -0.000208027               0.000858227               0.000650200               0.000000000               0.000000000               0.000000000               0.000000000               0.000406366               0.000241068               0.000262951               0.000122252               0.000039604               0.000161857               0.000000000               0.000000000               0.000000000               0.000000000               0.000477847               0.000440379               0.000348661               0.000124144               0.000105410               0.000229554               0.000000000               0.000000000               0.000000000               0.000000000               0.000477168               0.000716241               0.000407415               0.000089407               0.000208942               0.000298349               0.000000000               0.000000000               0.000000000               0.000000000               0.000447121               0.000934844               0.000391081               0.000050814               0.000294673               0.000345488               0.000000000               0.000000000               0.000000000               0.000000000               0.000412620               0.001105989               0.000352283               0.000016483               0.000363165               0.000379648               0.000000000               0.000000000               0.000000000               0.000000000               0.000383040               0.001247376               0.000306627              -0.000012282               0.000419882               0.000407600               0.000000000               0.000000000               0.000000000               0.000000000               0.000361177               0.001371182               0.000263136              -0.000035956               0.000469042               0.000433085               0.000000000               0.000000000               0.000000000               0.000000000               0.000339364               0.001477837               0.000226739              -0.000057468               0.000511764               0.000454295               0.000000000               0.000000000               0.000000000               0.000000000               0.000319471               0.001570820               0.000196976              -0.000076551               0.000549118               0.000472567               0.000000000               0.000000000               0.000000000               0.000000000               0.000300246               0.001656952               0.000171387              -0.000094526               0.000583820               0.000489294               0.000000000               0.000000000               0.000000000               0.000000000               0.000283130               0.001745448               0.000147905              -0.000112007               0.000619146               0.000507139               0.000000000               0.000000000               0.000000000               0.000000000               0.000271571               0.001843827               0.000127373              -0.000128639               0.000657482               0.000528843               0.000000000               0.000000000               0.000000000               0.000000000               0.000275480               0.001956294               0.000108149              -0.000141232               0.000699169               0.000557937               0.000000000               0.000000000               0.000000000               0.000000000               0.000288742               0.002080071               0.000088272              -0.000151730               0.000743927               0.000592196               0.000000000               0.000000000               0.000000000               0.000000000               0.000300800               0.002207129               0.000065678              -0.000163091               0.000790066               0.000626975               0.000000000               0.000000000               0.000000000               0.000000000               0.000307786               0.002325527               0.000035995              -0.000175271               0.000833591               0.000658321               0.000000000               0.000000000               0.000000000               0.000000000               0.000301860               0.002376448               0.000016942              -0.000183858               0.000853427               0.000669569               0.000000000               0.000000000               0.000000000               0.000000000               0.000319237               0.000146817               0.000162013               0.000101361               0.000015151               0.000116512               0.000000000               0.000000000               0.000000000               0.000000000               0.000457399               0.000315587               0.000237711               0.000132075               0.000061170               0.000193244               0.000000000               0.000000000               0.000000000               0.000000000               0.000513854               0.000558797               0.000295327               0.000122844               0.000145316               0.000268160               0.000000000               0.000000000               0.000000000               0.000000000               0.000500992               0.000777658               0.000291820               0.000090664               0.000228995               0.000319659               0.000000000               0.000000000               0.000000000               0.000000000               0.000469499               0.000963598               0.000267288               0.000055612               0.000302659               0.000358271               0.000000000               0.000000000               0.000000000               0.000000000               0.000436204               0.001119751               0.000236362               0.000023607               0.000365377               0.000388985               0.000000000               0.000000000               0.000000000               0.000000000               0.000409068               0.001254695               0.000205376              -0.000003437               0.000419373               0.000415936               0.000000000               0.000000000               0.000000000               0.000000000               0.000384632               0.001368955               0.000179538              -0.000026883               0.000465275               0.000438392               0.000000000               0.000000000               0.000000000               0.000000000               0.000362779               0.001471549               0.000158308              -0.000047901               0.000506479               0.000458577               0.000000000               0.000000000               0.000000000               0.000000000               0.000344578               0.001576317               0.000137821              -0.000067823               0.000548041               0.000480219               0.000000000               0.000000000               0.000000000               0.000000000               0.000329769               0.001685378               0.000119550              -0.000087009               0.000590790               0.000503781               0.000000000               0.000000000               0.000000000               0.000000000               0.000323849               0.001802027               0.000108034              -0.000103810               0.000635273               0.000531463               0.000000000               0.000000000               0.000000000               0.000000000               0.000326823               0.001928050               0.000099635              -0.000118447               0.000682159               0.000563712               0.000000000               0.000000000               0.000000000               0.000000000               0.000339862               0.002062705               0.000085370              -0.000130389               0.000731024               0.000600635               0.000000000               0.000000000               0.000000000               0.000000000               0.000357066               0.002199296               0.000063234              -0.000141012               0.000780095               0.000639083               0.000000000               0.000000000               0.000000000               0.000000000               0.000370737               0.002323690               0.000034928              -0.000151434               0.000825034               0.000673599               0.000000000               0.000000000               0.000000000               0.000000000               0.000372628               0.002378043               0.000018473              -0.000157519               0.000845179               0.000687660               0.000000000               0.000000000               0.000000000               0.000000000               0.000257117               0.000091011               0.000076251               0.000085042               0.000001989               0.000087031               0.000000000               0.000000000               0.000000000               0.000000000               0.000441250               0.000235928               0.000119908               0.000135976               0.000033316               0.000169293               0.000000000               0.000000000               0.000000000               0.000000000               0.000536675               0.000454085               0.000154711               0.000144491               0.000103197               0.000247688               0.000000000               0.000000000               0.000000000               0.000000000               0.000539111               0.000670860               0.000156274               0.000118308               0.000184182               0.000302490               0.000000000               0.000000000               0.000000000               0.000000000               0.000510157               0.000863573               0.000144942               0.000083362               0.000260068               0.000343429               0.000000000               0.000000000               0.000000000               0.000000000               0.000476167               0.001029646               0.000129039               0.000049856               0.000326593               0.000376450               0.000000000               0.000000000               0.000000000               0.000000000               0.000444264               0.001170735               0.000113374               0.000020257               0.000383489               0.000403746               0.000000000               0.000000000               0.000000000               0.000000000               0.000416600               0.001290370               0.000099954              -0.000005071               0.000431809               0.000426738               0.000000000               0.000000000               0.000000000               0.000000000               0.000391619               0.001401464               0.000089224              -0.000028326               0.000476592               0.000448266               0.000000000               0.000000000               0.000000000               0.000000000               0.000374472               0.001517253               0.000076903              -0.000049230               0.000522156               0.000472926               0.000000000               0.000000000               0.000000000               0.000000000               0.000366002               0.001640424               0.000067193              -0.000067802               0.000569403               0.000501601               0.000000000               0.000000000               0.000000000               0.000000000               0.000366354               0.001773420               0.000063378              -0.000084294               0.000619232               0.000534938               0.000000000               0.000000000               0.000000000               0.000000000               0.000370518               0.001913830               0.000060555              -0.000100284               0.000671365               0.000571081               0.000000000               0.000000000               0.000000000               0.000000000               0.000378535               0.002051731               0.000055108              -0.000114515               0.000722075               0.000607560               0.000000000               0.000000000               0.000000000               0.000000000               0.000393977               0.002181716               0.000040295              -0.000124973               0.000768889               0.000643916               0.000000000               0.000000000               0.000000000               0.000000000               0.000419334               0.002306976               0.000019071              -0.000131121               0.000812691               0.000681570               0.000000000               0.000000000               0.000000000               0.000000000               0.000434913               0.002367603               0.000008122              -0.000132858               0.000833479               0.000700621               0.000000000               0.000000000               0.000000000               0.000000000               0.000234705               0.000070532              -0.000000000               0.000079197              -0.000002889               0.000076309               0.000000000               0.000000000               0.000000000               0.000000000               0.000435563               0.000208164               0.000000000               0.000137314               0.000023616               0.000160930               0.000000000               0.000000000               0.000000000               0.000000000               0.000544133               0.000419029               0.000000000               0.000151670               0.000089118               0.000240788               0.000000000               0.000000000               0.000000000               0.000000000               0.000553291               0.000633460              -0.000000000               0.000128300               0.000168385               0.000296685               0.000000000               0.000000000               0.000000000               0.000000000               0.000525225               0.000826860               0.000000000               0.000093601               0.000244417               0.000338018               0.000000000               0.000000000               0.000000000               0.000000000               0.000490618               0.000997383               0.000000000               0.000059308               0.000312688               0.000371996               0.000000000               0.000000000               0.000000000               0.000000000               0.000457771               0.001139867               0.000000000               0.000029180               0.000370225               0.000399406               0.000000000               0.000000000               0.000000000               0.000000000               0.000427653               0.001261604               0.000000000               0.000002669               0.000419641               0.000422310               0.000000000               0.000000000               0.000000000               0.000000000               0.000402122               0.001376514              -0.000000000              -0.000021269               0.000465923               0.000444654               0.000000000               0.000000000               0.000000000               0.000000000               0.000384092               0.001492803              -0.000000000              -0.000042566               0.000511785               0.000469219               0.000000000               0.000000000               0.000000000               0.000000000               0.000381625               0.001624172              -0.000000000              -0.000059912               0.000561356               0.000501444               0.000000000               0.000000000               0.000000000               0.000000000               0.000383375               0.001766318              -0.000000000              -0.000077024               0.000614441               0.000537417               0.000000000               0.000000000               0.000000000               0.000000000               0.000387468               0.001909529              -0.000000000              -0.000093391               0.000667633               0.000574243               0.000000000               0.000000000               0.000000000               0.000000000               0.000392992               0.002047724               0.000000000              -0.000108593               0.000718766               0.000610172               0.000000000               0.000000000               0.000000000               0.000000000               0.000404413               0.002171599              -0.000000000              -0.000119794               0.000763790               0.000643996               0.000000000               0.000000000               0.000000000               0.000000000               0.000436211               0.002292717              -0.000000000              -0.000123010               0.000805235               0.000682225               0.000000000               0.000000000               0.000000000               0.000000000               0.000461221               0.002355786               0.000000000              -0.000121515               0.000825759               0.000704244               0.000000000               0.000000000               0.000000000               0.000000000               0.000299717               0.003346914               0.000000000              -0.000305970               0.001217617               0.000911647               0.000000000               0.000000000               0.000000000               0.000000000               0.000349334               0.002793768              -0.000000000              -0.000218220               0.001003987               0.000785767               0.000000000               0.000000000               0.000000000               0.000000000               0.000505379               0.002343232              -0.000000000              -0.000103386               0.000815532               0.000712145               0.000000000               0.000000000               0.000000000               0.000000000               0.000548298               0.002091179              -0.000000000              -0.000055785               0.000715648               0.000659862               0.000000000               0.000000000               0.000000000               0.000000000               0.000541415               0.001945462              -0.000000000              -0.000040152               0.000661865               0.000621713               0.000000000               0.000000000               0.000000000               0.000000000               0.000511663               0.001861066               0.000000000              -0.000040760               0.000633936               0.000593176               0.000000000               0.000000000               0.000000000               0.000000000               0.000467834               0.001813689               0.000000000              -0.000051273               0.000621648               0.000570375               0.000000000               0.000000000               0.000000000               0.000000000               0.000417462               0.001790263              -0.000000000              -0.000067235               0.000619160               0.000551925               0.000000000               0.000000000               0.000000000               0.000000000               0.000367778               0.001784327              -0.000000000              -0.000085124               0.000623144               0.000538021               0.000000000               0.000000000               0.000000000               0.000000000               0.000317378               0.001790006               0.000000000              -0.000104734               0.000631574               0.000526840               0.000000000               0.000000000               0.000000000               0.000000000               0.000265659               0.001807137               0.000000000              -0.000126270               0.000644463               0.000518193               0.000000000               0.000000000               0.000000000               0.000000000               0.000215983               0.001834627              -0.000000000              -0.000148334               0.000660981               0.000512647               0.000000000               0.000000000               0.000000000               0.000000000               0.000164709               0.001864162               0.000000000              -0.000171254               0.000678466               0.000507212               0.000000000               0.000000000               0.000000000               0.000000000               0.000114664               0.001893529               0.000000000              -0.000193692               0.000695734               0.000502042               0.000000000               0.000000000               0.000000000               0.000000000               0.000073745               0.001923546               0.000000000              -0.000212788               0.000712105               0.000499317               0.000000000               0.000000000               0.000000000               0.000000000               0.000037552               0.001958933               0.000000000              -0.000230784               0.000729899               0.000499115               0.000000000               0.000000000               0.000000000               0.000000000               0.000022831               0.001988435               0.000000000              -0.000239992               0.000742803               0.000502810               0.000000000               0.000000000               0.000000000               0.000000000               0.000318939               0.003296231              -0.000263267              -0.000292426               0.001196208               0.000903782               0.000000000               0.000000000               0.000000000               0.000000000               0.000356757               0.002757188              -0.000178896              -0.000210864               0.000989342               0.000778477               0.000000000               0.000000000               0.000000000               0.000000000               0.000499930               0.002323141              -0.000090660              -0.000102919               0.000808679               0.000705760               0.000000000               0.000000000               0.000000000               0.000000000               0.000536742               0.002082153              -0.000048187              -0.000058991               0.000713708               0.000654717               0.000000000               0.000000000               0.000000000               0.000000000               0.000526080               0.001941981              -0.000027034              -0.000045467               0.000662476               0.000617009               0.000000000               0.000000000               0.000000000               0.000000000               0.000495683               0.001861528              -0.000016840              -0.000046810               0.000636106               0.000589297               0.000000000               0.000000000               0.000000000               0.000000000               0.000452938               0.001815974              -0.000012147              -0.000057145               0.000624367               0.000567222               0.000000000               0.000000000               0.000000000               0.000000000               0.000405297               0.001793640              -0.000010183              -0.000072219               0.000621947               0.000549728               0.000000000               0.000000000               0.000000000               0.000000000               0.000357218               0.001786584              -0.000008931              -0.000089366               0.000625311               0.000535945               0.000000000               0.000000000               0.000000000               0.000000000               0.000307348               0.001792767              -0.000007277              -0.000108840               0.000633863               0.000525023               0.000000000               0.000000000               0.000000000               0.000000000               0.000256681               0.001809016              -0.000004342              -0.000129871               0.000646290               0.000516418               0.000000000               0.000000000               0.000000000               0.000000000               0.000206268               0.001833964              -0.000003630              -0.000151895               0.000661947               0.000510052               0.000000000               0.000000000               0.000000000               0.000000000               0.000157040               0.001861865              -0.000006118              -0.000173843               0.000678563               0.000504720               0.000000000               0.000000000               0.000000000               0.000000000               0.000113191               0.001889369              -0.000009756              -0.000193724               0.000694358               0.000500634               0.000000000               0.000000000               0.000000000               0.000000000               0.000074202               0.001916423              -0.000009487              -0.000211726               0.000709377               0.000497650               0.000000000               0.000000000               0.000000000               0.000000000               0.000036687               0.001947981              -0.000003660              -0.000229739               0.000725900               0.000496161               0.000000000               0.000000000               0.000000000               0.000000000               0.000021617               0.001975166              -0.000000970              -0.000238789               0.000737978               0.000499190               0.000000000               0.000000000               0.000000000               0.000000000               0.000375272               0.003149338              -0.000500936              -0.000252940               0.001134082               0.000881142               0.000000000               0.000000000               0.000000000               0.000000000               0.000378477               0.002652055              -0.000339794              -0.000189578               0.000947202               0.000757624               0.000000000               0.000000000               0.000000000               0.000000000               0.000482167               0.002267060              -0.000173245              -0.000102570               0.000789869               0.000687299               0.000000000               0.000000000               0.000000000               0.000000000               0.000500343               0.002055346              -0.000095835              -0.000069289               0.000708205               0.000638915               0.000000000               0.000000000               0.000000000               0.000000000               0.000483713               0.001932371              -0.000057770              -0.000060154               0.000664169               0.000604015               0.000000000               0.000000000               0.000000000               0.000000000               0.000452402               0.001860825              -0.000039106              -0.000062952               0.000641253               0.000578301               0.000000000               0.000000000               0.000000000               0.000000000               0.000412478               0.001819865              -0.000030124              -0.000072804               0.000630883               0.000558080               0.000000000               0.000000000               0.000000000               0.000000000               0.000369617               0.001798259              -0.000025998              -0.000086176               0.000628139               0.000541963               0.000000000               0.000000000               0.000000000               0.000000000               0.000326854               0.001792926              -0.000022594              -0.000101545               0.000631485               0.000529939               0.000000000               0.000000000               0.000000000               0.000000000               0.000280254               0.001798812              -0.000017973              -0.000119756               0.000639516               0.000519761               0.000000000               0.000000000               0.000000000               0.000000000               0.000232352               0.001814486              -0.000012583              -0.000139678               0.000651382               0.000511704               0.000000000               0.000000000               0.000000000               0.000000000               0.000187056               0.001835939              -0.000009973              -0.000159346               0.000665089               0.000505743               0.000000000               0.000000000               0.000000000               0.000000000               0.000144516               0.001858151              -0.000013642              -0.000178075               0.000678736               0.000500661               0.000000000               0.000000000               0.000000000               0.000000000               0.000105057               0.001878114              -0.000020015              -0.000195367               0.000691154               0.000495787               0.000000000               0.000000000               0.000000000               0.000000000               0.000068206               0.001898417              -0.000018311              -0.000211724               0.000703374               0.000491650               0.000000000               0.000000000               0.000000000               0.000000000               0.000032905               0.001922198              -0.000006793              -0.000227935               0.000716705               0.000488770               0.000000000               0.000000000               0.000000000               0.000000000               0.000018281               0.001941277              -0.000001110              -0.000235804               0.000725687               0.000489884               0.000000000               0.000000000               0.000000000               0.000000000               0.000453633               0.002919823              -0.000691269              -0.000194866               0.001038220               0.000843354               0.000000000               0.000000000               0.000000000               0.000000000               0.000405475               0.002491184              -0.000470136              -0.000159345               0.000883501               0.000724157               0.000000000               0.000000000               0.000000000               0.000000000               0.000452685               0.002184823              -0.000244843              -0.000103346               0.000762716               0.000659370               0.000000000               0.000000000               0.000000000               0.000000000               0.000446352               0.002015194              -0.000143044              -0.000084517               0.000699897               0.000615380               0.000000000               0.000000000               0.000000000               0.000000000               0.000421942               0.001917134              -0.000094096              -0.000081413               0.000666176               0.000584763               0.000000000               0.000000000               0.000000000               0.000000000               0.000390799               0.001857882              -0.000068913              -0.000085685               0.000647850               0.000562164               0.000000000               0.000000000               0.000000000               0.000000000               0.000356537               0.001823625              -0.000056278              -0.000094252               0.000639286               0.000545035               0.000000000               0.000000000               0.000000000               0.000000000               0.000320721               0.001806052              -0.000048492              -0.000105486               0.000637173               0.000531687               0.000000000               0.000000000               0.000000000               0.000000000               0.000284458               0.001803103              -0.000041292              -0.000118716               0.000640600               0.000521885               0.000000000               0.000000000               0.000000000               0.000000000               0.000243819               0.001809439              -0.000032416              -0.000134747               0.000648056               0.000513309               0.000000000               0.000000000               0.000000000               0.000000000               0.000202799               0.001824165              -0.000022900              -0.000151971               0.000658706               0.000506735               0.000000000               0.000000000               0.000000000               0.000000000               0.000164123               0.001839469              -0.000019122              -0.000168387               0.000669279               0.000500892               0.000000000               0.000000000               0.000000000               0.000000000               0.000127927               0.001851921              -0.000022725              -0.000183517               0.000678473               0.000494956               0.000000000               0.000000000               0.000000000               0.000000000               0.000094774               0.001863335              -0.000027543              -0.000197376               0.000686898               0.000489521               0.000000000               0.000000000               0.000000000               0.000000000               0.000062318               0.001876448              -0.000021483              -0.000211186               0.000695872               0.000484685               0.000000000               0.000000000               0.000000000               0.000000000               0.000029649               0.001888434              -0.000007425              -0.000224935               0.000704450               0.000479515               0.000000000               0.000000000               0.000000000               0.000000000               0.000015166               0.001896094              -0.000001678              -0.000231324               0.000709133               0.000477809               0.000000000               0.000000000               0.000000000               0.000000000               0.000535464               0.002629382              -0.000823050              -0.000127874               0.000919076               0.000791202               0.000000000               0.000000000               0.000000000               0.000000000               0.000429578               0.002292805              -0.000564237              -0.000125509               0.000806097               0.000680588               0.000000000               0.000000000               0.000000000               0.000000000               0.000413776               0.002084248              -0.000304192              -0.000105365               0.000729864               0.000624499               0.000000000               0.000000000               0.000000000               0.000000000               0.000383748               0.001965783              -0.000190006              -0.000101817               0.000689193               0.000587376               0.000000000               0.000000000               0.000000000               0.000000000               0.000354582               0.001896586              -0.000134895              -0.000104105               0.000666891               0.000562786               0.000000000               0.000000000               0.000000000               0.000000000               0.000326106               0.001853589              -0.000105490              -0.000109409               0.000654326               0.000544918               0.000000000               0.000000000               0.000000000               0.000000000               0.000296502               0.001827683              -0.000087886              -0.000117272               0.000648312               0.000531040               0.000000000               0.000000000               0.000000000               0.000000000               0.000266743               0.001815171              -0.000074590              -0.000126867               0.000647340               0.000520473               0.000000000               0.000000000               0.000000000               0.000000000               0.000236629               0.001815239              -0.000061389              -0.000138169               0.000651130               0.000512961               0.000000000               0.000000000               0.000000000               0.000000000               0.000204048               0.001824930              -0.000046342              -0.000151598               0.000658837               0.000507239               0.000000000               0.000000000               0.000000000               0.000000000               0.000171995               0.001838029              -0.000033361              -0.000165255               0.000667755               0.000502500               0.000000000               0.000000000               0.000000000               0.000000000               0.000142447               0.001846224              -0.000028184              -0.000177360               0.000674522               0.000497162               0.000000000               0.000000000               0.000000000               0.000000000               0.000114068               0.001850380              -0.000029140              -0.000188521               0.000679628               0.000491106               0.000000000               0.000000000               0.000000000               0.000000000               0.000085316               0.001854531              -0.000028240              -0.000199823               0.000684778               0.000484956               0.000000000               0.000000000               0.000000000               0.000000000               0.000055448               0.001863735              -0.000018776              -0.000212173               0.000691963               0.000479790               0.000000000               0.000000000               0.000000000               0.000000000               0.000024841               0.001871408              -0.000007171              -0.000224610               0.000698666               0.000474056               0.000000000               0.000000000               0.000000000               0.000000000               0.000012014               0.001876933              -0.000003955              -0.000230111               0.000702342               0.000472231               0.000000000               0.000000000               0.000000000               0.000000000               0.000607961               0.002304570              -0.000893579              -0.000060087               0.000788211               0.000728124               0.000000000               0.000000000               0.000000000               0.000000000               0.000446648               0.002075518              -0.000623085              -0.000091947               0.000722481               0.000630534               0.000000000               0.000000000               0.000000000               0.000000000               0.000371863               0.001975139              -0.000352638              -0.000107444               0.000694188               0.000586744               0.000000000               0.000000000               0.000000000               0.000000000               0.000325675               0.001910314              -0.000235908              -0.000116661               0.000675652               0.000558991               0.000000000               0.000000000               0.000000000               0.000000000               0.000292725               0.001867679              -0.000177310              -0.000123688               0.000663783               0.000540095               0.000000000               0.000000000               0.000000000               0.000000000               0.000267705               0.001842154              -0.000143399              -0.000129879               0.000657338               0.000527459               0.000000000               0.000000000               0.000000000               0.000000000               0.000243834               0.001828024              -0.000119825              -0.000137065               0.000655024               0.000517959               0.000000000               0.000000000               0.000000000               0.000000000               0.000218719               0.001825416              -0.000099593              -0.000146157               0.000657185               0.000511028               0.000000000               0.000000000               0.000000000               0.000000000               0.000193506               0.001834232              -0.000079188              -0.000156714               0.000663642               0.000506928               0.000000000               0.000000000               0.000000000               0.000000000               0.000168465               0.001848168              -0.000058007              -0.000167846               0.000671999               0.000504152               0.000000000               0.000000000               0.000000000               0.000000000               0.000144368               0.001857695              -0.000042783              -0.000178074               0.000678583               0.000500510               0.000000000               0.000000000               0.000000000               0.000000000               0.000125095               0.001859772              -0.000036300              -0.000185560               0.000681771               0.000496211               0.000000000               0.000000000               0.000000000               0.000000000               0.000105588               0.001859755              -0.000033503              -0.000192873               0.000684203               0.000491330               0.000000000               0.000000000               0.000000000               0.000000000               0.000080059               0.001865376              -0.000026222              -0.000203149               0.000689502               0.000486353               0.000000000               0.000000000               0.000000000               0.000000000               0.000052483               0.001879547              -0.000013428              -0.000215262               0.000698263               0.000483002               0.000000000               0.000000000               0.000000000               0.000000000               0.000023843               0.001895060              -0.000004956              -0.000227941               0.000707661               0.000479720               0.000000000               0.000000000               0.000000000               0.000000000               0.000013186               0.001908013              -0.000004873              -0.000233556               0.000713850               0.000480294               0.000000000               0.000000000               0.000000000               0.000000000               0.000659526               0.001971895              -0.000907157               0.000000834               0.000657014               0.000657848               0.000000000               0.000000000               0.000000000               0.000000000               0.000457070               0.001857740              -0.000651066              -0.000060817               0.000639512               0.000578696               0.000000000               0.000000000               0.000000000               0.000000000               0.000333661               0.001864670              -0.000392089              -0.000107961               0.000657537               0.000549576               0.000000000               0.000000000               0.000000000               0.000000000               0.000278765               0.001846741              -0.000278663              -0.000126306               0.000657676               0.000531371               0.000000000               0.000000000               0.000000000               0.000000000               0.000246537               0.001830303              -0.000216521              -0.000136336               0.000655540               0.000519204               0.000000000               0.000000000               0.000000000               0.000000000               0.000226491               0.001825167              -0.000176652              -0.000143211               0.000656120               0.000512909               0.000000000               0.000000000               0.000000000               0.000000000               0.000206364               0.001827464              -0.000146264              -0.000151046               0.000659497               0.000508451               0.000000000               0.000000000               0.000000000               0.000000000               0.000182653               0.001839098              -0.000119029              -0.000161392               0.000666824               0.000505432               0.000000000               0.000000000               0.000000000               0.000000000               0.000159318               0.001856057              -0.000091480              -0.000172263               0.000676100               0.000503838               0.000000000               0.000000000               0.000000000               0.000000000               0.000139098               0.001873686              -0.000067723              -0.000182049               0.000685238               0.000503190               0.000000000               0.000000000               0.000000000               0.000000000               0.000121904               0.001881143              -0.000052572              -0.000189428               0.000690184               0.000500756               0.000000000               0.000000000               0.000000000               0.000000000               0.000110291               0.001884634              -0.000044868              -0.000194220               0.000692945               0.000498725               0.000000000               0.000000000               0.000000000               0.000000000               0.000096229               0.001893602              -0.000037105              -0.000200614               0.000698066               0.000497452               0.000000000               0.000000000               0.000000000               0.000000000               0.000074972               0.001914693              -0.000024091              -0.000211222               0.000708632               0.000497410               0.000000000               0.000000000               0.000000000               0.000000000               0.000051330               0.001942186              -0.000010368              -0.000223524               0.000721897               0.000498373               0.000000000               0.000000000               0.000000000               0.000000000               0.000025806               0.001969665              -0.000003699              -0.000236530               0.000735392               0.000498862               0.000000000               0.000000000               0.000000000               0.000000000               0.000016443               0.001990164              -0.000004976              -0.000242604               0.000744249               0.000501645               0.000000000               0.000000000               0.000000000               0.000000000               0.000687348               0.001650051              -0.000872544               0.000051498               0.000532845               0.000584343               0.000000000               0.000000000               0.000000000               0.000000000               0.000460615               0.001651092              -0.000653429              -0.000033657               0.000561577               0.000527920               0.000000000               0.000000000               0.000000000               0.000000000               0.000303977               0.001753147              -0.000423748              -0.000105152               0.000619427               0.000514275               0.000000000               0.000000000               0.000000000               0.000000000               0.000248471               0.001777020              -0.000314557              -0.000128951               0.000635318               0.000506367               0.000000000               0.000000000               0.000000000               0.000000000               0.000221820               0.001790363              -0.000247902              -0.000140613               0.000643653               0.000503040               0.000000000               0.000000000               0.000000000               0.000000000               0.000203861               0.001805930              -0.000200882              -0.000149293               0.000651735               0.000502442               0.000000000               0.000000000               0.000000000               0.000000000               0.000184999               0.001825768              -0.000163521              -0.000158846               0.000661532               0.000502686               0.000000000               0.000000000               0.000000000               0.000000000               0.000161683               0.001851133              -0.000130145              -0.000170760               0.000673958               0.000503198               0.000000000               0.000000000               0.000000000               0.000000000               0.000136611               0.001876872              -0.000098957              -0.000183380               0.000686744               0.000503365               0.000000000               0.000000000               0.000000000               0.000000000               0.000119002               0.001897889              -0.000074132              -0.000192610               0.000696827               0.000504217               0.000000000               0.000000000               0.000000000               0.000000000               0.000109930               0.001914021              -0.000058460              -0.000198028               0.000704010               0.000505982               0.000000000               0.000000000               0.000000000               0.000000000               0.000101340               0.001935630              -0.000047566              -0.000203951               0.000713187               0.000509236               0.000000000               0.000000000               0.000000000               0.000000000               0.000087301               0.001969917              -0.000034654              -0.000213501               0.000727800               0.000514298               0.000000000               0.000000000               0.000000000               0.000000000               0.000067862               0.002014538              -0.000018233              -0.000226368               0.000746962               0.000520594               0.000000000               0.000000000               0.000000000               0.000000000               0.000047419               0.002062776              -0.000005355              -0.000240064               0.000767607               0.000527542               0.000000000               0.000000000               0.000000000               0.000000000               0.000024921               0.002109538              -0.000000667              -0.000254346               0.000787954               0.000533608               0.000000000               0.000000000               0.000000000               0.000000000               0.000015717               0.002141222              -0.000003170              -0.000261758               0.000800986               0.000539228               0.000000000               0.000000000               0.000000000               0.000000000               0.000702209               0.001365182              -0.000804361               0.000092679               0.000424163               0.000516842               0.000000000               0.000000000               0.000000000               0.000000000               0.000467943               0.001462684              -0.000641222              -0.000007358               0.000490009               0.000482651               0.000000000               0.000000000               0.000000000               0.000000000               0.000293499               0.001647234              -0.000456459              -0.000095842               0.000581020               0.000485178               0.000000000               0.000000000               0.000000000               0.000000000               0.000241025               0.001714491              -0.000350740              -0.000123927               0.000612800               0.000488873               0.000000000               0.000000000               0.000000000               0.000000000               0.000221301               0.001755720              -0.000278828              -0.000136477               0.000630726               0.000494249               0.000000000               0.000000000               0.000000000               0.000000000               0.000203944               0.001786802              -0.000223252              -0.000146871               0.000644551               0.000497681               0.000000000               0.000000000               0.000000000               0.000000000               0.000183685               0.001820964              -0.000178595              -0.000158738               0.000659895               0.000501156               0.000000000               0.000000000               0.000000000               0.000000000               0.000159753               0.001859934              -0.000141468              -0.000172584               0.000677500               0.000504916               0.000000000               0.000000000               0.000000000               0.000000000               0.000136643               0.001896510              -0.000111492              -0.000185822               0.000694104               0.000508282               0.000000000               0.000000000               0.000000000               0.000000000               0.000122518               0.001925739              -0.000085168              -0.000194773               0.000706831               0.000512058               0.000000000               0.000000000               0.000000000               0.000000000               0.000117778               0.001954967              -0.000062919              -0.000200204               0.000718384               0.000518180               0.000000000               0.000000000               0.000000000               0.000000000               0.000109693               0.001995401              -0.000044952              -0.000208290               0.000734557               0.000526267               0.000000000               0.000000000               0.000000000               0.000000000               0.000093949               0.002053179              -0.000028101              -0.000221416               0.000758191               0.000536776               0.000000000               0.000000000               0.000000000               0.000000000               0.000074800               0.002122383              -0.000009851              -0.000237247               0.000786536               0.000549289               0.000000000               0.000000000               0.000000000               0.000000000               0.000059041               0.002194693               0.000003053              -0.000252195               0.000815622               0.000563427               0.000000000               0.000000000               0.000000000               0.000000000               0.000046683               0.002261880               0.000006950              -0.000265228               0.000842362               0.000577134               0.000000000               0.000000000               0.000000000               0.000000000               0.000040907               0.002300480               0.000005261              -0.000272219               0.000857559               0.000585340               0.000000000               0.000000000               0.000000000               0.000000000               0.000695376               0.001086025              -0.000719389               0.000125011               0.000320334               0.000445345               0.000000000               0.000000000               0.000000000               0.000000000               0.000483324               0.001240622              -0.000622810               0.000026168               0.000404814               0.000430981               0.000000000               0.000000000               0.000000000               0.000000000               0.000309690               0.001488585              -0.000496248              -0.000069940               0.000519503               0.000449564               0.000000000               0.000000000               0.000000000               0.000000000               0.000254962               0.001602502              -0.000398068              -0.000104702               0.000569063               0.000464361               0.000000000               0.000000000               0.000000000               0.000000000               0.000234354               0.001668907              -0.000321785              -0.000120730               0.000596540               0.000475810               0.000000000               0.000000000               0.000000000               0.000000000               0.000219206               0.001717980              -0.000258639              -0.000132545               0.000616836               0.000484291               0.000000000               0.000000000               0.000000000               0.000000000               0.000200706               0.001766925              -0.000207950              -0.000145601               0.000637503               0.000491902               0.000000000               0.000000000               0.000000000               0.000000000               0.000179326               0.001816915              -0.000168760              -0.000159867               0.000658921               0.000499054               0.000000000               0.000000000               0.000000000               0.000000000               0.000157929               0.001865077              -0.000138480              -0.000173911               0.000679657               0.000505746               0.000000000               0.000000000               0.000000000               0.000000000               0.000143008               0.001911926              -0.000109745              -0.000185362               0.000699090               0.000513728               0.000000000               0.000000000               0.000000000               0.000000000               0.000133265               0.001952443              -0.000081038              -0.000194080               0.000715501               0.000521421               0.000000000               0.000000000               0.000000000               0.000000000               0.000126299               0.002001000              -0.000055507              -0.000202762               0.000734581               0.000531818               0.000000000               0.000000000               0.000000000               0.000000000               0.000115388               0.002065713              -0.000031904              -0.000214943               0.000760212               0.000545269               0.000000000               0.000000000               0.000000000               0.000000000               0.000103432               0.002148283              -0.000012963              -0.000229748               0.000792670               0.000562922               0.000000000               0.000000000               0.000000000               0.000000000               0.000094815               0.002239806              -0.000002273              -0.000244419               0.000828067               0.000583648               0.000000000               0.000000000               0.000000000               0.000000000               0.000091976               0.002329504               0.000000918              -0.000256696               0.000862059               0.000605363               0.000000000               0.000000000               0.000000000               0.000000000               0.000088166               0.002373028               0.000002541              -0.000263566               0.000878857               0.000615291               0.000000000               0.000000000               0.000000000               0.000000000               0.000657857               0.000817833              -0.000618601               0.000144465               0.000224453               0.000368918               0.000000000               0.000000000               0.000000000               0.000000000               0.000499847               0.001017421              -0.000589280               0.000060264               0.000319049               0.000379313               0.000000000               0.000000000               0.000000000               0.000000000               0.000345489               0.001310604              -0.000524619              -0.000034268               0.000448286               0.000414019               0.000000000               0.000000000               0.000000000               0.000000000               0.000286833               0.001464467              -0.000442128              -0.000075496               0.000513316               0.000437820               0.000000000               0.000000000               0.000000000               0.000000000               0.000260630               0.001558394              -0.000367032              -0.000097063               0.000551814               0.000454751               0.000000000               0.000000000               0.000000000               0.000000000               0.000246088               0.001631169              -0.000300178              -0.000111613               0.000580922               0.000469309               0.000000000               0.000000000               0.000000000               0.000000000               0.000231173               0.001697983              -0.000245067              -0.000125558               0.000607841               0.000482284               0.000000000               0.000000000               0.000000000               0.000000000               0.000212057               0.001760103              -0.000203445              -0.000140491               0.000633526               0.000493034               0.000000000               0.000000000               0.000000000               0.000000000               0.000190092               0.001819158              -0.000171318              -0.000156110               0.000658417               0.000502307               0.000000000               0.000000000               0.000000000               0.000000000               0.000170882               0.001875826              -0.000140063              -0.000170397               0.000682068               0.000511671               0.000000000               0.000000000               0.000000000               0.000000000               0.000158115               0.001927919              -0.000106952              -0.000181696               0.000703199               0.000521502               0.000000000               0.000000000               0.000000000               0.000000000               0.000151021               0.001984345              -0.000074978              -0.000191410               0.000725245               0.000533835               0.000000000               0.000000000               0.000000000               0.000000000               0.000147430               0.002049610              -0.000047249              -0.000200914               0.000750168               0.000549254               0.000000000               0.000000000               0.000000000               0.000000000               0.000146931               0.002130333              -0.000028163              -0.000211192               0.000780501               0.000569309               0.000000000               0.000000000               0.000000000               0.000000000               0.000145945               0.002223159              -0.000016214              -0.000223165               0.000815434               0.000592269               0.000000000               0.000000000               0.000000000               0.000000000               0.000144127               0.002322891              -0.000007974              -0.000236313               0.000853060               0.000616747               0.000000000               0.000000000               0.000000000               0.000000000               0.000134441               0.002366983              -0.000000295              -0.000245457               0.000870805               0.000625348               0.000000000               0.000000000               0.000000000               0.000000000               0.000591412               0.000578488              -0.000501866               0.000149467               0.000143005               0.000292472               0.000000000               0.000000000               0.000000000               0.000000000               0.000504051               0.000803329              -0.000530481               0.000088602               0.000238240               0.000326841               0.000000000               0.000000000               0.000000000               0.000000000               0.000387778               0.001112522              -0.000522017               0.000006351               0.000368720               0.000375071               0.000000000               0.000000000               0.000000000               0.000000000               0.000331260               0.001297367              -0.000461980              -0.000037949               0.000445101               0.000407152               0.000000000               0.000000000               0.000000000               0.000000000               0.000300037               0.001422155              -0.000394798              -0.000065256               0.000495799               0.000430543               0.000000000               0.000000000               0.000000000               0.000000000               0.000281645               0.001519515              -0.000330062              -0.000084323               0.000534607               0.000450285               0.000000000               0.000000000               0.000000000               0.000000000               0.000266869               0.001607241              -0.000274382              -0.000100829               0.000569351               0.000468522               0.000000000               0.000000000               0.000000000               0.000000000               0.000249510               0.001686803              -0.000230671              -0.000117284               0.000601357               0.000484073               0.000000000               0.000000000               0.000000000               0.000000000               0.000226978               0.001756672              -0.000196769              -0.000134467               0.000630374               0.000495907               0.000000000               0.000000000               0.000000000               0.000000000               0.000202656               0.001819523              -0.000165156              -0.000151444               0.000656983               0.000505539               0.000000000               0.000000000               0.000000000               0.000000000               0.000186900               0.001883104              -0.000132336              -0.000165300               0.000682795               0.000517495               0.000000000               0.000000000               0.000000000               0.000000000               0.000181943               0.001949640              -0.000099787              -0.000175476               0.000708366               0.000532890               0.000000000               0.000000000               0.000000000               0.000000000               0.000184423               0.002024350              -0.000071810              -0.000183885               0.000736071               0.000552187               0.000000000               0.000000000               0.000000000               0.000000000               0.000190928               0.002112420              -0.000050739              -0.000192454               0.000768284               0.000575830               0.000000000               0.000000000               0.000000000               0.000000000               0.000196072               0.002209804              -0.000035540              -0.000202698               0.000804160               0.000601462               0.000000000               0.000000000               0.000000000               0.000000000               0.000193100               0.002313777              -0.000019647              -0.000216809               0.000843521               0.000626712               0.000000000               0.000000000               0.000000000               0.000000000               0.000177726               0.002358801              -0.000006180              -0.000228202               0.000862326               0.000634124               0.000000000               0.000000000               0.000000000               0.000000000               0.000502358               0.000384568              -0.000379286               0.000140312               0.000081417               0.000221729               0.000000000               0.000000000               0.000000000               0.000000000               0.000495336               0.000606776              -0.000448548               0.000109902               0.000165622               0.000275525               0.000000000               0.000000000               0.000000000               0.000000000               0.000433280               0.000907495              -0.000483605               0.000049042               0.000286148               0.000335190               0.000000000               0.000000000               0.000000000               0.000000000               0.000386825               0.001115240              -0.000447182               0.000005654               0.000369858               0.000375512               0.000000000               0.000000000               0.000000000               0.000000000               0.000352019               0.001266234              -0.000393324              -0.000026273               0.000430831               0.000404559               0.000000000               0.000000000               0.000000000               0.000000000               0.000329037               0.001387630              -0.000335890              -0.000050065               0.000479227               0.000429162               0.000000000               0.000000000               0.000000000               0.000000000               0.000310314               0.001495115              -0.000284088              -0.000070522               0.000521874               0.000451352               0.000000000               0.000000000               0.000000000               0.000000000               0.000292241               0.001591022              -0.000241709              -0.000089287               0.000560098               0.000470811               0.000000000               0.000000000               0.000000000               0.000000000               0.000270875               0.001672618              -0.000207372              -0.000107499               0.000593367               0.000485868               0.000000000               0.000000000               0.000000000               0.000000000               0.000248539               0.001743619              -0.000177876              -0.000124750               0.000622784               0.000498034               0.000000000               0.000000000               0.000000000               0.000000000               0.000230384               0.001816151              -0.000150277              -0.000140624               0.000652252               0.000511628               0.000000000               0.000000000               0.000000000               0.000000000               0.000222969               0.001896561              -0.000121887              -0.000153457               0.000683333               0.000529876               0.000000000               0.000000000               0.000000000               0.000000000               0.000226913               0.001990334              -0.000094774              -0.000163699               0.000718004               0.000554305               0.000000000               0.000000000               0.000000000               0.000000000               0.000236759               0.002096092              -0.000073477              -0.000173226               0.000756432               0.000583206               0.000000000               0.000000000               0.000000000               0.000000000               0.000246476               0.002207892              -0.000053658              -0.000183558               0.000797143               0.000613585               0.000000000               0.000000000               0.000000000               0.000000000               0.000247633               0.002319051              -0.000028735              -0.000197018               0.000838682               0.000641664               0.000000000               0.000000000               0.000000000               0.000000000               0.000234153               0.002366679              -0.000011463              -0.000208027               0.000858227               0.000650200               0.000000000               0.000000000               0.000000000               0.000000000               0.000406366               0.000241068              -0.000262951               0.000122252               0.000039604               0.000161857               0.000000000               0.000000000               0.000000000               0.000000000               0.000477847               0.000440379              -0.000348661               0.000124144               0.000105410               0.000229554               0.000000000               0.000000000               0.000000000               0.000000000               0.000477168               0.000716241              -0.000407415               0.000089407               0.000208942               0.000298349               0.000000000               0.000000000               0.000000000               0.000000000               0.000447121               0.000934844              -0.000391081               0.000050814               0.000294673               0.000345488               0.000000000               0.000000000               0.000000000               0.000000000               0.000412620               0.001105989              -0.000352283               0.000016483               0.000363165               0.000379648               0.000000000               0.000000000               0.000000000               0.000000000               0.000383040               0.001247376              -0.000306627              -0.000012282               0.000419882               0.000407600               0.000000000               0.000000000               0.000000000               0.000000000               0.000361177               0.001371182              -0.000263136              -0.000035956               0.000469042               0.000433085               0.000000000               0.000000000               0.000000000               0.000000000               0.000339364               0.001477837              -0.000226739              -0.000057468               0.000511764               0.000454295               0.000000000               0.000000000               0.000000000               0.000000000               0.000319471               0.001570820              -0.000196976              -0.000076551               0.000549118               0.000472567               0.000000000               0.000000000               0.000000000               0.000000000               0.000300246               0.001656952              -0.000171387              -0.000094526               0.000583820               0.000489294               0.000000000               0.000000000               0.000000000               0.000000000               0.000283130               0.001745448              -0.000147905              -0.000112007               0.000619146               0.000507139               0.000000000               0.000000000               0.000000000               0.000000000               0.000271571               0.001843827              -0.000127373              -0.000128639               0.000657482               0.000528843               0.000000000               0.000000000               0.000000000               0.000000000               0.000275480               0.001956294              -0.000108149              -0.000141232               0.000699169               0.000557937               0.000000000               0.000000000               0.000000000               0.000000000               0.000288742               0.002080071              -0.000088272              -0.000151730               0.000743927               0.000592196               0.000000000               0.000000000               0.000000000               0.000000000               0.000300800               0.002207129              -0.000065678              -0.000163091               0.000790066               0.000626975               0.000000000               0.000000000               0.000000000               0.000000000               0.000307786               0.002325527              -0.000035995              -0.000175271               0.000833591               0.000658321               0.000000000               0.000000000               0.000000000               0.000000000               0.000301860               0.002376448              -0.000016942              -0.000183858               0.000853427               0.000669569               0.000000000               0.000000000               0.000000000               0.000000000               0.000319237               0.000146817              -0.000162013               0.000101361               0.000015151               0.000116512               0.000000000               0.000000000               0.000000000               0.000000000               0.000457399               0.000315587              -0.000237711               0.000132075               0.000061170               0.000193244               0.000000000               0.000000000               0.000000000               0.000000000               0.000513854               0.000558797              -0.000295327               0.000122844               0.000145316               0.000268160               0.000000000               0.000000000               0.000000000               0.000000000               0.000500992               0.000777658              -0.000291820               0.000090664               0.000228995               0.000319659               0.000000000               0.000000000               0.000000000               0.000000000               0.000469499               0.000963598              -0.000267288               0.000055612               0.000302659               0.000358271               0.000000000               0.000000000               0.000000000               0.000000000               0.000436204               0.001119751              -0.000236362               0.000023607               0.000365377               0.000388985               0.000000000               0.000000000               0.000000000               0.000000000               0.000409068               0.001254695              -0.000205376              -0.000003437               0.000419373               0.000415936               0.000000000               0.000000000               0.000000000               0.000000000               0.000384632               0.001368955              -0.000179538              -0.000026883               0.000465275               0.000438392               0.000000000               0.000000000               0.000000000               0.000000000               0.000362779               0.001471549              -0.000158308              -0.000047901               0.000506479               0.000458577               0.000000000               0.000000000               0.000000000               0.000000000               0.000344578               0.001576317              -0.000137821              -0.000067823               0.000548041               0.000480219               0.000000000               0.000000000               0.000000000               0.000000000               0.000329769               0.001685378              -0.000119550              -0.000087009               0.000590790               0.000503781               0.000000000               0.000000000               0.000000000               0.000000000               0.000323849               0.001802027              -0.000108034              -0.000103810               0.000635273               0.000531463               0.000000000               0.000000000               0.000000000               0.000000000               0.000326823               0.001928050              -0.000099635              -0.000118447               0.000682159               0.000563712               0.000000000               0.000000000               0.000000000               0.000000000               0.000339862               0.002062705              -0.000085370              -0.000130389               0.000731024               0.000600635               0.000000000               0.000000000               0.000000000               0.000000000               0.000357066               0.002199296              -0.000063234              -0.000141012               0.000780095               0.000639083               0.000000000               0.000000000               0.000000000               0.000000000               0.000370737               0.002323690              -0.000034928              -0.000151434               0.000825034               0.000673599               0.000000000               0.000000000               0.000000000               0.000000000               0.000372628               0.002378043              -0.000018473              -0.000157519               0.000845179               0.000687660               0.000000000               0.000000000               0.000000000               0.000000000               0.000257117               0.000091011              -0.000076251               0.000085042               0.000001989               0.000087031               0.000000000               0.000000000               0.000000000               0.000000000               0.000441250               0.000235928              -0.000119908               0.000135976               0.000033316               0.000169293               0.000000000               0.000000000               0.000000000               0.000000000               0.000536675               0.000454085              -0.000154711               0.000144491               0.000103197               0.000247688               0.000000000               0.000000000               0.000000000               0.000000000               0.000539111               0.000670860              -0.000156274               0.000118308               0.000184182               0.000302490               0.000000000               0.000000000               0.000000000               0.000000000               0.000510157               0.000863573              -0.000144942               0.000083362               0.000260068               0.000343429               0.000000000               0.000000000               0.000000000               0.000000000               0.000476167               0.001029646              -0.000129039               0.000049856               0.000326593               0.000376450               0.000000000               0.000000000               0.000000000               0.000000000               0.000444264               0.001170735              -0.000113374               0.000020257               0.000383489               0.000403746               0.000000000               0.000000000               0.000000000               0.000000000               0.000416600               0.001290370              -0.000099954              -0.000005071               0.000431809               0.000426738               0.000000000               0.000000000               0.000000000               0.000000000               0.000391619               0.001401464              -0.000089224              -0.000028326               0.000476592               0.000448266               0.000000000               0.000000000               0.000000000               0.000000000               0.000374472               0.001517253              -0.000076903              -0.000049230               0.000522156               0.000472926               0.000000000               0.000000000               0.000000000               0.000000000               0.000366002               0.001640424              -0.000067193              -0.000067802               0.000569403               0.000501601               0.000000000               0.000000000               0.000000000               0.000000000               0.000366354               0.001773420              -0.000063378              -0.000084294               0.000619232               0.000534938               0.000000000               0.000000000               0.000000000               0.000000000               0.000370518               0.001913830              -0.000060555              -0.000100284               0.000671365               0.000571081               0.000000000               0.000000000               0.000000000               0.000000000               0.000378535               0.002051731              -0.000055108              -0.000114515               0.000722075               0.000607560               0.000000000               0.000000000               0.000000000               0.000000000               0.000393977               0.002181716              -0.000040295              -0.000124973               0.000768889               0.000643916               0.000000000               0.000000000               0.000000000               0.000000000               0.000419334               0.002306976              -0.000019071              -0.000131121               0.000812691               0.000681570               0.000000000               0.000000000               0.000000000               0.000000000               0.000434913               0.002367603              -0.000008122              -0.000132858               0.000833479               0.000700621               0.000000000               0.000000000               0.000000000               0.000000000               0.000000000               0.000000000               0.000000000               0.000000000               0.000000000               0.000000000               0.000000000               0.000000000               0.000000000               0.000000000               0.000000000               0.000000000               0.000000000               0.000000000               0.000000000               0.000000000               0.000000000               0.000000000               0.000000000               0.000000000               0.000000000               0.000000000               0.000000000               0.000000000               0.000000000               0.000000000               0.000000000               0.000000000               0.000000000               0.000000000               0.000000000               0.000000000               0.000000000               0.000000000               0.000000000               0.000000000               0.000000000               0.000000000               0.000000000               0.000000000               0.000000000               0.000000000               0.000000000               0.000000000               0.000000000               0.000000000               0.000000000               0.000000000               0.000000000               0.000000000               0.000000000               0.000000000               0.000000000               0.000000000               0.000000000               0.000000000               0.000000000               0.000000000               0.000000000               0.000000000               0.000000000               0.000000000               0.000000000               0.000000000               0.000000000               0.000000000               0.000000000               0.000000000               0.000000000               0.000000000               0.000000000               0.000000000               0.000000000               0.000000000               0.000000000               0.000000000               0.000000000               0.000000000               0.000000000               0.000000000               0.000000000               0.000000000               0.000000000               0.000000000               0.000000000               0.000000000               0.000000000               0.000000000               0.000000000               0.000000000               0.000000000               0.000000000               0.000000000               0.000000000               0.000000000               0.000000000               0.000000000               0.000000000               0.000000000               0.000000000               0.000000000               0.000000000               0.000000000               0.000000000               0.000000000               0.000000000               0.000000000               0.000000000               0.000000000               0.000000000               0.000000000               0.000000000               0.000000000               0.000000000               0.000000000               0.000000000               0.000000000               0.000000000               0.000000000               0.000000000               0.000000000               0.000000000               0.000000000               0.000000000               0.000000000               0.000000000               0.000000000               0.000000000               0.000000000               0.000000000               0.000000000               0.000000000               0.000000000               0.000000000               0.000000000               0.000000000               0.000000000               0.000000000               0.000000000               0.000000000               0.000000000               0.000000000               0.000000000               0.000000000               0.000000000               0.000000000               0.000000000               0.000000000               0.000000000               0.000000000               0.000000000               0.000000000               0.000000000               0.000000000               0.000000000               0.000000000               0.000000000               0.000000000               0.000000000               0.000000000               0.000000000               0.000000000               0.000000000               0.000000000               0.000000000               0.000000000               0.000000000               0.000000000               0.000000000               0.000000000               0.000000000               0.000000000               0.000000000               0.000000000               0.000000000               0.000000000               0.000000000               0.000000000               0.000000000               0.000000000               0.000000000               0.000000000               0.000000000               0.000000000               0.000000000               0.000000000               0.000000000               0.000000000               0.000000000               0.000000000               0.000000000               0.000000000               0.000000000               0.000000000               0.000000000               0.000000000               0.000000000               0.000000000               0.000000000               0.000000000               0.000000000               0.000000000               0.000000000               0.000000000               0.000000000               0.000000000               0.000000000               0.000000000               0.000000000               0.000000000               0.000000000               0.000000000               0.000000000               0.000000000               0.000000000               0.000000000               0.000000000               0.000000000               0.000000000               0.000000000               0.000000000               0.000000000               0.000000000               0.000000000               0.000000000               0.000000000               0.000000000               0.000000000               0.000000000               0.000000000               0.000000000               0.000000000               0.000000000               0.000000000               0.000000000               0.000000000               0.000000000               0.000000000               0.000000000               0.000000000               0.000000000               0.000000000               0.000000000               0.000000000               0.000000000               0.000000000               0.000000000               0.000000000               0.000000000               0.000000000               0.000000000               0.000000000               0.000000000               0.000000000               0.000000000               0.000000000               0.000000000               0.000000000               0.000000000               0.000000000               0.000000000               0.000000000               0.000000000               0.000000000               0.000000000               0.000000000               0.000000000               0.000000000               0.000000000               0.000000000               0.000000000               0.000000000               0.000000000               0.000000000               0.000000000               0.000000000               0.000000000               0.000000000               0.000000000               0.000000000               0.000000000               0.000000000               0.000000000               0.000000000               0.000000000               0.000000000               0.000000000               0.000000000               0.000000000               0.000000000               0.000000000               0.000000000               0.000000000               0.000000000               0.000000000               0.000000000               0.000000000               0.000000000               0.000000000               0.000000000               0.000000000               0.000000000               0.000000000               0.000000000               0.000000000               0.000000000               0.000000000               0.000000000               0.000000000               0.000000000               0.000000000               0.000000000               0.000000000               0.000000000               0.000000000               0.000000000               0.000000000               0.000000000               0.000000000               0.000000000               0.000000000               0.000000000               0.000000000               0.000000000               0.000000000               0.000000000               0.000000000               0.000000000               0.000000000               0.000000000               0.000000000               0.000000000               0.000000000               0.000000000               0.000000000               0.000000000               0.000000000               0.000000000               0.000000000               0.000000000               0.000318939               0.003296231               0.000263267              -0.000292426               0.001196208               0.000903782               0.000000000               0.000000000               0.000000000               0.000000000               0.000356757               0.002757188               0.000178896              -0.000210864               0.000989342               0.000778477               0.000000000               0.000000000               0.000000000               0.000000000               0.000499930               0.002323141               0.000090660              -0.000102919               0.000808679               0.000705760               0.000000000               0.000000000               0.000000000               0.000000000               0.000536742               0.002082153               0.000048187              -0.000058991               0.000713708               0.000654717               0.000000000               0.000000000               0.000000000               0.000000000               0.000526080               0.001941981               0.000027034              -0.000045467               0.000662476               0.000617009               0.000000000               0.000000000               0.000000000               0.000000000               0.000495683               0.001861528               0.000016840              -0.000046810               0.000636106               0.000589297               0.000000000               0.000000000               0.000000000               0.000000000               0.000452938               0.001815974               0.000012147              -0.000057145               0.000624367               0.000567222               0.000000000               0.000000000               0.000000000               0.000000000               0.000405297               0.001793640               0.000010183              -0.000072219               0.000621947               0.000549728               0.000000000               0.000000000               0.000000000               0.000000000               0.000357218               0.001786584               0.000008931              -0.000089366               0.000625311               0.000535945               0.000000000               0.000000000               0.000000000               0.000000000               0.000307348               0.001792767               0.000007277              -0.000108840               0.000633863               0.000525023               0.000000000               0.000000000               0.000000000               0.000000000               0.000256681               0.001809016               0.000004342              -0.000129871               0.000646290               0.000516418               0.000000000               0.000000000               0.000000000               0.000000000               0.000206268               0.001833964               0.000003630              -0.000151895               0.000661947               0.000510052               0.000000000               0.000000000               0.000000000               0.000000000               0.000157040               0.001861865               0.000006118              -0.000173843               0.000678563               0.000504720               0.000000000               0.000000000               0.000000000               0.000000000               0.000113191               0.001889369               0.000009756              -0.000193724               0.000694358               0.000500634               0.000000000               0.000000000               0.000000000               0.000000000               0.000074202               0.001916423               0.000009487              -0.000211726               0.000709377               0.000497650               0.000000000               0.000000000               0.000000000               0.000000000               0.000036687               0.001947981               0.000003660              -0.000229739               0.000725900               0.000496161               0.000000000               0.000000000               0.000000000               0.000000000               0.000021617               0.001975166               0.000000970              -0.000238789               0.000737978               0.000499190               0.000000000               0.000000000               0.000000000               0.000000000               0.000375272               0.003149338               0.000500936              -0.000252940               0.001134082               0.000881142               0.000000000               0.000000000               0.000000000               0.000000000               0.000378477               0.002652055               0.000339794              -0.000189578               0.000947202               0.000757624               0.000000000               0.000000000               0.000000000               0.000000000               0.000482167               0.002267060               0.000173245              -0.000102570               0.000789869               0.000687299               0.000000000               0.000000000               0.000000000               0.000000000               0.000500343               0.002055346               0.000095835              -0.000069289               0.000708205               0.000638915               0.000000000               0.000000000               0.000000000               0.000000000               0.000483713               0.001932371               0.000057770              -0.000060154               0.000664169               0.000604015               0.000000000               0.000000000               0.000000000               0.000000000               0.000452402               0.001860825               0.000039106              -0.000062952               0.000641253               0.000578301               0.000000000               0.000000000               0.000000000               0.000000000               0.000412478               0.001819865               0.000030124              -0.000072804               0.000630883               0.000558080               0.000000000               0.000000000               0.000000000               0.000000000               0.000369617               0.001798259               0.000025998              -0.000086176               0.000628139               0.000541963               0.000000000               0.000000000               0.000000000               0.000000000               0.000326854               0.001792926               0.000022594              -0.000101545               0.000631485               0.000529939               0.000000000               0.000000000               0.000000000               0.000000000               0.000280254               0.001798812               0.000017973              -0.000119756               0.000639516               0.000519761               0.000000000               0.000000000               0.000000000               0.000000000               0.000232352               0.001814486               0.000012583              -0.000139678               0.000651382               0.000511704               0.000000000               0.000000000               0.000000000               0.000000000               0.000187056               0.001835939               0.000009973              -0.000159346               0.000665089               0.000505743               0.000000000               0.000000000               0.000000000               0.000000000               0.000144516               0.001858151               0.000013642              -0.000178075               0.000678736               0.000500661               0.000000000               0.000000000               0.000000000               0.000000000               0.000105057               0.001878114               0.000020015              -0.000195367               0.000691154               0.000495787               0.000000000               0.000000000               0.000000000               0.000000000               0.000068206               0.001898417               0.000018311              -0.000211724               0.000703374               0.000491650               0.000000000               0.000000000               0.000000000               0.000000000               0.000032905               0.001922198               0.000006793              -0.000227935               0.000716705               0.000488770               0.000000000               0.000000000               0.000000000               0.000000000               0.000018281               0.001941277               0.000001110              -0.000235804               0.000725687               0.000489884               0.000000000               0.000000000               0.000000000               0.000000000               0.000453633               0.002919823               0.000691269              -0.000194866               0.001038220               0.000843354               0.000000000               0.000000000               0.000000000               0.000000000               0.000405475               0.002491184               0.000470136              -0.000159345               0.000883501               0.000724157               0.000000000               0.000000000               0.000000000               0.000000000               0.000452685               0.002184823               0.000244843              -0.000103346               0.000762716               0.000659370               0.000000000               0.000000000               0.000000000               0.000000000               0.000446352               0.002015194               0.000143044              -0.000084517               0.000699897               0.000615380               0.000000000               0.000000000               0.000000000               0.000000000               0.000421942               0.001917134               0.000094096              -0.000081413               0.000666176               0.000584763               0.000000000               0.000000000               0.000000000               0.000000000               0.000390799               0.001857882               0.000068913              -0.000085685               0.000647850               0.000562164               0.000000000               0.000000000               0.000000000               0.000000000               0.000356537               0.001823625               0.000056278              -0.000094252               0.000639286               0.000545035               0.000000000               0.000000000               0.000000000               0.000000000               0.000320721               0.001806052               0.000048492              -0.000105486               0.000637173               0.000531687               0.000000000               0.000000000               0.000000000               0.000000000               0.000284458               0.001803103               0.000041292              -0.000118716               0.000640600               0.000521885               0.000000000               0.000000000               0.000000000               0.000000000               0.000243819               0.001809439               0.000032416              -0.000134747               0.000648056               0.000513309               0.000000000               0.000000000               0.000000000               0.000000000               0.000202799               0.001824165               0.000022900              -0.000151971               0.000658706               0.000506735               0.000000000               0.000000000               0.000000000               0.000000000               0.000164123               0.001839469               0.000019122              -0.000168387               0.000669279               0.000500892               0.000000000               0.000000000               0.000000000               0.000000000               0.000127927               0.001851921               0.000022725              -0.000183517               0.000678473               0.000494956               0.000000000               0.000000000               0.000000000               0.000000000               0.000094774               0.001863335               0.000027543              -0.000197376               0.000686898               0.000489521               0.000000000               0.000000000               0.000000000               0.000000000               0.000062318               0.001876448               0.000021483              -0.000211186               0.000695872               0.000484685               0.000000000               0.000000000               0.000000000               0.000000000               0.000029649               0.001888434               0.000007425              -0.000224935               0.000704450               0.000479515               0.000000000               0.000000000               0.000000000               0.000000000               0.000015166               0.001896094               0.000001678              -0.000231324               0.000709133               0.000477809               0.000000000               0.000000000               0.000000000               0.000000000               0.000535464               0.002629382               0.000823050              -0.000127874               0.000919076               0.000791202               0.000000000               0.000000000               0.000000000               0.000000000               0.000429578               0.002292805               0.000564237              -0.000125509               0.000806097               0.000680588               0.000000000               0.000000000               0.000000000               0.000000000               0.000413776               0.002084248               0.000304192              -0.000105365               0.000729864               0.000624499               0.000000000               0.000000000               0.000000000               0.000000000               0.000383748               0.001965783               0.000190006              -0.000101817               0.000689193               0.000587376               0.000000000               0.000000000               0.000000000               0.000000000               0.000354582               0.001896586               0.000134895              -0.000104105               0.000666891               0.000562786               0.000000000               0.000000000               0.000000000               0.000000000               0.000326106               0.001853589               0.000105490              -0.000109409               0.000654326               0.000544918               0.000000000               0.000000000               0.000000000               0.000000000               0.000296502               0.001827683               0.000087886              -0.000117272               0.000648312               0.000531040               0.000000000               0.000000000               0.000000000               0.000000000               0.000266743               0.001815171               0.000074590              -0.000126867               0.000647340               0.000520473               0.000000000               0.000000000               0.000000000               0.000000000               0.000236629               0.001815239               0.000061389              -0.000138169               0.000651130               0.000512961               0.000000000               0.000000000               0.000000000               0.000000000               0.000204048               0.001824930               0.000046342              -0.000151598               0.000658837               0.000507239               0.000000000               0.000000000               0.000000000               0.000000000               0.000171995               0.001838029               0.000033361              -0.000165255               0.000667755               0.000502500               0.000000000               0.000000000               0.000000000               0.000000000               0.000142447               0.001846224               0.000028184              -0.000177360               0.000674522               0.000497162               0.000000000               0.000000000               0.000000000               0.000000000               0.000114068               0.001850380               0.000029140              -0.000188521               0.000679628               0.000491106               0.000000000               0.000000000               0.000000000               0.000000000               0.000085316               0.001854531               0.000028240              -0.000199823               0.000684778               0.000484956               0.000000000               0.000000000               0.000000000               0.000000000               0.000055448               0.001863735               0.000018776              -0.000212173               0.000691963               0.000479790               0.000000000               0.000000000               0.000000000               0.000000000               0.000024841               0.001871408               0.000007171              -0.000224610               0.000698666               0.000474056               0.000000000               0.000000000               0.000000000               0.000000000               0.000012014               0.001876933               0.000003955              -0.000230111               0.000702342               0.000472231               0.000000000               0.000000000               0.000000000               0.000000000               0.000607961               0.002304570               0.000893579              -0.000060087               0.000788211               0.000728124               0.000000000               0.000000000               0.000000000               0.000000000               0.000446648               0.002075518               0.000623085              -0.000091947               0.000722481               0.000630534               0.000000000               0.000000000               0.000000000               0.000000000               0.000371863               0.001975139               0.000352638              -0.000107444               0.000694188               0.000586744               0.000000000               0.000000000               0.000000000               0.000000000               0.000325675               0.001910314               0.000235908              -0.000116661               0.000675652               0.000558991               0.000000000               0.000000000               0.000000000               0.000000000               0.000292725               0.001867679               0.000177310              -0.000123688               0.000663783               0.000540095               0.000000000               0.000000000               0.000000000               0.000000000               0.000267705               0.001842154               0.000143399              -0.000129879               0.000657338               0.000527459               0.000000000               0.000000000               0.000000000               0.000000000               0.000243834               0.001828024               0.000119825              -0.000137065               0.000655024               0.000517959               0.000000000               0.000000000               0.000000000               0.000000000               0.000218719               0.001825416               0.000099593              -0.000146157               0.000657185               0.000511028               0.000000000               0.000000000               0.000000000               0.000000000               0.000193506               0.001834232               0.000079188              -0.000156714               0.000663642               0.000506928               0.000000000               0.000000000               0.000000000               0.000000000               0.000168465               0.001848168               0.000058007              -0.000167846               0.000671999               0.000504152               0.000000000               0.000000000               0.000000000               0.000000000               0.000144368               0.001857695               0.000042783              -0.000178074               0.000678583               0.000500510               0.000000000               0.000000000               0.000000000               0.000000000               0.000125095               0.001859772               0.000036300              -0.000185560               0.000681771               0.000496211               0.000000000               0.000000000               0.000000000               0.000000000               0.000105588               0.001859755               0.000033503              -0.000192873               0.000684203               0.000491330               0.000000000               0.000000000               0.000000000               0.000000000               0.000080059               0.001865376               0.000026222              -0.000203149               0.000689502               0.000486353               0.000000000               0.000000000               0.000000000               0.000000000               0.000052483               0.001879547               0.000013428              -0.000215262               0.000698263               0.000483002               0.000000000               0.000000000               0.000000000               0.000000000               0.000023843               0.001895060               0.000004956              -0.000227941               0.000707661               0.000479720               0.000000000               0.000000000               0.000000000               0.000000000               0.000013186               0.001908013               0.000004873              -0.000233556               0.000713850               0.000480294               0.000000000               0.000000000               0.000000000               0.000000000               0.000659526               0.001971895               0.000907157               0.000000834               0.000657014               0.000657848               0.000000000               0.000000000               0.000000000               0.000000000               0.000457070               0.001857740               0.000651066              -0.000060817               0.000639512               0.000578696               0.000000000               0.000000000               0.000000000               0.000000000               0.000333661               0.001864670               0.000392089              -0.000107961               0.000657537               0.000549576               0.000000000               0.000000000               0.000000000               0.000000000               0.000278765               0.001846741               0.000278663              -0.000126306               0.000657676               0.000531371               0.000000000               0.000000000               0.000000000               0.000000000               0.000246537               0.001830303               0.000216521              -0.000136336               0.000655540               0.000519204               0.000000000               0.000000000               0.000000000               0.000000000               0.000226491               0.001825167               0.000176652              -0.000143211               0.000656120               0.000512909               0.000000000               0.000000000               0.000000000               0.000000000               0.000206364               0.001827464               0.000146264              -0.000151046               0.000659497               0.000508451               0.000000000               0.000000000               0.000000000               0.000000000               0.000182653               0.001839098               0.000119029              -0.000161392               0.000666824               0.000505432               0.000000000               0.000000000               0.000000000               0.000000000               0.000159318               0.001856057               0.000091480              -0.000172263               0.000676100               0.000503838               0.000000000               0.000000000               0.000000000               0.000000000               0.000139098               0.001873686               0.000067723              -0.000182049               0.000685238               0.000503190               0.000000000               0.000000000               0.000000000               0.000000000               0.000121904               0.001881143               0.000052572              -0.000189428               0.000690184               0.000500756               0.000000000               0.000000000               0.000000000               0.000000000               0.000110291               0.001884634               0.000044868              -0.000194220               0.000692945               0.000498725               0.000000000               0.000000000               0.000000000               0.000000000               0.000096229               0.001893602               0.000037105              -0.000200614               0.000698066               0.000497452               0.000000000               0.000000000               0.000000000               0.000000000               0.000074972               0.001914693               0.000024091              -0.000211222               0.000708632               0.000497410               0.000000000               0.000000000               0.000000000               0.000000000               0.000051330               0.001942186               0.000010368              -0.000223524               0.000721897               0.000498373               0.000000000               0.000000000               0.000000000               0.000000000               0.000025806               0.001969665               0.000003699              -0.000236530               0.000735392               0.000498862               0.000000000               0.000000000               0.000000000               0.000000000               0.000016443               0.001990164               0.000004976              -0.000242604               0.000744249               0.000501645               0.000000000               0.000000000               0.000000000               0.000000000               0.000687348               0.001650051               0.000872544               0.000051498               0.000532845               0.000584343               0.000000000               0.000000000               0.000000000               0.000000000               0.000460615               0.001651092               0.000653429              -0.000033657               0.000561577               0.000527920               0.000000000               0.000000000               0.000000000               0.000000000               0.000303977               0.001753147               0.000423748              -0.000105152               0.000619427               0.000514275               0.000000000               0.000000000               0.000000000               0.000000000               0.000248471               0.001777020               0.000314557              -0.000128951               0.000635318               0.000506367               0.000000000               0.000000000               0.000000000               0.000000000               0.000221820               0.001790363               0.000247902              -0.000140613               0.000643653               0.000503040               0.000000000               0.000000000               0.000000000               0.000000000               0.000203861               0.001805930               0.000200882              -0.000149293               0.000651735               0.000502442               0.000000000               0.000000000               0.000000000               0.000000000               0.000184999               0.001825768               0.000163521              -0.000158846               0.000661532               0.000502686               0.000000000               0.000000000               0.000000000               0.000000000               0.000161683               0.001851133               0.000130145              -0.000170760               0.000673958               0.000503198               0.000000000               0.000000000               0.000000000               0.000000000               0.000136611               0.001876872               0.000098957              -0.000183380               0.000686744               0.000503365               0.000000000               0.000000000               0.000000000               0.000000000               0.000119002               0.001897889               0.000074132              -0.000192610               0.000696827               0.000504217               0.000000000               0.000000000               0.000000000               0.000000000               0.000109930               0.001914021               0.000058460              -0.000198028               0.000704010               0.000505982               0.000000000               0.000000000               0.000000000               0.000000000               0.000101340               0.001935630               0.000047566              -0.000203951               0.000713187               0.000509236               0.000000000               0.000000000               0.000000000               0.000000000               0.000087301               0.001969917               0.000034654              -0.000213501               0.000727800               0.000514298               0.000000000               0.000000000               0.000000000               0.000000000               0.000067862               0.002014538               0.000018233              -0.000226368               0.000746962               0.000520594               0.000000000               0.000000000               0.000000000               0.000000000               0.000047419               0.002062776               0.000005355              -0.000240064               0.000767607               0.000527542               0.000000000               0.000000000               0.000000000               0.000000000               0.000024921               0.002109538               0.000000667              -0.000254346               0.000787954               0.000533608               0.000000000               0.000000000               0.000000000               0.000000000               0.000015717               0.002141222               0.000003170              -0.000261758               0.000800986               0.000539228               0.000000000               0.000000000               0.000000000               0.000000000               0.000702209               0.001365182               0.000804361               0.000092679               0.000424163               0.000516842               0.000000000               0.000000000               0.000000000               0.000000000               0.000467943               0.001462684               0.000641222              -0.000007358               0.000490009               0.000482651               0.000000000               0.000000000               0.000000000               0.000000000               0.000293499               0.001647234               0.000456459              -0.000095842               0.000581020               0.000485178               0.000000000               0.000000000               0.000000000               0.000000000               0.000241025               0.001714491               0.000350740              -0.000123927               0.000612800               0.000488873               0.000000000               0.000000000               0.000000000               0.000000000               0.000221301               0.001755720               0.000278828              -0.000136477               0.000630726               0.000494249               0.000000000               0.000000000               0.000000000               0.000000000               0.000203944               0.001786802               0.000223252              -0.000146871               0.000644551               0.000497681               0.000000000               0.000000000               0.000000000               0.000000000               0.000183685               0.001820964               0.000178595              -0.000158738               0.000659895               0.000501156               0.000000000               0.000000000               0.000000000               0.000000000               0.000159753               0.001859934               0.000141468              -0.000172584               0.000677500               0.000504916               0.000000000               0.000000000               0.000000000               0.000000000               0.000136643               0.001896510               0.000111492              -0.000185822               0.000694104               0.000508282               0.000000000               0.000000000               0.000000000               0.000000000               0.000122518               0.001925739               0.000085168              -0.000194773               0.000706831               0.000512058               0.000000000               0.000000000               0.000000000               0.000000000               0.000117778               0.001954967               0.000062919              -0.000200204               0.000718384               0.000518180               0.000000000               0.000000000               0.000000000               0.000000000               0.000109693               0.001995401               0.000044952              -0.000208290               0.000734557               0.000526267               0.000000000               0.000000000               0.000000000               0.000000000               0.000093949               0.002053179               0.000028101              -0.000221416               0.000758191               0.000536776               0.000000000               0.000000000               0.000000000               0.000000000               0.000074800               0.002122383               0.000009851              -0.000237247               0.000786536               0.000549289               0.000000000               0.000000000               0.000000000               0.000000000               0.000059041               0.002194693              -0.000003053              -0.000252195               0.000815622               0.000563427               0.000000000               0.000000000               0.000000000               0.000000000               0.000046683               0.002261880              -0.000006950              -0.000265228               0.000842362               0.000577134               0.000000000               0.000000000               0.000000000               0.000000000               0.000040907               0.002300480              -0.000005261              -0.000272219               0.000857559               0.000585340               0.000000000               0.000000000               0.000000000               0.000000000               0.000695376               0.001086025               0.000719389               0.000125011               0.000320334               0.000445345               0.000000000               0.000000000               0.000000000               0.000000000               0.000483324               0.001240622               0.000622810               0.000026168               0.000404814               0.000430981               0.000000000               0.000000000               0.000000000               0.000000000               0.000309690               0.001488585               0.000496248              -0.000069940               0.000519503               0.000449564               0.000000000               0.000000000               0.000000000               0.000000000               0.000254962               0.001602502               0.000398068              -0.000104702               0.000569063               0.000464361               0.000000000               0.000000000               0.000000000               0.000000000               0.000234354               0.001668907               0.000321785              -0.000120730               0.000596540               0.000475810               0.000000000               0.000000000               0.000000000               0.000000000               0.000219206               0.001717980               0.000258639              -0.000132545               0.000616836               0.000484291               0.000000000               0.000000000               0.000000000               0.000000000               0.000200706               0.001766925               0.000207950              -0.000145601               0.000637503               0.000491902               0.000000000               0.000000000               0.000000000               0.000000000               0.000179326               0.001816915               0.000168760              -0.000159867               0.000658921               0.000499054               0.000000000               0.000000000               0.000000000               0.000000000               0.000157929               0.001865077               0.000138480              -0.000173911               0.000679657               0.000505746               0.000000000               0.000000000               0.000000000               0.000000000               0.000143008               0.001911926               0.000109745              -0.000185362               0.000699090               0.000513728               0.000000000               0.000000000               0.000000000               0.000000000               0.000133265               0.001952443               0.000081038              -0.000194080               0.000715501               0.000521421               0.000000000               0.000000000               0.000000000               0.000000000               0.000126299               0.002001000               0.000055507              -0.000202762               0.000734581               0.000531818               0.000000000               0.000000000               0.000000000               0.000000000               0.000115388               0.002065713               0.000031904              -0.000214943               0.000760212               0.000545269               0.000000000               0.000000000               0.000000000               0.000000000               0.000103432               0.002148283               0.000012963              -0.000229748               0.000792670               0.000562922               0.000000000               0.000000000               0.000000000               0.000000000               0.000094815               0.002239806               0.000002273              -0.000244419               0.000828067               0.000583648               0.000000000               0.000000000               0.000000000               0.000000000               0.000091976               0.002329504              -0.000000918              -0.000256696               0.000862059               0.000605363               0.000000000               0.000000000               0.000000000               0.000000000               0.000088166               0.002373028              -0.000002541              -0.000263566               0.000878857               0.000615291               0.000000000               0.000000000               0.000000000               0.000000000               0.000657857               0.000817833               0.000618601               0.000144465               0.000224453               0.000368918               0.000000000               0.000000000               0.000000000               0.000000000               0.000499847               0.001017421               0.000589280               0.000060264               0.000319049               0.000379313               0.000000000               0.000000000               0.000000000               0.000000000               0.000345489               0.001310604               0.000524619              -0.000034268               0.000448286               0.000414019               0.000000000               0.000000000               0.000000000               0.000000000               0.000286833               0.001464467               0.000442128              -0.000075496               0.000513316               0.000437820               0.000000000               0.000000000               0.000000000               0.000000000               0.000260630               0.001558394               0.000367032              -0.000097063               0.000551814               0.000454751               0.000000000               0.000000000               0.000000000               0.000000000               0.000246088               0.001631169               0.000300178              -0.000111613               0.000580922               0.000469309               0.000000000               0.000000000               0.000000000               0.000000000               0.000231173               0.001697983               0.000245067              -0.000125558               0.000607841               0.000482284               0.000000000               0.000000000               0.000000000               0.000000000               0.000212057               0.001760103               0.000203445              -0.000140491               0.000633526               0.000493034               0.000000000               0.000000000               0.000000000               0.000000000               0.000190092               0.001819158               0.000171318              -0.000156110               0.000658417               0.000502307               0.000000000               0.000000000               0.000000000               0.000000000               0.000170882               0.001875826               0.000140063              -0.000170397               0.000682068               0.000511671               0.000000000               0.000000000               0.000000000               0.000000000               0.000158115               0.001927919               0.000106952              -0.000181696               0.000703199               0.000521502               0.000000000               0.000000000               0.000000000               0.000000000               0.000151021               0.001984345               0.000074978              -0.000191410               0.000725245               0.000533835               0.000000000               0.000000000               0.000000000               0.000000000               0.000147430               0.002049610               0.000047249              -0.000200914               0.000750168               0.000549254               0.000000000               0.000000000               0.000000000               0.000000000               0.000146931               0.002130333               0.000028163              -0.000211192               0.000780501               0.000569309               0.000000000               0.000000000               0.000000000               0.000000000               0.000145945               0.002223159               0.000016214              -0.000223165               0.000815434               0.000592269               0.000000000               0.000000000               0.000000000               0.000000000               0.000144127               0.002322891               0.000007974              -0.000236313               0.000853060               0.000616747               0.000000000               0.000000000               0.000000000               0.000000000               0.000134441               0.002366983               0.000000295              -0.000245457               0.000870805               0.000625348               0.000000000               0.000000000               0.000000000               0.000000000               0.000591412               0.000578488               0.000501866               0.000149467               0.000143005               0.000292472               0.000000000               0.000000000               0.000000000               0.000000000               0.000504051               0.000803329               0.000530481               0.000088602               0.000238240               0.000326841               0.000000000               0.000000000               0.000000000               0.000000000               0.000387778               0.001112522               0.000522017               0.000006351               0.000368720               0.000375071               0.000000000               0.000000000               0.000000000               0.000000000               0.000331260               0.001297367               0.000461980              -0.000037949               0.000445101               0.000407152               0.000000000               0.000000000               0.000000000               0.000000000               0.000300037               0.001422155               0.000394798              -0.000065256               0.000495799               0.000430543               0.000000000               0.000000000               0.000000000               0.000000000               0.000281645               0.001519515               0.000330062              -0.000084323               0.000534607               0.000450285               0.000000000               0.000000000               0.000000000               0.000000000               0.000266869               0.001607241               0.000274382              -0.000100829               0.000569351               0.000468522               0.000000000               0.000000000               0.000000000               0.000000000               0.000249510               0.001686803               0.000230671              -0.000117284               0.000601357               0.000484073               0.000000000               0.000000000               0.000000000               0.000000000               0.000226978               0.001756672               0.000196769              -0.000134467               0.000630374               0.000495907               0.000000000               0.000000000               0.000000000               0.000000000               0.000202656               0.001819523               0.000165156              -0.000151444               0.000656983               0.000505539               0.000000000               0.000000000               0.000000000               0.000000000               0.000186900               0.001883104               0.000132336              -0.000165300               0.000682795               0.000517495               0.000000000               0.000000000               0.000000000               0.000000000               0.000181943               0.001949640               0.000099787              -0.000175476               0.000708366               0.000532890               0.000000000               0.000000000               0.000000000               0.000000000               0.000184423               0.002024350               0.000071810              -0.000183885               0.000736071               0.000552187               0.000000000               0.000000000               0.000000000               0.000000000               0.000190928               0.002112420               0.000050739              -0.000192454               0.000768284               0.000575830               0.000000000               0.000000000               0.000000000               0.000000000               0.000196072               0.002209804               0.000035540              -0.000202698               0.000804160               0.000601462               0.000000000               0.000000000               0.000000000               0.000000000               0.000193100               0.002313777               0.000019647              -0.000216809               0.000843521               0.000626712               0.000000000               0.000000000               0.000000000               0.000000000               0.000177726               0.002358801               0.000006180              -0.000228202               0.000862326               0.000634124               0.000000000               0.000000000               0.000000000               0.000000000               0.000502358               0.000384568               0.000379286               0.000140312               0.000081417               0.000221729               0.000000000               0.000000000               0.000000000               0.000000000               0.000495336               0.000606776               0.000448548               0.000109902               0.000165622               0.000275525               0.000000000               0.000000000               0.000000000               0.000000000               0.000433280               0.000907495               0.000483605               0.000049042               0.000286148               0.000335190               0.000000000               0.000000000               0.000000000               0.000000000               0.000386825               0.001115240               0.000447182               0.000005654               0.000369858               0.000375512               0.000000000               0.000000000               0.000000000               0.000000000               0.000352019               0.001266234               0.000393324              -0.000026273               0.000430831               0.000404559               0.000000000               0.000000000               0.000000000               0.000000000               0.000329037               0.001387630               0.000335890              -0.000050065               0.000479227               0.000429162               0.000000000               0.000000000               0.000000000               0.000000000               0.000310314               0.001495115               0.000284088              -0.000070522               0.000521874               0.000451352               0.000000000               0.000000000               0.000000000               0.000000000               0.000292241               0.001591022               0.000241709              -0.000089287               0.000560098               0.000470811               0.000000000               0.000000000               0.000000000               0.000000000               0.000270875               0.001672618               0.000207372              -0.000107499               0.000593367               0.000485868               0.000000000               0.000000000               0.000000000               0.000000000               0.000248539               0.001743619               0.000177876              -0.000124750               0.000622784               0.000498034               0.000000000               0.000000000               0.000000000               0.000000000               0.000230384               0.001816151               0.000150277              -0.000140624               0.000652252               0.000511628               0.000000000               0.000000000               0.000000000               0.000000000               0.000222969               0.001896561               0.000121887              -0.000153457               0.000683333               0.000529876               0.000000000               0.000000000               0.000000000               0.000000000               0.000226913               0.001990334               0.000094774              -0.000163699               0.000718004               0.000554305               0.000000000               0.000000000               0.000000000               0.000000000               0.000236759               0.002096092               0.000073477              -0.000173226               0.000756432               0.000583206               0.000000000               0.000000000               0.000000000               0.000000000               0.000246476               0.002207892               0.000053658              -0.000183558               0.000797143               0.000613585               0.000000000               0.000000000               0.000000000               0.000000000               0.000247633               0.002319051               0.000028735              -0.000197018               0.000838682               0.000641664               0.000000000               0.000000000               0.000000000               0.000000000               0.000234153               0.002366679               0.000011463              -0.000208027               0.000858227               0.000650200               0.000000000               0.000000000               0.000000000               0.000000000               0.000406366               0.000241068               0.000262951               0.000122252               0.000039604               0.000161857               0.000000000               0.000000000               0.000000000               0.000000000               0.000477847               0.000440379               0.000348661               0.000124144               0.000105410               0.000229554               0.000000000               0.000000000               0.000000000               0.000000000               0.000477168               0.000716241               0.000407415               0.000089407               0.000208942               0.000298349               0.000000000               0.000000000               0.000000000               0.000000000               0.000447121               0.000934844               0.000391081               0.000050814               0.000294673               0.000345488               0.000000000               0.000000000               0.000000000               0.000000000               0.000412620               0.001105989               0.000352283               0.000016483               0.000363165               0.000379648               0.000000000               0.000000000               0.000000000               0.000000000               0.000383040               0.001247376               0.000306627              -0.000012282               0.000419882               0.000407600               0.000000000               0.000000000               0.000000000               0.000000000               0.000361177               0.001371182               0.000263136              -0.000035956               0.000469042               0.000433085               0.000000000               0.000000000               0.000000000               0.000000000               0.000339364               0.001477837               0.000226739              -0.000057468               0.000511764               0.000454295               0.000000000               0.000000000               0.000000000               0.000000000               0.000319471               0.001570820               0.000196976              -0.000076551               0.000549118               0.000472567               0.000000000               0.000000000               0.000000000               0.000000000               0.000300246               0.001656952               0.000171387              -0.000094526               0.000583820               0.000489294               0.000000000               0.000000000               0.000000000               0.000000000               0.000283130               0.001745448               0.000147905              -0.000112007               0.000619146               0.000507139               0.000000000               0.000000000               0.000000000               0.000000000               0.000271571               0.001843827               0.000127373              -0.000128639               0.000657482               0.000528843               0.000000000               0.000000000               0.000000000               0.000000000               0.000275480               0.001956294               0.000108149              -0.000141232               0.000699169               0.000557937               0.000000000               0.000000000               0.000000000               0.000000000               0.000288742               0.002080071               0.000088272              -0.000151730               0.000743927               0.000592196               0.000000000               0.000000000               0.000000000               0.000000000               0.000300800               0.002207129               0.000065678              -0.000163091               0.000790066               0.000626975               0.000000000               0.000000000               0.000000000               0.000000000               0.000307786               0.002325527               0.000035995              -0.000175271               0.000833591               0.000658321               0.000000000               0.000000000               0.000000000               0.000000000               0.000301860               0.002376448               0.000016942              -0.000183858               0.000853427               0.000669569               0.000000000               0.000000000               0.000000000               0.000000000               0.000319237               0.000146817               0.000162013               0.000101361               0.000015151               0.000116512               0.000000000               0.000000000               0.000000000               0.000000000               0.000457399               0.000315587               0.000237711               0.000132075               0.000061170               0.000193244               0.000000000               0.000000000               0.000000000               0.000000000               0.000513854               0.000558797               0.000295327               0.000122844               0.000145316               0.000268160               0.000000000               0.000000000               0.000000000               0.000000000               0.000500992               0.000777658               0.000291820               0.000090664               0.000228995               0.000319659               0.000000000               0.000000000               0.000000000               0.000000000               0.000469499               0.000963598               0.000267288               0.000055612               0.000302659               0.000358271               0.000000000               0.000000000               0.000000000               0.000000000               0.000436204               0.001119751               0.000236362               0.000023607               0.000365377               0.000388985               0.000000000               0.000000000               0.000000000               0.000000000               0.000409068               0.001254695               0.000205376              -0.000003437               0.000419373               0.000415936               0.000000000               0.000000000               0.000000000               0.000000000               0.000384632               0.001368955               0.000179538              -0.000026883               0.000465275               0.000438392               0.000000000               0.000000000               0.000000000               0.000000000               0.000362779               0.001471549               0.000158308              -0.000047901               0.000506479               0.000458577               0.000000000               0.000000000               0.000000000               0.000000000               0.000344578               0.001576317               0.000137821              -0.000067823               0.000548041               0.000480219               0.000000000               0.000000000               0.000000000               0.000000000               0.000329769               0.001685378               0.000119550              -0.000087009               0.000590790               0.000503781               0.000000000               0.000000000               0.000000000               0.000000000               0.000323849               0.001802027               0.000108034              -0.000103810               0.000635273               0.000531463               0.000000000               0.000000000               0.000000000               0.000000000               0.000326823               0.001928050               0.000099635              -0.000118447               0.000682159               0.000563712               0.000000000               0.000000000               0.000000000               0.000000000               0.000339862               0.002062705               0.000085370              -0.000130389               0.000731024               0.000600635               0.000000000               0.000000000               0.000000000               0.000000000               0.000357066               0.002199296               0.000063234              -0.000141012               0.000780095               0.000639083               0.000000000               0.000000000               0.000000000               0.000000000               0.000370737               0.002323690               0.000034928              -0.000151434               0.000825034               0.000673599               0.000000000               0.000000000               0.000000000               0.000000000               0.000372628               0.002378043               0.000018473              -0.000157519               0.000845179               0.000687660               0.000000000               0.000000000               0.000000000               0.000000000               0.000257117               0.000091011               0.000076251               0.000085042               0.000001989               0.000087031               0.000000000               0.000000000               0.000000000               0.000000000               0.000441250               0.000235928               0.000119908               0.000135976               0.000033316               0.000169293               0.000000000               0.000000000               0.000000000               0.000000000               0.000536675               0.000454085               0.000154711               0.000144491               0.000103197               0.000247688               0.000000000               0.000000000               0.000000000               0.000000000               0.000539111               0.000670860               0.000156274               0.000118308               0.000184182               0.000302490               0.000000000               0.000000000               0.000000000               0.000000000               0.000510157               0.000863573               0.000144942               0.000083362               0.000260068               0.000343429               0.000000000               0.000000000               0.000000000               0.000000000               0.000476167               0.001029646               0.000129039               0.000049856               0.000326593               0.000376450               0.000000000               0.000000000               0.000000000               0.000000000               0.000444264               0.001170735               0.000113374               0.000020257               0.000383489               0.000403746               0.000000000               0.000000000               0.000000000               0.000000000               0.000416600               0.001290370               0.000099954              -0.000005071               0.000431809               0.000426738               0.000000000               0.000000000               0.000000000               0.000000000               0.000391619               0.001401464               0.000089224              -0.000028326               0.000476592               0.000448266               0.000000000               0.000000000               0.000000000               0.000000000               0.000374472               0.001517253               0.000076903              -0.000049230               0.000522156               0.000472926               0.000000000               0.000000000               0.000000000               0.000000000               0.000366002               0.001640424               0.000067193              -0.000067802               0.000569403               0.000501601               0.000000000               0.000000000               0.000000000               0.000000000               0.000366354               0.001773420               0.000063378              -0.000084294               0.000619232               0.000534938               0.000000000               0.000000000               0.000000000               0.000000000               0.000370518               0.001913830               0.000060555              -0.000100284               0.000671365               0.000571081               0.000000000               0.000000000               0.000000000               0.000000000               0.000378535               0.002051731               0.000055108              -0.000114515               0.000722075               0.000607560               0.000000000               0.000000000               0.000000000               0.000000000               0.000393977               0.002181716               0.000040295              -0.000124973               0.000768889               0.000643916               0.000000000               0.000000000               0.000000000               0.000000000               0.000419334               0.002306976               0.000019071              -0.000131121               0.000812691               0.000681570               0.000000000               0.000000000               0.000000000               0.000000000               0.000434913               0.002367603               0.000008122              -0.000132858               0.000833479               0.000700621               0.000000000               0.000000000               0.000000000               0.000000000               0.000000000               0.000000000               0.000000000               0.000000000               0.000000000               0.000000000               0.000000000               0.000000000               0.000000000               0.000000000               0.000000000               0.000000000               0.000000000               0.000000000               0.000000000               0.000000000               0.000000000               0.000000000               0.000000000               0.000000000               0.000000000               0.000000000               0.000000000               0.000000000               0.000000000               0.000000000               0.000000000               0.000000000               0.000000000               0.000000000               0.000000000               0.000000000               0.000000000               0.000000000               0.000000000               0.000000000               0.000000000               0.000000000               0.000000000               0.000000000               0.000000000               0.000000000               0.000000000               0.000000000               0.000000000               0.000000000               0.000000000               0.000000000               0.000000000               0.000000000               0.000000000               0.000000000               0.000000000               0.000000000               0.000000000               0.000000000               0.000000000               0.000000000               0.000000000               0.000000000               0.000000000               0.000000000               0.000000000               0.000000000               0.000000000               0.000000000               0.000000000               0.000000000               0.000000000               0.000000000               0.000000000               0.000000000               0.000000000               0.000000000               0.000000000               0.000000000               0.000000000               0.000000000               0.000000000               0.000000000               0.000000000               0.000000000               0.000000000               0.000000000               0.000000000               0.000000000               0.000000000               0.000000000               0.000000000               0.000000000               0.000000000               0.000000000               0.000000000               0.000000000               0.000000000               0.000000000               0.000000000               0.000000000               0.000000000               0.000000000               0.000000000               0.000000000               0.000000000               0.000000000               0.000000000               0.000000000               0.000000000               0.000000000               0.000000000               0.000000000               0.000000000               0.000000000               0.000000000               0.000000000               0.000000000               0.000000000               0.000000000               0.000000000               0.000000000               0.000000000               0.000000000               0.000000000               0.000000000               0.000000000               0.000000000               0.000000000               0.000000000               0.000000000               0.000000000               0.000000000               0.000000000               0.000000000               0.000000000               0.000000000               0.000000000               0.000000000               0.000000000               0.000000000               0.000000000               0.000000000               0.000000000               0.000000000               0.000000000               0.000000000               0.000000000               0.000000000               0.000000000               0.000000000               0.000000000               0.000000000               0.000000000               0.000000000               0.000000000               0.000000000               0.000000000               0.000000000               0.000000000               0.000000000               0.000000000               0.000000000               0.000000000               0.000000000               0.000000000               0.000000000               0.000000000               0.000000000               0.000000000               0.000000000               0.000000000               0.000000000 </DataArray>
</PointData>
</Piece>
</UnstructuredGrid> </VTKFile>
