<?xml version="1.0"?>
<VTKFile type="UnstructuredGrid" version="0.1">
<UnstructuredGrid>
<Piece NumberOfPoints="      1156" NumberOfCells="      1024">
<Points>
<DataArray type="Float64"                                    Name="coordinates"                                                      NumberOfComponents=" 3" format="ascii">
              0.133000000               0.000000000               0.000000000               0.155937500               0.000000000               0.000000000               0.178875000               0.000000000               0.000000000               0.201812500               0.000000000               0.000000000               0.224750000               0.000000000               0.000000000               0.247687500               0.000000000               0.000000000               0.270625000               0.000000000               0.000000000               0.293562500               0.000000000               0.000000000               0.316500000               0.000000000               0.000000000               0.339437500               0.000000000               0.000000000               0.362375000               0.000000000               0.000000000               0.385312500               0.000000000               0.000000000               0.408250000               0.000000000               0.000000000               0.431187500               0.000000000               0.000000000               0.454125000               0.000000000               0.000000000               0.477062500               0.000000000               0.000000000               0.500000000               0.000000000               0.000000000               0.132359569               0.013036280               0.000000000               0.155337096               0.016127762               0.000000000               0.178314623               0.019219245               0.000000000               0.201292150               0.022310727               0.000000000               0.224269676               0.025402210               0.000000000               0.247247203               0.028493692               0.000000000               0.270224730               0.031585175               0.000000000               0.293202257               0.034676657               0.000000000               0.316179784               0.037768140               0.000000000               0.339157311               0.040859622               0.000000000               0.362134838               0.043951105               0.000000000               0.385112365               0.047042587               0.000000000               0.408089892               0.050134070               0.000000000               0.431067419               0.053225552               0.000000000               0.454044946               0.056317035               0.000000000               0.477022473               0.059408517               0.000000000               0.500000000               0.062500000               0.000000000               0.130444442               0.025947013               0.000000000               0.153541665               0.032137825               0.000000000               0.176638887               0.038328636               0.000000000               0.199736109               0.044519448               0.000000000               0.222833332               0.050710260               0.000000000               0.245930554               0.056901071               0.000000000               0.269027776               0.063091883               0.000000000               0.292124999               0.069282695               0.000000000               0.315222221               0.075473506               0.000000000               0.338319444               0.081664318               0.000000000               0.361416666               0.087855130               0.000000000               0.384513888               0.094045942               0.000000000               0.407611111               0.100236753               0.000000000               0.430708333               0.106427565               0.000000000               0.453805555               0.112618377               0.000000000               0.476902778               0.118809188               0.000000000               0.500000000               0.125000000               0.000000000               0.127273065               0.038607862               0.000000000               0.150568498               0.047913621               0.000000000               0.173863932               0.057219379               0.000000000               0.197159365               0.066525138               0.000000000               0.220454798               0.075830897               0.000000000               0.243750232               0.085136655               0.000000000               0.267045665               0.094442414               0.000000000               0.290341099               0.103748172               0.000000000               0.313636532               0.113053931               0.000000000               0.336931966               0.122359690               0.000000000               0.360227399               0.131665448               0.000000000               0.383522833               0.140971207               0.000000000               0.406818266               0.150276966               0.000000000               0.430113700               0.159582724               0.000000000               0.453409133               0.168888483               0.000000000               0.476704567               0.178194241               0.000000000               0.500000000               0.187500000               0.000000000               0.122875978               0.050896897               0.000000000               0.146446229               0.063340840               0.000000000               0.170016481               0.075784784               0.000000000               0.193586732               0.088228728               0.000000000               0.217156983               0.100672672               0.000000000               0.240727235               0.113116616               0.000000000               0.264297486               0.125560560               0.000000000               0.287867738               0.138004504               0.000000000               0.311437989               0.150448448               0.000000000               0.335008240               0.162892392               0.000000000               0.358578492               0.175336336               0.000000000               0.382148743               0.187780280               0.000000000               0.405718994               0.200224224               0.000000000               0.429289246               0.212668168               0.000000000               0.452859497               0.225112112               0.000000000               0.476429749               0.237556056               0.000000000               0.500000000               0.250000000               0.000000000               0.117295528               0.062695766               0.000000000               0.141214558               0.078308531               0.000000000               0.165133587               0.093921295               0.000000000               0.189052617               0.109534060               0.000000000               0.212971646               0.125146824               0.000000000               0.236890676               0.140759589               0.000000000               0.260809705               0.156372354               0.000000000               0.284728735               0.171985118               0.000000000               0.308647764               0.187597883               0.000000000               0.332566794               0.203210648               0.000000000               0.356485823               0.218823412               0.000000000               0.380404853               0.234436177               0.000000000               0.404323882               0.250048941               0.000000000               0.428242912               0.265661706               0.000000000               0.452161941               0.281274471               0.000000000               0.476080971               0.296887235               0.000000000               0.500000000               0.312500000               0.000000000               0.110585458               0.073890841               0.000000000               0.134923867               0.092710163               0.000000000               0.159262276               0.111529486               0.000000000               0.183600685               0.130348808               0.000000000               0.207939094               0.149168131               0.000000000               0.232277503               0.167987453               0.000000000               0.256615912               0.186806776               0.000000000               0.280954320               0.205626098               0.000000000               0.305292729               0.224445420               0.000000000               0.329631138               0.243264743               0.000000000               0.353969547               0.262084065               0.000000000               0.378307956               0.280903388               0.000000000               0.402646365               0.299722710               0.000000000               0.426984773               0.318542033               0.000000000               0.451323182               0.337361355               0.000000000               0.475661591               0.356180678               0.000000000               0.500000000               0.375000000               0.000000000               0.102810390               0.084374307               0.000000000               0.127634741               0.106444663               0.000000000               0.152459092               0.128515018               0.000000000               0.177283442               0.150585374               0.000000000               0.202107793               0.172655730               0.000000000               0.226932143               0.194726086               0.000000000               0.251756494               0.216796442               0.000000000               0.276580845               0.238866798               0.000000000               0.301405195               0.260937153               0.000000000               0.326229546               0.283007509               0.000000000               0.351053896               0.305077865               0.000000000               0.375878247               0.327148221               0.000000000               0.400702598               0.349218577               0.000000000               0.425526948               0.371288933               0.000000000               0.450351299               0.393359288               0.000000000               0.475175649               0.415429644               0.000000000               0.500000000               0.437500000               0.000000000               0.094045202               0.094045202               0.000000000               0.119417377               0.119417377               0.000000000               0.144789552               0.144789552               0.000000000               0.170161727               0.170161727               0.000000000               0.195533901               0.195533901               0.000000000               0.220906076               0.220906076               0.000000000               0.246278251               0.246278251               0.000000000               0.271650426               0.271650426               0.000000000               0.297022601               0.297022601               0.000000000               0.322394776               0.322394776               0.000000000               0.347766951               0.347766951               0.000000000               0.373139126               0.373139126               0.000000000               0.398511300               0.398511300               0.000000000               0.423883475               0.423883475               0.000000000               0.449255650               0.449255650               0.000000000               0.474627825               0.474627825               0.000000000               0.500000000               0.500000000               0.000000000               0.084374307               0.102810390               0.000000000               0.106444663               0.127634741               0.000000000               0.128515018               0.152459092               0.000000000               0.150585374               0.177283442               0.000000000               0.172655730               0.202107793               0.000000000               0.194726086               0.226932143               0.000000000               0.216796442               0.251756494               0.000000000               0.238866798               0.276580845               0.000000000               0.260937153               0.301405195               0.000000000               0.283007509               0.326229546               0.000000000               0.305077865               0.351053896               0.000000000               0.327148221               0.375878247               0.000000000               0.349218577               0.400702598               0.000000000               0.371288933               0.425526948               0.000000000               0.393359288               0.450351299               0.000000000               0.415429644               0.475175649               0.000000000               0.437500000               0.500000000               0.000000000               0.073890841               0.110585458               0.000000000               0.092710163               0.134923867               0.000000000               0.111529486               0.159262276               0.000000000               0.130348808               0.183600685               0.000000000               0.149168131               0.207939094               0.000000000               0.167987453               0.232277503               0.000000000               0.186806776               0.256615912               0.000000000               0.205626098               0.280954320               0.000000000               0.224445420               0.305292729               0.000000000               0.243264743               0.329631138               0.000000000               0.262084065               0.353969547               0.000000000               0.280903388               0.378307956               0.000000000               0.299722710               0.402646365               0.000000000               0.318542033               0.426984773               0.000000000               0.337361355               0.451323182               0.000000000               0.356180678               0.475661591               0.000000000               0.375000000               0.500000000               0.000000000               0.062695766               0.117295528               0.000000000               0.078308531               0.141214558               0.000000000               0.093921295               0.165133587               0.000000000               0.109534060               0.189052617               0.000000000               0.125146824               0.212971646               0.000000000               0.140759589               0.236890676               0.000000000               0.156372354               0.260809705               0.000000000               0.171985118               0.284728735               0.000000000               0.187597883               0.308647764               0.000000000               0.203210648               0.332566794               0.000000000               0.218823412               0.356485823               0.000000000               0.234436177               0.380404853               0.000000000               0.250048941               0.404323882               0.000000000               0.265661706               0.428242912               0.000000000               0.281274471               0.452161941               0.000000000               0.296887235               0.476080971               0.000000000               0.312500000               0.500000000               0.000000000               0.050896897               0.122875978               0.000000000               0.063340840               0.146446229               0.000000000               0.075784784               0.170016481               0.000000000               0.088228728               0.193586732               0.000000000               0.100672672               0.217156983               0.000000000               0.113116616               0.240727235               0.000000000               0.125560560               0.264297486               0.000000000               0.138004504               0.287867738               0.000000000               0.150448448               0.311437989               0.000000000               0.162892392               0.335008240               0.000000000               0.175336336               0.358578492               0.000000000               0.187780280               0.382148743               0.000000000               0.200224224               0.405718994               0.000000000               0.212668168               0.429289246               0.000000000               0.225112112               0.452859497               0.000000000               0.237556056               0.476429749               0.000000000               0.250000000               0.500000000               0.000000000               0.038607862               0.127273065               0.000000000               0.047913621               0.150568498               0.000000000               0.057219379               0.173863932               0.000000000               0.066525138               0.197159365               0.000000000               0.075830897               0.220454798               0.000000000               0.085136655               0.243750232               0.000000000               0.094442414               0.267045665               0.000000000               0.103748172               0.290341099               0.000000000               0.113053931               0.313636532               0.000000000               0.122359690               0.336931966               0.000000000               0.131665448               0.360227399               0.000000000               0.140971207               0.383522833               0.000000000               0.150276966               0.406818266               0.000000000               0.159582724               0.430113700               0.000000000               0.168888483               0.453409133               0.000000000               0.178194241               0.476704567               0.000000000               0.187500000               0.500000000               0.000000000               0.025947013               0.130444442               0.000000000               0.032137825               0.153541665               0.000000000               0.038328636               0.176638887               0.000000000               0.044519448               0.199736109               0.000000000               0.050710260               0.222833332               0.000000000               0.056901071               0.245930554               0.000000000               0.063091883               0.269027776               0.000000000               0.069282695               0.292124999               0.000000000               0.075473506               0.315222221               0.000000000               0.081664318               0.338319444               0.000000000               0.087855130               0.361416666               0.000000000               0.094045942               0.384513888               0.000000000               0.100236753               0.407611111               0.000000000               0.106427565               0.430708333               0.000000000               0.112618377               0.453805555               0.000000000               0.118809188               0.476902778               0.000000000               0.125000000               0.500000000               0.000000000               0.013036280               0.132359569               0.000000000               0.016127762               0.155337096               0.000000000               0.019219245               0.178314623               0.000000000               0.022310727               0.201292150               0.000000000               0.025402210               0.224269676               0.000000000               0.028493692               0.247247203               0.000000000               0.031585175               0.270224730               0.000000000               0.034676657               0.293202257               0.000000000               0.037768140               0.316179784               0.000000000               0.040859622               0.339157311               0.000000000               0.043951105               0.362134838               0.000000000               0.047042587               0.385112365               0.000000000               0.050134070               0.408089892               0.000000000               0.053225552               0.431067419               0.000000000               0.056317035               0.454044946               0.000000000               0.059408517               0.477022473               0.000000000               0.062500000               0.500000000               0.000000000               0.000000000               0.133000000               0.000000000               0.000000000               0.155937500               0.000000000               0.000000000               0.178875000               0.000000000               0.000000000               0.201812500               0.000000000               0.000000000               0.224750000               0.000000000               0.000000000               0.247687500               0.000000000               0.000000000               0.270625000               0.000000000               0.000000000               0.293562500               0.000000000               0.000000000               0.316500000               0.000000000               0.000000000               0.339437500               0.000000000               0.000000000               0.362375000               0.000000000               0.000000000               0.385312500               0.000000000               0.000000000               0.408250000               0.000000000               0.000000000               0.431187500               0.000000000               0.000000000               0.454125000               0.000000000               0.000000000               0.477062500               0.000000000               0.000000000               0.500000000               0.000000000               0.133000000               0.000000000               0.000000000               0.155937500               0.000000000               0.000000000               0.178875000               0.000000000               0.000000000               0.201812500               0.000000000               0.000000000               0.224750000               0.000000000               0.000000000               0.247687500               0.000000000               0.000000000               0.270625000               0.000000000               0.000000000               0.293562500               0.000000000               0.000000000               0.316500000               0.000000000               0.000000000               0.339437500               0.000000000               0.000000000               0.362375000               0.000000000               0.000000000               0.385312500               0.000000000               0.000000000               0.408250000               0.000000000               0.000000000               0.431187500               0.000000000               0.000000000               0.454125000               0.000000000               0.000000000               0.477062500               0.000000000               0.000000000               0.500000000               0.000000000               0.000000000               0.132359569              -0.013036280               0.000000000               0.155337096              -0.016127762               0.000000000               0.178314623              -0.019219245               0.000000000               0.201292150              -0.022310727               0.000000000               0.224269676              -0.025402210               0.000000000               0.247247203              -0.028493692               0.000000000               0.270224730              -0.031585175               0.000000000               0.293202257              -0.034676657               0.000000000               0.316179784              -0.037768140               0.000000000               0.339157311              -0.040859622               0.000000000               0.362134838              -0.043951105               0.000000000               0.385112365              -0.047042587               0.000000000               0.408089892              -0.050134070               0.000000000               0.431067419              -0.053225552               0.000000000               0.454044946              -0.056317035               0.000000000               0.477022473              -0.059408517               0.000000000               0.500000000              -0.062500000               0.000000000               0.130444442              -0.025947013               0.000000000               0.153541665              -0.032137825               0.000000000               0.176638887              -0.038328636               0.000000000               0.199736109              -0.044519448               0.000000000               0.222833332              -0.050710260               0.000000000               0.245930554              -0.056901071               0.000000000               0.269027776              -0.063091883               0.000000000               0.292124999              -0.069282695               0.000000000               0.315222221              -0.075473506               0.000000000               0.338319444              -0.081664318               0.000000000               0.361416666              -0.087855130               0.000000000               0.384513888              -0.094045942               0.000000000               0.407611111              -0.100236753               0.000000000               0.430708333              -0.106427565               0.000000000               0.453805555              -0.112618377               0.000000000               0.476902778              -0.118809188               0.000000000               0.500000000              -0.125000000               0.000000000               0.127273065              -0.038607862               0.000000000               0.150568498              -0.047913621               0.000000000               0.173863932              -0.057219379               0.000000000               0.197159365              -0.066525138               0.000000000               0.220454798              -0.075830897               0.000000000               0.243750232              -0.085136655               0.000000000               0.267045665              -0.094442414               0.000000000               0.290341099              -0.103748172               0.000000000               0.313636532              -0.113053931               0.000000000               0.336931966              -0.122359690               0.000000000               0.360227399              -0.131665448               0.000000000               0.383522833              -0.140971207               0.000000000               0.406818266              -0.150276966               0.000000000               0.430113700              -0.159582724               0.000000000               0.453409133              -0.168888483               0.000000000               0.476704567              -0.178194241               0.000000000               0.500000000              -0.187500000               0.000000000               0.122875978              -0.050896897               0.000000000               0.146446229              -0.063340840               0.000000000               0.170016481              -0.075784784               0.000000000               0.193586732              -0.088228728               0.000000000               0.217156983              -0.100672672               0.000000000               0.240727235              -0.113116616               0.000000000               0.264297486              -0.125560560               0.000000000               0.287867738              -0.138004504               0.000000000               0.311437989              -0.150448448               0.000000000               0.335008240              -0.162892392               0.000000000               0.358578492              -0.175336336               0.000000000               0.382148743              -0.187780280               0.000000000               0.405718994              -0.200224224               0.000000000               0.429289246              -0.212668168               0.000000000               0.452859497              -0.225112112               0.000000000               0.476429749              -0.237556056               0.000000000               0.500000000              -0.250000000               0.000000000               0.117295528              -0.062695766               0.000000000               0.141214558              -0.078308531               0.000000000               0.165133587              -0.093921295               0.000000000               0.189052617              -0.109534060               0.000000000               0.212971646              -0.125146824               0.000000000               0.236890676              -0.140759589               0.000000000               0.260809705              -0.156372354               0.000000000               0.284728735              -0.171985118               0.000000000               0.308647764              -0.187597883               0.000000000               0.332566794              -0.203210648               0.000000000               0.356485823              -0.218823412               0.000000000               0.380404853              -0.234436177               0.000000000               0.404323882              -0.250048941               0.000000000               0.428242912              -0.265661706               0.000000000               0.452161941              -0.281274471               0.000000000               0.476080971              -0.296887235               0.000000000               0.500000000              -0.312500000               0.000000000               0.110585458              -0.073890841               0.000000000               0.134923867              -0.092710163               0.000000000               0.159262276              -0.111529486               0.000000000               0.183600685              -0.130348808               0.000000000               0.207939094              -0.149168131               0.000000000               0.232277503              -0.167987453               0.000000000               0.256615912              -0.186806776               0.000000000               0.280954320              -0.205626098               0.000000000               0.305292729              -0.224445420               0.000000000               0.329631138              -0.243264743               0.000000000               0.353969547              -0.262084065               0.000000000               0.378307956              -0.280903388               0.000000000               0.402646365              -0.299722710               0.000000000               0.426984773              -0.318542033               0.000000000               0.451323182              -0.337361355               0.000000000               0.475661591              -0.356180678               0.000000000               0.500000000              -0.375000000               0.000000000               0.102810390              -0.084374307               0.000000000               0.127634741              -0.106444663               0.000000000               0.152459092              -0.128515018               0.000000000               0.177283442              -0.150585374               0.000000000               0.202107793              -0.172655730               0.000000000               0.226932143              -0.194726086               0.000000000               0.251756494              -0.216796442               0.000000000               0.276580845              -0.238866798               0.000000000               0.301405195              -0.260937153               0.000000000               0.326229546              -0.283007509               0.000000000               0.351053896              -0.305077865               0.000000000               0.375878247              -0.327148221               0.000000000               0.400702598              -0.349218577               0.000000000               0.425526948              -0.371288933               0.000000000               0.450351299              -0.393359288               0.000000000               0.475175649              -0.415429644               0.000000000               0.500000000              -0.437500000               0.000000000               0.094045202              -0.094045202               0.000000000               0.119417377              -0.119417377               0.000000000               0.144789552              -0.144789552               0.000000000               0.170161727              -0.170161727               0.000000000               0.195533901              -0.195533901               0.000000000               0.220906076              -0.220906076               0.000000000               0.246278251              -0.246278251               0.000000000               0.271650426              -0.271650426               0.000000000               0.297022601              -0.297022601               0.000000000               0.322394776              -0.322394776               0.000000000               0.347766951              -0.347766951               0.000000000               0.373139126              -0.373139126               0.000000000               0.398511300              -0.398511300               0.000000000               0.423883475              -0.423883475               0.000000000               0.449255650              -0.449255650               0.000000000               0.474627825              -0.474627825               0.000000000               0.500000000              -0.500000000               0.000000000               0.084374307              -0.102810390               0.000000000               0.106444663              -0.127634741               0.000000000               0.128515018              -0.152459092               0.000000000               0.150585374              -0.177283442               0.000000000               0.172655730              -0.202107793               0.000000000               0.194726086              -0.226932143               0.000000000               0.216796442              -0.251756494               0.000000000               0.238866798              -0.276580845               0.000000000               0.260937153              -0.301405195               0.000000000               0.283007509              -0.326229546               0.000000000               0.305077865              -0.351053896               0.000000000               0.327148221              -0.375878247               0.000000000               0.349218577              -0.400702598               0.000000000               0.371288933              -0.425526948               0.000000000               0.393359288              -0.450351299               0.000000000               0.415429644              -0.475175649               0.000000000               0.437500000              -0.500000000               0.000000000               0.073890841              -0.110585458               0.000000000               0.092710163              -0.134923867               0.000000000               0.111529486              -0.159262276               0.000000000               0.130348808              -0.183600685               0.000000000               0.149168131              -0.207939094               0.000000000               0.167987453              -0.232277503               0.000000000               0.186806776              -0.256615912               0.000000000               0.205626098              -0.280954320               0.000000000               0.224445420              -0.305292729               0.000000000               0.243264743              -0.329631138               0.000000000               0.262084065              -0.353969547               0.000000000               0.280903388              -0.378307956               0.000000000               0.299722710              -0.402646365               0.000000000               0.318542033              -0.426984773               0.000000000               0.337361355              -0.451323182               0.000000000               0.356180678              -0.475661591               0.000000000               0.375000000              -0.500000000               0.000000000               0.062695766              -0.117295528               0.000000000               0.078308531              -0.141214558               0.000000000               0.093921295              -0.165133587               0.000000000               0.109534060              -0.189052617               0.000000000               0.125146824              -0.212971646               0.000000000               0.140759589              -0.236890676               0.000000000               0.156372354              -0.260809705               0.000000000               0.171985118              -0.284728735               0.000000000               0.187597883              -0.308647764               0.000000000               0.203210648              -0.332566794               0.000000000               0.218823412              -0.356485823               0.000000000               0.234436177              -0.380404853               0.000000000               0.250048941              -0.404323882               0.000000000               0.265661706              -0.428242912               0.000000000               0.281274471              -0.452161941               0.000000000               0.296887235              -0.476080971               0.000000000               0.312500000              -0.500000000               0.000000000               0.050896897              -0.122875978               0.000000000               0.063340840              -0.146446229               0.000000000               0.075784784              -0.170016481               0.000000000               0.088228728              -0.193586732               0.000000000               0.100672672              -0.217156983               0.000000000               0.113116616              -0.240727235               0.000000000               0.125560560              -0.264297486               0.000000000               0.138004504              -0.287867738               0.000000000               0.150448448              -0.311437989               0.000000000               0.162892392              -0.335008240               0.000000000               0.175336336              -0.358578492               0.000000000               0.187780280              -0.382148743               0.000000000               0.200224224              -0.405718994               0.000000000               0.212668168              -0.429289246               0.000000000               0.225112112              -0.452859497               0.000000000               0.237556056              -0.476429749               0.000000000               0.250000000              -0.500000000               0.000000000               0.038607862              -0.127273065               0.000000000               0.047913621              -0.150568498               0.000000000               0.057219379              -0.173863932               0.000000000               0.066525138              -0.197159365               0.000000000               0.075830897              -0.220454798               0.000000000               0.085136655              -0.243750232               0.000000000               0.094442414              -0.267045665               0.000000000               0.103748172              -0.290341099               0.000000000               0.113053931              -0.313636532               0.000000000               0.122359690              -0.336931966               0.000000000               0.131665448              -0.360227399               0.000000000               0.140971207              -0.383522833               0.000000000               0.150276966              -0.406818266               0.000000000               0.159582724              -0.430113700               0.000000000               0.168888483              -0.453409133               0.000000000               0.178194241              -0.476704567               0.000000000               0.187500000              -0.500000000               0.000000000               0.025947013              -0.130444442               0.000000000               0.032137825              -0.153541665               0.000000000               0.038328636              -0.176638887               0.000000000               0.044519448              -0.199736109               0.000000000               0.050710260              -0.222833332               0.000000000               0.056901071              -0.245930554               0.000000000               0.063091883              -0.269027776               0.000000000               0.069282695              -0.292124999               0.000000000               0.075473506              -0.315222221               0.000000000               0.081664318              -0.338319444               0.000000000               0.087855130              -0.361416666               0.000000000               0.094045942              -0.384513888               0.000000000               0.100236753              -0.407611111               0.000000000               0.106427565              -0.430708333               0.000000000               0.112618377              -0.453805555               0.000000000               0.118809188              -0.476902778               0.000000000               0.125000000              -0.500000000               0.000000000               0.013036280              -0.132359569               0.000000000               0.016127762              -0.155337096               0.000000000               0.019219245              -0.178314623               0.000000000               0.022310727              -0.201292150               0.000000000               0.025402210              -0.224269676               0.000000000               0.028493692              -0.247247203               0.000000000               0.031585175              -0.270224730               0.000000000               0.034676657              -0.293202257               0.000000000               0.037768140              -0.316179784               0.000000000               0.040859622              -0.339157311               0.000000000               0.043951105              -0.362134838               0.000000000               0.047042587              -0.385112365               0.000000000               0.050134070              -0.408089892               0.000000000               0.053225552              -0.431067419               0.000000000               0.056317035              -0.454044946               0.000000000               0.059408517              -0.477022473               0.000000000               0.062500000              -0.500000000               0.000000000               0.000000000              -0.133000000               0.000000000               0.000000000              -0.155937500               0.000000000               0.000000000              -0.178875000               0.000000000               0.000000000              -0.201812500               0.000000000               0.000000000              -0.224750000               0.000000000               0.000000000              -0.247687500               0.000000000               0.000000000              -0.270625000               0.000000000               0.000000000              -0.293562500               0.000000000               0.000000000              -0.316500000               0.000000000               0.000000000              -0.339437500               0.000000000               0.000000000              -0.362375000               0.000000000               0.000000000              -0.385312500               0.000000000               0.000000000              -0.408250000               0.000000000               0.000000000              -0.431187500               0.000000000               0.000000000              -0.454125000               0.000000000               0.000000000              -0.477062500               0.000000000               0.000000000              -0.500000000               0.000000000              -0.133000000               0.000000000               0.000000000              -0.155937500               0.000000000               0.000000000              -0.178875000               0.000000000               0.000000000              -0.201812500               0.000000000               0.000000000              -0.224750000               0.000000000               0.000000000              -0.247687500               0.000000000               0.000000000              -0.270625000               0.000000000               0.000000000              -0.293562500               0.000000000               0.000000000              -0.316500000               0.000000000               0.000000000              -0.339437500               0.000000000               0.000000000              -0.362375000               0.000000000               0.000000000              -0.385312500               0.000000000               0.000000000              -0.408250000               0.000000000               0.000000000              -0.431187500               0.000000000               0.000000000              -0.454125000               0.000000000               0.000000000              -0.477062500               0.000000000               0.000000000              -0.500000000               0.000000000               0.000000000              -0.132359569              -0.013036280               0.000000000              -0.155337096              -0.016127762               0.000000000              -0.178314623              -0.019219245               0.000000000              -0.201292150              -0.022310727               0.000000000              -0.224269676              -0.025402210               0.000000000              -0.247247203              -0.028493692               0.000000000              -0.270224730              -0.031585175               0.000000000              -0.293202257              -0.034676657               0.000000000              -0.316179784              -0.037768140               0.000000000              -0.339157311              -0.040859622               0.000000000              -0.362134838              -0.043951105               0.000000000              -0.385112365              -0.047042587               0.000000000              -0.408089892              -0.050134070               0.000000000              -0.431067419              -0.053225552               0.000000000              -0.454044946              -0.056317035               0.000000000              -0.477022473              -0.059408517               0.000000000              -0.500000000              -0.062500000               0.000000000              -0.130444442              -0.025947013               0.000000000              -0.153541665              -0.032137825               0.000000000              -0.176638887              -0.038328636               0.000000000              -0.199736109              -0.044519448               0.000000000              -0.222833332              -0.050710260               0.000000000              -0.245930554              -0.056901071               0.000000000              -0.269027776              -0.063091883               0.000000000              -0.292124999              -0.069282695               0.000000000              -0.315222221              -0.075473506               0.000000000              -0.338319444              -0.081664318               0.000000000              -0.361416666              -0.087855130               0.000000000              -0.384513888              -0.094045942               0.000000000              -0.407611111              -0.100236753               0.000000000              -0.430708333              -0.106427565               0.000000000              -0.453805555              -0.112618377               0.000000000              -0.476902778              -0.118809188               0.000000000              -0.500000000              -0.125000000               0.000000000              -0.127273065              -0.038607862               0.000000000              -0.150568498              -0.047913621               0.000000000              -0.173863932              -0.057219379               0.000000000              -0.197159365              -0.066525138               0.000000000              -0.220454798              -0.075830897               0.000000000              -0.243750232              -0.085136655               0.000000000              -0.267045665              -0.094442414               0.000000000              -0.290341099              -0.103748172               0.000000000              -0.313636532              -0.113053931               0.000000000              -0.336931966              -0.122359690               0.000000000              -0.360227399              -0.131665448               0.000000000              -0.383522833              -0.140971207               0.000000000              -0.406818266              -0.150276966               0.000000000              -0.430113700              -0.159582724               0.000000000              -0.453409133              -0.168888483               0.000000000              -0.476704567              -0.178194241               0.000000000              -0.500000000              -0.187500000               0.000000000              -0.122875978              -0.050896897               0.000000000              -0.146446229              -0.063340840               0.000000000              -0.170016481              -0.075784784               0.000000000              -0.193586732              -0.088228728               0.000000000              -0.217156983              -0.100672672               0.000000000              -0.240727235              -0.113116616               0.000000000              -0.264297486              -0.125560560               0.000000000              -0.287867738              -0.138004504               0.000000000              -0.311437989              -0.150448448               0.000000000              -0.335008240              -0.162892392               0.000000000              -0.358578492              -0.175336336               0.000000000              -0.382148743              -0.187780280               0.000000000              -0.405718994              -0.200224224               0.000000000              -0.429289246              -0.212668168               0.000000000              -0.452859497              -0.225112112               0.000000000              -0.476429749              -0.237556056               0.000000000              -0.500000000              -0.250000000               0.000000000              -0.117295528              -0.062695766               0.000000000              -0.141214558              -0.078308531               0.000000000              -0.165133587              -0.093921295               0.000000000              -0.189052617              -0.109534060               0.000000000              -0.212971646              -0.125146824               0.000000000              -0.236890676              -0.140759589               0.000000000              -0.260809705              -0.156372354               0.000000000              -0.284728735              -0.171985118               0.000000000              -0.308647764              -0.187597883               0.000000000              -0.332566794              -0.203210648               0.000000000              -0.356485823              -0.218823412               0.000000000              -0.380404853              -0.234436177               0.000000000              -0.404323882              -0.250048941               0.000000000              -0.428242912              -0.265661706               0.000000000              -0.452161941              -0.281274471               0.000000000              -0.476080971              -0.296887235               0.000000000              -0.500000000              -0.312500000               0.000000000              -0.110585458              -0.073890841               0.000000000              -0.134923867              -0.092710163               0.000000000              -0.159262276              -0.111529486               0.000000000              -0.183600685              -0.130348808               0.000000000              -0.207939094              -0.149168131               0.000000000              -0.232277503              -0.167987453               0.000000000              -0.256615912              -0.186806776               0.000000000              -0.280954320              -0.205626098               0.000000000              -0.305292729              -0.224445420               0.000000000              -0.329631138              -0.243264743               0.000000000              -0.353969547              -0.262084065               0.000000000              -0.378307956              -0.280903388               0.000000000              -0.402646365              -0.299722710               0.000000000              -0.426984773              -0.318542033               0.000000000              -0.451323182              -0.337361355               0.000000000              -0.475661591              -0.356180678               0.000000000              -0.500000000              -0.375000000               0.000000000              -0.102810390              -0.084374307               0.000000000              -0.127634741              -0.106444663               0.000000000              -0.152459092              -0.128515018               0.000000000              -0.177283442              -0.150585374               0.000000000              -0.202107793              -0.172655730               0.000000000              -0.226932143              -0.194726086               0.000000000              -0.251756494              -0.216796442               0.000000000              -0.276580845              -0.238866798               0.000000000              -0.301405195              -0.260937153               0.000000000              -0.326229546              -0.283007509               0.000000000              -0.351053896              -0.305077865               0.000000000              -0.375878247              -0.327148221               0.000000000              -0.400702598              -0.349218577               0.000000000              -0.425526948              -0.371288933               0.000000000              -0.450351299              -0.393359288               0.000000000              -0.475175649              -0.415429644               0.000000000              -0.500000000              -0.437500000               0.000000000              -0.094045202              -0.094045202               0.000000000              -0.119417377              -0.119417377               0.000000000              -0.144789552              -0.144789552               0.000000000              -0.170161727              -0.170161727               0.000000000              -0.195533901              -0.195533901               0.000000000              -0.220906076              -0.220906076               0.000000000              -0.246278251              -0.246278251               0.000000000              -0.271650426              -0.271650426               0.000000000              -0.297022601              -0.297022601               0.000000000              -0.322394776              -0.322394776               0.000000000              -0.347766951              -0.347766951               0.000000000              -0.373139126              -0.373139126               0.000000000              -0.398511300              -0.398511300               0.000000000              -0.423883475              -0.423883475               0.000000000              -0.449255650              -0.449255650               0.000000000              -0.474627825              -0.474627825               0.000000000              -0.500000000              -0.500000000               0.000000000              -0.084374307              -0.102810390               0.000000000              -0.106444663              -0.127634741               0.000000000              -0.128515018              -0.152459092               0.000000000              -0.150585374              -0.177283442               0.000000000              -0.172655730              -0.202107793               0.000000000              -0.194726086              -0.226932143               0.000000000              -0.216796442              -0.251756494               0.000000000              -0.238866798              -0.276580845               0.000000000              -0.260937153              -0.301405195               0.000000000              -0.283007509              -0.326229546               0.000000000              -0.305077865              -0.351053896               0.000000000              -0.327148221              -0.375878247               0.000000000              -0.349218577              -0.400702598               0.000000000              -0.371288933              -0.425526948               0.000000000              -0.393359288              -0.450351299               0.000000000              -0.415429644              -0.475175649               0.000000000              -0.437500000              -0.500000000               0.000000000              -0.073890841              -0.110585458               0.000000000              -0.092710163              -0.134923867               0.000000000              -0.111529486              -0.159262276               0.000000000              -0.130348808              -0.183600685               0.000000000              -0.149168131              -0.207939094               0.000000000              -0.167987453              -0.232277503               0.000000000              -0.186806776              -0.256615912               0.000000000              -0.205626098              -0.280954320               0.000000000              -0.224445420              -0.305292729               0.000000000              -0.243264743              -0.329631138               0.000000000              -0.262084065              -0.353969547               0.000000000              -0.280903388              -0.378307956               0.000000000              -0.299722710              -0.402646365               0.000000000              -0.318542033              -0.426984773               0.000000000              -0.337361355              -0.451323182               0.000000000              -0.356180678              -0.475661591               0.000000000              -0.375000000              -0.500000000               0.000000000              -0.062695766              -0.117295528               0.000000000              -0.078308531              -0.141214558               0.000000000              -0.093921295              -0.165133587               0.000000000              -0.109534060              -0.189052617               0.000000000              -0.125146824              -0.212971646               0.000000000              -0.140759589              -0.236890676               0.000000000              -0.156372354              -0.260809705               0.000000000              -0.171985118              -0.284728735               0.000000000              -0.187597883              -0.308647764               0.000000000              -0.203210648              -0.332566794               0.000000000              -0.218823412              -0.356485823               0.000000000              -0.234436177              -0.380404853               0.000000000              -0.250048941              -0.404323882               0.000000000              -0.265661706              -0.428242912               0.000000000              -0.281274471              -0.452161941               0.000000000              -0.296887235              -0.476080971               0.000000000              -0.312500000              -0.500000000               0.000000000              -0.050896897              -0.122875978               0.000000000              -0.063340840              -0.146446229               0.000000000              -0.075784784              -0.170016481               0.000000000              -0.088228728              -0.193586732               0.000000000              -0.100672672              -0.217156983               0.000000000              -0.113116616              -0.240727235               0.000000000              -0.125560560              -0.264297486               0.000000000              -0.138004504              -0.287867738               0.000000000              -0.150448448              -0.311437989               0.000000000              -0.162892392              -0.335008240               0.000000000              -0.175336336              -0.358578492               0.000000000              -0.187780280              -0.382148743               0.000000000              -0.200224224              -0.405718994               0.000000000              -0.212668168              -0.429289246               0.000000000              -0.225112112              -0.452859497               0.000000000              -0.237556056              -0.476429749               0.000000000              -0.250000000              -0.500000000               0.000000000              -0.038607862              -0.127273065               0.000000000              -0.047913621              -0.150568498               0.000000000              -0.057219379              -0.173863932               0.000000000              -0.066525138              -0.197159365               0.000000000              -0.075830897              -0.220454798               0.000000000              -0.085136655              -0.243750232               0.000000000              -0.094442414              -0.267045665               0.000000000              -0.103748172              -0.290341099               0.000000000              -0.113053931              -0.313636532               0.000000000              -0.122359690              -0.336931966               0.000000000              -0.131665448              -0.360227399               0.000000000              -0.140971207              -0.383522833               0.000000000              -0.150276966              -0.406818266               0.000000000              -0.159582724              -0.430113700               0.000000000              -0.168888483              -0.453409133               0.000000000              -0.178194241              -0.476704567               0.000000000              -0.187500000              -0.500000000               0.000000000              -0.025947013              -0.130444442               0.000000000              -0.032137825              -0.153541665               0.000000000              -0.038328636              -0.176638887               0.000000000              -0.044519448              -0.199736109               0.000000000              -0.050710260              -0.222833332               0.000000000              -0.056901071              -0.245930554               0.000000000              -0.063091883              -0.269027776               0.000000000              -0.069282695              -0.292124999               0.000000000              -0.075473506              -0.315222221               0.000000000              -0.081664318              -0.338319444               0.000000000              -0.087855130              -0.361416666               0.000000000              -0.094045942              -0.384513888               0.000000000              -0.100236753              -0.407611111               0.000000000              -0.106427565              -0.430708333               0.000000000              -0.112618377              -0.453805555               0.000000000              -0.118809188              -0.476902778               0.000000000              -0.125000000              -0.500000000               0.000000000              -0.013036280              -0.132359569               0.000000000              -0.016127762              -0.155337096               0.000000000              -0.019219245              -0.178314623               0.000000000              -0.022310727              -0.201292150               0.000000000              -0.025402210              -0.224269676               0.000000000              -0.028493692              -0.247247203               0.000000000              -0.031585175              -0.270224730               0.000000000              -0.034676657              -0.293202257               0.000000000              -0.037768140              -0.316179784               0.000000000              -0.040859622              -0.339157311               0.000000000              -0.043951105              -0.362134838               0.000000000              -0.047042587              -0.385112365               0.000000000              -0.050134070              -0.408089892               0.000000000              -0.053225552              -0.431067419               0.000000000              -0.056317035              -0.454044946               0.000000000              -0.059408517              -0.477022473               0.000000000              -0.062500000              -0.500000000               0.000000000               0.000000000              -0.133000000               0.000000000               0.000000000              -0.155937500               0.000000000               0.000000000              -0.178875000               0.000000000               0.000000000              -0.201812500               0.000000000               0.000000000              -0.224750000               0.000000000               0.000000000              -0.247687500               0.000000000               0.000000000              -0.270625000               0.000000000               0.000000000              -0.293562500               0.000000000               0.000000000              -0.316500000               0.000000000               0.000000000              -0.339437500               0.000000000               0.000000000              -0.362375000               0.000000000               0.000000000              -0.385312500               0.000000000               0.000000000              -0.408250000               0.000000000               0.000000000              -0.431187500               0.000000000               0.000000000              -0.454125000               0.000000000               0.000000000              -0.477062500               0.000000000               0.000000000              -0.500000000               0.000000000              -0.133000000               0.000000000               0.000000000              -0.155937500               0.000000000               0.000000000              -0.178875000               0.000000000               0.000000000              -0.201812500               0.000000000               0.000000000              -0.224750000               0.000000000               0.000000000              -0.247687500               0.000000000               0.000000000              -0.270625000               0.000000000               0.000000000              -0.293562500               0.000000000               0.000000000              -0.316500000               0.000000000               0.000000000              -0.339437500               0.000000000               0.000000000              -0.362375000               0.000000000               0.000000000              -0.385312500               0.000000000               0.000000000              -0.408250000               0.000000000               0.000000000              -0.431187500               0.000000000               0.000000000              -0.454125000               0.000000000               0.000000000              -0.477062500               0.000000000               0.000000000              -0.500000000               0.000000000               0.000000000              -0.132359569               0.013036280               0.000000000              -0.155337096               0.016127762               0.000000000              -0.178314623               0.019219245               0.000000000              -0.201292150               0.022310727               0.000000000              -0.224269676               0.025402210               0.000000000              -0.247247203               0.028493692               0.000000000              -0.270224730               0.031585175               0.000000000              -0.293202257               0.034676657               0.000000000              -0.316179784               0.037768140               0.000000000              -0.339157311               0.040859622               0.000000000              -0.362134838               0.043951105               0.000000000              -0.385112365               0.047042587               0.000000000              -0.408089892               0.050134070               0.000000000              -0.431067419               0.053225552               0.000000000              -0.454044946               0.056317035               0.000000000              -0.477022473               0.059408517               0.000000000              -0.500000000               0.062500000               0.000000000              -0.130444442               0.025947013               0.000000000              -0.153541665               0.032137825               0.000000000              -0.176638887               0.038328636               0.000000000              -0.199736109               0.044519448               0.000000000              -0.222833332               0.050710260               0.000000000              -0.245930554               0.056901071               0.000000000              -0.269027776               0.063091883               0.000000000              -0.292124999               0.069282695               0.000000000              -0.315222221               0.075473506               0.000000000              -0.338319444               0.081664318               0.000000000              -0.361416666               0.087855130               0.000000000              -0.384513888               0.094045942               0.000000000              -0.407611111               0.100236753               0.000000000              -0.430708333               0.106427565               0.000000000              -0.453805555               0.112618377               0.000000000              -0.476902778               0.118809188               0.000000000              -0.500000000               0.125000000               0.000000000              -0.127273065               0.038607862               0.000000000              -0.150568498               0.047913621               0.000000000              -0.173863932               0.057219379               0.000000000              -0.197159365               0.066525138               0.000000000              -0.220454798               0.075830897               0.000000000              -0.243750232               0.085136655               0.000000000              -0.267045665               0.094442414               0.000000000              -0.290341099               0.103748172               0.000000000              -0.313636532               0.113053931               0.000000000              -0.336931966               0.122359690               0.000000000              -0.360227399               0.131665448               0.000000000              -0.383522833               0.140971207               0.000000000              -0.406818266               0.150276966               0.000000000              -0.430113700               0.159582724               0.000000000              -0.453409133               0.168888483               0.000000000              -0.476704567               0.178194241               0.000000000              -0.500000000               0.187500000               0.000000000              -0.122875978               0.050896897               0.000000000              -0.146446229               0.063340840               0.000000000              -0.170016481               0.075784784               0.000000000              -0.193586732               0.088228728               0.000000000              -0.217156983               0.100672672               0.000000000              -0.240727235               0.113116616               0.000000000              -0.264297486               0.125560560               0.000000000              -0.287867738               0.138004504               0.000000000              -0.311437989               0.150448448               0.000000000              -0.335008240               0.162892392               0.000000000              -0.358578492               0.175336336               0.000000000              -0.382148743               0.187780280               0.000000000              -0.405718994               0.200224224               0.000000000              -0.429289246               0.212668168               0.000000000              -0.452859497               0.225112112               0.000000000              -0.476429749               0.237556056               0.000000000              -0.500000000               0.250000000               0.000000000              -0.117295528               0.062695766               0.000000000              -0.141214558               0.078308531               0.000000000              -0.165133587               0.093921295               0.000000000              -0.189052617               0.109534060               0.000000000              -0.212971646               0.125146824               0.000000000              -0.236890676               0.140759589               0.000000000              -0.260809705               0.156372354               0.000000000              -0.284728735               0.171985118               0.000000000              -0.308647764               0.187597883               0.000000000              -0.332566794               0.203210648               0.000000000              -0.356485823               0.218823412               0.000000000              -0.380404853               0.234436177               0.000000000              -0.404323882               0.250048941               0.000000000              -0.428242912               0.265661706               0.000000000              -0.452161941               0.281274471               0.000000000              -0.476080971               0.296887235               0.000000000              -0.500000000               0.312500000               0.000000000              -0.110585458               0.073890841               0.000000000              -0.134923867               0.092710163               0.000000000              -0.159262276               0.111529486               0.000000000              -0.183600685               0.130348808               0.000000000              -0.207939094               0.149168131               0.000000000              -0.232277503               0.167987453               0.000000000              -0.256615912               0.186806776               0.000000000              -0.280954320               0.205626098               0.000000000              -0.305292729               0.224445420               0.000000000              -0.329631138               0.243264743               0.000000000              -0.353969547               0.262084065               0.000000000              -0.378307956               0.280903388               0.000000000              -0.402646365               0.299722710               0.000000000              -0.426984773               0.318542033               0.000000000              -0.451323182               0.337361355               0.000000000              -0.475661591               0.356180678               0.000000000              -0.500000000               0.375000000               0.000000000              -0.102810390               0.084374307               0.000000000              -0.127634741               0.106444663               0.000000000              -0.152459092               0.128515018               0.000000000              -0.177283442               0.150585374               0.000000000              -0.202107793               0.172655730               0.000000000              -0.226932143               0.194726086               0.000000000              -0.251756494               0.216796442               0.000000000              -0.276580845               0.238866798               0.000000000              -0.301405195               0.260937153               0.000000000              -0.326229546               0.283007509               0.000000000              -0.351053896               0.305077865               0.000000000              -0.375878247               0.327148221               0.000000000              -0.400702598               0.349218577               0.000000000              -0.425526948               0.371288933               0.000000000              -0.450351299               0.393359288               0.000000000              -0.475175649               0.415429644               0.000000000              -0.500000000               0.437500000               0.000000000              -0.094045202               0.094045202               0.000000000              -0.119417377               0.119417377               0.000000000              -0.144789552               0.144789552               0.000000000              -0.170161727               0.170161727               0.000000000              -0.195533901               0.195533901               0.000000000              -0.220906076               0.220906076               0.000000000              -0.246278251               0.246278251               0.000000000              -0.271650426               0.271650426               0.000000000              -0.297022601               0.297022601               0.000000000              -0.322394776               0.322394776               0.000000000              -0.347766951               0.347766951               0.000000000              -0.373139126               0.373139126               0.000000000              -0.398511300               0.398511300               0.000000000              -0.423883475               0.423883475               0.000000000              -0.449255650               0.449255650               0.000000000              -0.474627825               0.474627825               0.000000000              -0.500000000               0.500000000               0.000000000              -0.084374307               0.102810390               0.000000000              -0.106444663               0.127634741               0.000000000              -0.128515018               0.152459092               0.000000000              -0.150585374               0.177283442               0.000000000              -0.172655730               0.202107793               0.000000000              -0.194726086               0.226932143               0.000000000              -0.216796442               0.251756494               0.000000000              -0.238866798               0.276580845               0.000000000              -0.260937153               0.301405195               0.000000000              -0.283007509               0.326229546               0.000000000              -0.305077865               0.351053896               0.000000000              -0.327148221               0.375878247               0.000000000              -0.349218577               0.400702598               0.000000000              -0.371288933               0.425526948               0.000000000              -0.393359288               0.450351299               0.000000000              -0.415429644               0.475175649               0.000000000              -0.437500000               0.500000000               0.000000000              -0.073890841               0.110585458               0.000000000              -0.092710163               0.134923867               0.000000000              -0.111529486               0.159262276               0.000000000              -0.130348808               0.183600685               0.000000000              -0.149168131               0.207939094               0.000000000              -0.167987453               0.232277503               0.000000000              -0.186806776               0.256615912               0.000000000              -0.205626098               0.280954320               0.000000000              -0.224445420               0.305292729               0.000000000              -0.243264743               0.329631138               0.000000000              -0.262084065               0.353969547               0.000000000              -0.280903388               0.378307956               0.000000000              -0.299722710               0.402646365               0.000000000              -0.318542033               0.426984773               0.000000000              -0.337361355               0.451323182               0.000000000              -0.356180678               0.475661591               0.000000000              -0.375000000               0.500000000               0.000000000              -0.062695766               0.117295528               0.000000000              -0.078308531               0.141214558               0.000000000              -0.093921295               0.165133587               0.000000000              -0.109534060               0.189052617               0.000000000              -0.125146824               0.212971646               0.000000000              -0.140759589               0.236890676               0.000000000              -0.156372354               0.260809705               0.000000000              -0.171985118               0.284728735               0.000000000              -0.187597883               0.308647764               0.000000000              -0.203210648               0.332566794               0.000000000              -0.218823412               0.356485823               0.000000000              -0.234436177               0.380404853               0.000000000              -0.250048941               0.404323882               0.000000000              -0.265661706               0.428242912               0.000000000              -0.281274471               0.452161941               0.000000000              -0.296887235               0.476080971               0.000000000              -0.312500000               0.500000000               0.000000000              -0.050896897               0.122875978               0.000000000              -0.063340840               0.146446229               0.000000000              -0.075784784               0.170016481               0.000000000              -0.088228728               0.193586732               0.000000000              -0.100672672               0.217156983               0.000000000              -0.113116616               0.240727235               0.000000000              -0.125560560               0.264297486               0.000000000              -0.138004504               0.287867738               0.000000000              -0.150448448               0.311437989               0.000000000              -0.162892392               0.335008240               0.000000000              -0.175336336               0.358578492               0.000000000              -0.187780280               0.382148743               0.000000000              -0.200224224               0.405718994               0.000000000              -0.212668168               0.429289246               0.000000000              -0.225112112               0.452859497               0.000000000              -0.237556056               0.476429749               0.000000000              -0.250000000               0.500000000               0.000000000              -0.038607862               0.127273065               0.000000000              -0.047913621               0.150568498               0.000000000              -0.057219379               0.173863932               0.000000000              -0.066525138               0.197159365               0.000000000              -0.075830897               0.220454798               0.000000000              -0.085136655               0.243750232               0.000000000              -0.094442414               0.267045665               0.000000000              -0.103748172               0.290341099               0.000000000              -0.113053931               0.313636532               0.000000000              -0.122359690               0.336931966               0.000000000              -0.131665448               0.360227399               0.000000000              -0.140971207               0.383522833               0.000000000              -0.150276966               0.406818266               0.000000000              -0.159582724               0.430113700               0.000000000              -0.168888483               0.453409133               0.000000000              -0.178194241               0.476704567               0.000000000              -0.187500000               0.500000000               0.000000000              -0.025947013               0.130444442               0.000000000              -0.032137825               0.153541665               0.000000000              -0.038328636               0.176638887               0.000000000              -0.044519448               0.199736109               0.000000000              -0.050710260               0.222833332               0.000000000              -0.056901071               0.245930554               0.000000000              -0.063091883               0.269027776               0.000000000              -0.069282695               0.292124999               0.000000000              -0.075473506               0.315222221               0.000000000              -0.081664318               0.338319444               0.000000000              -0.087855130               0.361416666               0.000000000              -0.094045942               0.384513888               0.000000000              -0.100236753               0.407611111               0.000000000              -0.106427565               0.430708333               0.000000000              -0.112618377               0.453805555               0.000000000              -0.118809188               0.476902778               0.000000000              -0.125000000               0.500000000               0.000000000              -0.013036280               0.132359569               0.000000000              -0.016127762               0.155337096               0.000000000              -0.019219245               0.178314623               0.000000000              -0.022310727               0.201292150               0.000000000              -0.025402210               0.224269676               0.000000000              -0.028493692               0.247247203               0.000000000              -0.031585175               0.270224730               0.000000000              -0.034676657               0.293202257               0.000000000              -0.037768140               0.316179784               0.000000000              -0.040859622               0.339157311               0.000000000              -0.043951105               0.362134838               0.000000000              -0.047042587               0.385112365               0.000000000              -0.050134070               0.408089892               0.000000000              -0.053225552               0.431067419               0.000000000              -0.056317035               0.454044946               0.000000000              -0.059408517               0.477022473               0.000000000              -0.062500000               0.500000000               0.000000000               0.000000000               0.133000000               0.000000000               0.000000000               0.155937500               0.000000000               0.000000000               0.178875000               0.000000000               0.000000000               0.201812500               0.000000000               0.000000000               0.224750000               0.000000000               0.000000000               0.247687500               0.000000000               0.000000000               0.270625000               0.000000000               0.000000000               0.293562500               0.000000000               0.000000000               0.316500000               0.000000000               0.000000000               0.339437500               0.000000000               0.000000000               0.362375000               0.000000000               0.000000000               0.385312500               0.000000000               0.000000000               0.408250000               0.000000000               0.000000000               0.431187500               0.000000000               0.000000000               0.454125000               0.000000000               0.000000000               0.477062500               0.000000000               0.000000000               0.500000000               0.000000000 </DataArray>
</Points>
<Cells>
<DataArray type="Int32"                                    Name="connectivity"                                                      NumberOfComponents=" 1" format="ascii">
         0          1         18         17          1          2         19         18          2          3         20         19          3          4         21         20          4          5         22         21          5          6         23         22          6          7         24         23          7          8         25         24          8          9         26         25          9         10         27         26         10         11         28         27         11         12         29         28         12         13         30         29         13         14         31         30         14         15         32         31         15         16         33         32         17         18         35         34         18         19         36         35         19         20         37         36         20         21         38         37         21         22         39         38         22         23         40         39         23         24         41         40         24         25         42         41         25         26         43         42         26         27         44         43         27         28         45         44         28         29         46         45         29         30         47         46         30         31         48         47         31         32         49         48         32         33         50         49         34         35         52         51         35         36         53         52         36         37         54         53         37         38         55         54         38         39         56         55         39         40         57         56         40         41         58         57         41         42         59         58         42         43         60         59         43         44         61         60         44         45         62         61         45         46         63         62         46         47         64         63         47         48         65         64         48         49         66         65         49         50         67         66         51         52         69         68         52         53         70         69         53         54         71         70         54         55         72         71         55         56         73         72         56         57         74         73         57         58         75         74         58         59         76         75         59         60         77         76         60         61         78         77         61         62         79         78         62         63         80         79         63         64         81         80         64         65         82         81         65         66         83         82         66         67         84         83         68         69         86         85         69         70         87         86         70         71         88         87         71         72         89         88         72         73         90         89         73         74         91         90         74         75         92         91         75         76         93         92         76         77         94         93         77         78         95         94         78         79         96         95         79         80         97         96         80         81         98         97         81         82         99         98         82         83        100         99         83         84        101        100         85         86        103        102         86         87        104        103         87         88        105        104         88         89        106        105         89         90        107        106         90         91        108        107         91         92        109        108         92         93        110        109         93         94        111        110         94         95        112        111         95         96        113        112         96         97        114        113         97         98        115        114         98         99        116        115         99        100        117        116        100        101        118        117        102        103        120        119        103        104        121        120        104        105        122        121        105        106        123        122        106        107        124        123        107        108        125        124        108        109        126        125        109        110        127        126        110        111        128        127        111        112        129        128        112        113        130        129        113        114        131        130        114        115        132        131        115        116        133        132        116        117        134        133        117        118        135        134        119        120        137        136        120        121        138        137        121        122        139        138        122        123        140        139        123        124        141        140        124        125        142        141        125        126        143        142        126        127        144        143        127        128        145        144        128        129        146        145        129        130        147        146        130        131        148        147        131        132        149        148        132        133        150        149        133        134        151        150        134        135        152        151        136        137        154        153        137        138        155        154        138        139        156        155        139        140        157        156        140        141        158        157        141        142        159        158        142        143        160        159        143        144        161        160        144        145        162        161        145        146        163        162        146        147        164        163        147        148        165        164        148        149        166        165        149        150        167        166        150        151        168        167        151        152        169        168        153        154        171        170        154        155        172        171        155        156        173        172        156        157        174        173        157        158        175        174        158        159        176        175        159        160        177        176        160        161        178        177        161        162        179        178        162        163        180        179        163        164        181        180        164        165        182        181        165        166        183        182        166        167        184        183        167        168        185        184        168        169        186        185        170        171        188        187        171        172        189        188        172        173        190        189        173        174        191        190        174        175        192        191        175        176        193        192        176        177        194        193        177        178        195        194        178        179        196        195        179        180        197        196        180        181        198        197        181        182        199        198        182        183        200        199        183        184        201        200        184        185        202        201        185        186        203        202        187        188        205        204        188        189        206        205        189        190        207        206        190        191        208        207        191        192        209        208        192        193        210        209        193        194        211        210        194        195        212        211        195        196        213        212        196        197        214        213        197        198        215        214        198        199        216        215        199        200        217        216        200        201        218        217        201        202        219        218        202        203        220        219        204        205        222        221        205        206        223        222        206        207        224        223        207        208        225        224        208        209        226        225        209        210        227        226        210        211        228        227        211        212        229        228        212        213        230        229        213        214        231        230        214        215        232        231        215        216        233        232        216        217        234        233        217        218        235        234        218        219        236        235        219        220        237        236        221        222        239        238        222        223        240        239        223        224        241        240        224        225        242        241        225        226        243        242        226        227        244        243        227        228        245        244        228        229        246        245        229        230        247        246        230        231        248        247        231        232        249        248        232        233        250        249        233        234        251        250        234        235        252        251        235        236        253        252        236        237        254        253        238        239        256        255        239        240        257        256        240        241        258        257        241        242        259        258        242        243        260        259        243        244        261        260        244        245        262        261        245        246        263        262        246        247        264        263        247        248        265        264        248        249        266        265        249        250        267        266        250        251        268        267        251        252        269        268        252        253        270        269        253        254        271        270        255        256        273        272        256        257        274        273        257        258        275        274        258        259        276        275        259        260        277        276        260        261        278        277        261        262        279        278        262        263        280        279        263        264        281        280        264        265        282        281        265        266        283        282        266        267        284        283        267        268        285        284        268        269        286        285        269        270        287        286        270        271        288        287        306        307          1          0        307        308          2          1        308        309          3          2        309        310          4          3        310        311          5          4        311        312          6          5        312        313          7          6        313        314          8          7        314        315          9          8        315        316         10          9        316        317         11         10        317        318         12         11        318        319         13         12        319        320         14         13        320        321         15         14        321        322         16         15        323        324        307        306        324        325        308        307        325        326        309        308        326        327        310        309        327        328        311        310        328        329        312        311        329        330        313        312        330        331        314        313        331        332        315        314        332        333        316        315        333        334        317        316        334        335        318        317        335        336        319        318        336        337        320        319        337        338        321        320        338        339        322        321        340        341        324        323        341        342        325        324        342        343        326        325        343        344        327        326        344        345        328        327        345        346        329        328        346        347        330        329        347        348        331        330        348        349        332        331        349        350        333        332        350        351        334        333        351        352        335        334        352        353        336        335        353        354        337        336        354        355        338        337        355        356        339        338        357        358        341        340        358        359        342        341        359        360        343        342        360        361        344        343        361        362        345        344        362        363        346        345        363        364        347        346        364        365        348        347        365        366        349        348        366        367        350        349        367        368        351        350        368        369        352        351        369        370        353        352        370        371        354        353        371        372        355        354        372        373        356        355        374        375        358        357        375        376        359        358        376        377        360        359        377        378        361        360        378        379        362        361        379        380        363        362        380        381        364        363        381        382        365        364        382        383        366        365        383        384        367        366        384        385        368        367        385        386        369        368        386        387        370        369        387        388        371        370        388        389        372        371        389        390        373        372        391        392        375        374        392        393        376        375        393        394        377        376        394        395        378        377        395        396        379        378        396        397        380        379        397        398        381        380        398        399        382        381        399        400        383        382        400        401        384        383        401        402        385        384        402        403        386        385        403        404        387        386        404        405        388        387        405        406        389        388        406        407        390        389        408        409        392        391        409        410        393        392        410        411        394        393        411        412        395        394        412        413        396        395        413        414        397        396        414        415        398        397        415        416        399        398        416        417        400        399        417        418        401        400        418        419        402        401        419        420        403        402        420        421        404        403        421        422        405        404        422        423        406        405        423        424        407        406        425        426        409        408        426        427        410        409        427        428        411        410        428        429        412        411        429        430        413        412        430        431        414        413        431        432        415        414        432        433        416        415        433        434        417        416        434        435        418        417        435        436        419        418        436        437        420        419        437        438        421        420        438        439        422        421        439        440        423        422        440        441        424        423        442        443        426        425        443        444        427        426        444        445        428        427        445        446        429        428        446        447        430        429        447        448        431        430        448        449        432        431        449        450        433        432        450        451        434        433        451        452        435        434        452        453        436        435        453        454        437        436        454        455        438        437        455        456        439        438        456        457        440        439        457        458        441        440        459        460        443        442        460        461        444        443        461        462        445        444        462        463        446        445        463        464        447        446        464        465        448        447        465        466        449        448        466        467        450        449        467        468        451        450        468        469        452        451        469        470        453        452        470        471        454        453        471        472        455        454        472        473        456        455        473        474        457        456        474        475        458        457        476        477        460        459        477        478        461        460        478        479        462        461        479        480        463        462        480        481        464        463        481        482        465        464        482        483        466        465        483        484        467        466        484        485        468        467        485        486        469        468        486        487        470        469        487        488        471        470        488        489        472        471        489        490        473        472        490        491        474        473        491        492        475        474        493        494        477        476        494        495        478        477        495        496        479        478        496        497        480        479        497        498        481        480        498        499        482        481        499        500        483        482        500        501        484        483        501        502        485        484        502        503        486        485        503        504        487        486        504        505        488        487        505        506        489        488        506        507        490        489        507        508        491        490        508        509        492        491        510        511        494        493        511        512        495        494        512        513        496        495        513        514        497        496        514        515        498        497        515        516        499        498        516        517        500        499        517        518        501        500        518        519        502        501        519        520        503        502        520        521        504        503        521        522        505        504        522        523        506        505        523        524        507        506        524        525        508        507        525        526        509        508        527        528        511        510        528        529        512        511        529        530        513        512        530        531        514        513        531        532        515        514        532        533        516        515        533        534        517        516        534        535        518        517        535        536        519        518        536        537        520        519        537        538        521        520        538        539        522        521        539        540        523        522        540        541        524        523        541        542        525        524        542        543        526        525        544        545        528        527        545        546        529        528        546        547        530        529        547        548        531        530        548        549        532        531        549        550        533        532        550        551        534        533        551        552        535        534        552        553        536        535        553        554        537        536        554        555        538        537        555        556        539        538        556        557        540        539        557        558        541        540        558        559        542        541        559        560        543        542        561        562        545        544        562        563        546        545        563        564        547        546        564        565        548        547        565        566        549        548        566        567        550        549        567        568        551        550        568        569        552        551        569        570        553        552        570        571        554        553        571        572        555        554        572        573        556        555        573        574        557        556        574        575        558        557        575        576        559        558        576        577        560        559        578        579        596        595        579        580        597        596        580        581        598        597        581        582        599        598        582        583        600        599        583        584        601        600        584        585        602        601        585        586        603        602        586        587        604        603        587        588        605        604        588        589        606        605        589        590        607        606        590        591        608        607        591        592        609        608        592        593        610        609        593        594        611        610        595        596        613        612        596        597        614        613        597        598        615        614        598        599        616        615        599        600        617        616        600        601        618        617        601        602        619        618        602        603        620        619        603        604        621        620        604        605        622        621        605        606        623        622        606        607        624        623        607        608        625        624        608        609        626        625        609        610        627        626        610        611        628        627        612        613        630        629        613        614        631        630        614        615        632        631        615        616        633        632        616        617        634        633        617        618        635        634        618        619        636        635        619        620        637        636        620        621        638        637        621        622        639        638        622        623        640        639        623        624        641        640        624        625        642        641        625        626        643        642        626        627        644        643        627        628        645        644        629        630        647        646        630        631        648        647        631        632        649        648        632        633        650        649        633        634        651        650        634        635        652        651        635        636        653        652        636        637        654        653        637        638        655        654        638        639        656        655        639        640        657        656        640        641        658        657        641        642        659        658        642        643        660        659        643        644        661        660        644        645        662        661        646        647        664        663        647        648        665        664        648        649        666        665        649        650        667        666        650        651        668        667        651        652        669        668        652        653        670        669        653        654        671        670        654        655        672        671        655        656        673        672        656        657        674        673        657        658        675        674        658        659        676        675        659        660        677        676        660        661        678        677        661        662        679        678        663        664        681        680        664        665        682        681        665        666        683        682        666        667        684        683        667        668        685        684        668        669        686        685        669        670        687        686        670        671        688        687        671        672        689        688        672        673        690        689        673        674        691        690        674        675        692        691        675        676        693        692        676        677        694        693        677        678        695        694        678        679        696        695        680        681        698        697        681        682        699        698        682        683        700        699        683        684        701        700        684        685        702        701        685        686        703        702        686        687        704        703        687        688        705        704        688        689        706        705        689        690        707        706        690        691        708        707        691        692        709        708        692        693        710        709        693        694        711        710        694        695        712        711        695        696        713        712        697        698        715        714        698        699        716        715        699        700        717        716        700        701        718        717        701        702        719        718        702        703        720        719        703        704        721        720        704        705        722        721        705        706        723        722        706        707        724        723        707        708        725        724        708        709        726        725        709        710        727        726        710        711        728        727        711        712        729        728        712        713        730        729        714        715        732        731        715        716        733        732        716        717        734        733        717        718        735        734        718        719        736        735        719        720        737        736        720        721        738        737        721        722        739        738        722        723        740        739        723        724        741        740        724        725        742        741        725        726        743        742        726        727        744        743        727        728        745        744        728        729        746        745        729        730        747        746        731        732        749        748        732        733        750        749        733        734        751        750        734        735        752        751        735        736        753        752        736        737        754        753        737        738        755        754        738        739        756        755        739        740        757        756        740        741        758        757        741        742        759        758        742        743        760        759        743        744        761        760        744        745        762        761        745        746        763        762        746        747        764        763        748        749        766        765        749        750        767        766        750        751        768        767        751        752        769        768        752        753        770        769        753        754        771        770        754        755        772        771        755        756        773        772        756        757        774        773        757        758        775        774        758        759        776        775        759        760        777        776        760        761        778        777        761        762        779        778        762        763        780        779        763        764        781        780        765        766        783        782        766        767        784        783        767        768        785        784        768        769        786        785        769        770        787        786        770        771        788        787        771        772        789        788        772        773        790        789        773        774        791        790        774        775        792        791        775        776        793        792        776        777        794        793        777        778        795        794        778        779        796        795        779        780        797        796        780        781        798        797        782        783        800        799        783        784        801        800        784        785        802        801        785        786        803        802        786        787        804        803        787        788        805        804        788        789        806        805        789        790        807        806        790        791        808        807        791        792        809        808        792        793        810        809        793        794        811        810        794        795        812        811        795        796        813        812        796        797        814        813        797        798        815        814        799        800        817        816        800        801        818        817        801        802        819        818        802        803        820        819        803        804        821        820        804        805        822        821        805        806        823        822        806        807        824        823        807        808        825        824        808        809        826        825        809        810        827        826        810        811        828        827        811        812        829        828        812        813        830        829        813        814        831        830        814        815        832        831        816        817        834        833        817        818        835        834        818        819        836        835        819        820        837        836        820        821        838        837        821        822        839        838        822        823        840        839        823        824        841        840        824        825        842        841        825        826        843        842        826        827        844        843        827        828        845        844        828        829        846        845        829        830        847        846        830        831        848        847        831        832        849        848        833        834        562        561        834        835        563        562        835        836        564        563        836        837        565        564        837        838        566        565        838        839        567        566        839        840        568        567        840        841        569        568        841        842        570        569        842        843        571        570        843        844        572        571        844        845        573        572        845        846        574        573        846        847        575        574        847        848        576        575        848        849        577        576        884        885        579        578        885        886        580        579        886        887        581        580        887        888        582        581        888        889        583        582        889        890        584        583        890        891        585        584        891        892        586        585        892        893        587        586        893        894        588        587        894        895        589        588        895        896        590        589        896        897        591        590        897        898        592        591        898        899        593        592        899        900        594        593        901        902        885        884        902        903        886        885        903        904        887        886        904        905        888        887        905        906        889        888        906        907        890        889        907        908        891        890        908        909        892        891        909        910        893        892        910        911        894        893        911        912        895        894        912        913        896        895        913        914        897        896        914        915        898        897        915        916        899        898        916        917        900        899        918        919        902        901        919        920        903        902        920        921        904        903        921        922        905        904        922        923        906        905        923        924        907        906        924        925        908        907        925        926        909        908        926        927        910        909        927        928        911        910        928        929        912        911        929        930        913        912        930        931        914        913        931        932        915        914        932        933        916        915        933        934        917        916        935        936        919        918        936        937        920        919        937        938        921        920        938        939        922        921        939        940        923        922        940        941        924        923        941        942        925        924        942        943        926        925        943        944        927        926        944        945        928        927        945        946        929        928        946        947        930        929        947        948        931        930        948        949        932        931        949        950        933        932        950        951        934        933        952        953        936        935        953        954        937        936        954        955        938        937        955        956        939        938        956        957        940        939        957        958        941        940        958        959        942        941        959        960        943        942        960        961        944        943        961        962        945        944        962        963        946        945        963        964        947        946        964        965        948        947        965        966        949        948        966        967        950        949        967        968        951        950        969        970        953        952        970        971        954        953        971        972        955        954        972        973        956        955        973        974        957        956        974        975        958        957        975        976        959        958        976        977        960        959        977        978        961        960        978        979        962        961        979        980        963        962        980        981        964        963        981        982        965        964        982        983        966        965        983        984        967        966        984        985        968        967        986        987        970        969        987        988        971        970        988        989        972        971        989        990        973        972        990        991        974        973        991        992        975        974        992        993        976        975        993        994        977        976        994        995        978        977        995        996        979        978        996        997        980        979        997        998        981        980        998        999        982        981        999       1000        983        982       1000       1001        984        983       1001       1002        985        984       1003       1004        987        986       1004       1005        988        987       1005       1006        989        988       1006       1007        990        989       1007       1008        991        990       1008       1009        992        991       1009       1010        993        992       1010       1011        994        993       1011       1012        995        994       1012       1013        996        995       1013       1014        997        996       1014       1015        998        997       1015       1016        999        998       1016       1017       1000        999       1017       1018       1001       1000       1018       1019       1002       1001       1020       1021       1004       1003       1021       1022       1005       1004       1022       1023       1006       1005       1023       1024       1007       1006       1024       1025       1008       1007       1025       1026       1009       1008       1026       1027       1010       1009       1027       1028       1011       1010       1028       1029       1012       1011       1029       1030       1013       1012       1030       1031       1014       1013       1031       1032       1015       1014       1032       1033       1016       1015       1033       1034       1017       1016       1034       1035       1018       1017       1035       1036       1019       1018       1037       1038       1021       1020       1038       1039       1022       1021       1039       1040       1023       1022       1040       1041       1024       1023       1041       1042       1025       1024       1042       1043       1026       1025       1043       1044       1027       1026       1044       1045       1028       1027       1045       1046       1029       1028       1046       1047       1030       1029       1047       1048       1031       1030       1048       1049       1032       1031       1049       1050       1033       1032       1050       1051       1034       1033       1051       1052       1035       1034       1052       1053       1036       1035       1054       1055       1038       1037       1055       1056       1039       1038       1056       1057       1040       1039       1057       1058       1041       1040       1058       1059       1042       1041       1059       1060       1043       1042       1060       1061       1044       1043       1061       1062       1045       1044       1062       1063       1046       1045       1063       1064       1047       1046       1064       1065       1048       1047       1065       1066       1049       1048       1066       1067       1050       1049       1067       1068       1051       1050       1068       1069       1052       1051       1069       1070       1053       1052       1071       1072       1055       1054       1072       1073       1056       1055       1073       1074       1057       1056       1074       1075       1058       1057       1075       1076       1059       1058       1076       1077       1060       1059       1077       1078       1061       1060       1078       1079       1062       1061       1079       1080       1063       1062       1080       1081       1064       1063       1081       1082       1065       1064       1082       1083       1066       1065       1083       1084       1067       1066       1084       1085       1068       1067       1085       1086       1069       1068       1086       1087       1070       1069       1088       1089       1072       1071       1089       1090       1073       1072       1090       1091       1074       1073       1091       1092       1075       1074       1092       1093       1076       1075       1093       1094       1077       1076       1094       1095       1078       1077       1095       1096       1079       1078       1096       1097       1080       1079       1097       1098       1081       1080       1098       1099       1082       1081       1099       1100       1083       1082       1100       1101       1084       1083       1101       1102       1085       1084       1102       1103       1086       1085       1103       1104       1087       1086       1105       1106       1089       1088       1106       1107       1090       1089       1107       1108       1091       1090       1108       1109       1092       1091       1109       1110       1093       1092       1110       1111       1094       1093       1111       1112       1095       1094       1112       1113       1096       1095       1113       1114       1097       1096       1114       1115       1098       1097       1115       1116       1099       1098       1116       1117       1100       1099       1117       1118       1101       1100       1118       1119       1102       1101       1119       1120       1103       1102       1120       1121       1104       1103       1122       1123       1106       1105       1123       1124       1107       1106       1124       1125       1108       1107       1125       1126       1109       1108       1126       1127       1110       1109       1127       1128       1111       1110       1128       1129       1112       1111       1129       1130       1113       1112       1130       1131       1114       1113       1131       1132       1115       1114       1132       1133       1116       1115       1133       1134       1117       1116       1134       1135       1118       1117       1135       1136       1119       1118       1136       1137       1120       1119       1137       1138       1121       1120        272        273       1123       1122        273        274       1124       1123        274        275       1125       1124        275        276       1126       1125        276        277       1127       1126        277        278       1128       1127        278        279       1129       1128        279        280       1130       1129        280        281       1131       1130        281        282       1132       1131        282        283       1133       1132        283        284       1134       1133        284        285       1135       1134        285        286       1136       1135        286        287       1137       1136        287        288       1138       1137 </DataArray>
<DataArray type="Int32"                                    Name="offsets"                                                      NumberOfComponents=" 1" format="ascii">
         4          8         12         16         20         24         28         32         36         40         44         48         52         56         60         64         68         72         76         80         84         88         92         96        100        104        108        112        116        120        124        128        132        136        140        144        148        152        156        160        164        168        172        176        180        184        188        192        196        200        204        208        212        216        220        224        228        232        236        240        244        248        252        256        260        264        268        272        276        280        284        288        292        296        300        304        308        312        316        320        324        328        332        336        340        344        348        352        356        360        364        368        372        376        380        384        388        392        396        400        404        408        412        416        420        424        428        432        436        440        444        448        452        456        460        464        468        472        476        480        484        488        492        496        500        504        508        512        516        520        524        528        532        536        540        544        548        552        556        560        564        568        572        576        580        584        588        592        596        600        604        608        612        616        620        624        628        632        636        640        644        648        652        656        660        664        668        672        676        680        684        688        692        696        700        704        708        712        716        720        724        728        732        736        740        744        748        752        756        760        764        768        772        776        780        784        788        792        796        800        804        808        812        816        820        824        828        832        836        840        844        848        852        856        860        864        868        872        876        880        884        888        892        896        900        904        908        912        916        920        924        928        932        936        940        944        948        952        956        960        964        968        972        976        980        984        988        992        996       1000       1004       1008       1012       1016       1020       1024       1028       1032       1036       1040       1044       1048       1052       1056       1060       1064       1068       1072       1076       1080       1084       1088       1092       1096       1100       1104       1108       1112       1116       1120       1124       1128       1132       1136       1140       1144       1148       1152       1156       1160       1164       1168       1172       1176       1180       1184       1188       1192       1196       1200       1204       1208       1212       1216       1220       1224       1228       1232       1236       1240       1244       1248       1252       1256       1260       1264       1268       1272       1276       1280       1284       1288       1292       1296       1300       1304       1308       1312       1316       1320       1324       1328       1332       1336       1340       1344       1348       1352       1356       1360       1364       1368       1372       1376       1380       1384       1388       1392       1396       1400       1404       1408       1412       1416       1420       1424       1428       1432       1436       1440       1444       1448       1452       1456       1460       1464       1468       1472       1476       1480       1484       1488       1492       1496       1500       1504       1508       1512       1516       1520       1524       1528       1532       1536       1540       1544       1548       1552       1556       1560       1564       1568       1572       1576       1580       1584       1588       1592       1596       1600       1604       1608       1612       1616       1620       1624       1628       1632       1636       1640       1644       1648       1652       1656       1660       1664       1668       1672       1676       1680       1684       1688       1692       1696       1700       1704       1708       1712       1716       1720       1724       1728       1732       1736       1740       1744       1748       1752       1756       1760       1764       1768       1772       1776       1780       1784       1788       1792       1796       1800       1804       1808       1812       1816       1820       1824       1828       1832       1836       1840       1844       1848       1852       1856       1860       1864       1868       1872       1876       1880       1884       1888       1892       1896       1900       1904       1908       1912       1916       1920       1924       1928       1932       1936       1940       1944       1948       1952       1956       1960       1964       1968       1972       1976       1980       1984       1988       1992       1996       2000       2004       2008       2012       2016       2020       2024       2028       2032       2036       2040       2044       2048       2052       2056       2060       2064       2068       2072       2076       2080       2084       2088       2092       2096       2100       2104       2108       2112       2116       2120       2124       2128       2132       2136       2140       2144       2148       2152       2156       2160       2164       2168       2172       2176       2180       2184       2188       2192       2196       2200       2204       2208       2212       2216       2220       2224       2228       2232       2236       2240       2244       2248       2252       2256       2260       2264       2268       2272       2276       2280       2284       2288       2292       2296       2300       2304       2308       2312       2316       2320       2324       2328       2332       2336       2340       2344       2348       2352       2356       2360       2364       2368       2372       2376       2380       2384       2388       2392       2396       2400       2404       2408       2412       2416       2420       2424       2428       2432       2436       2440       2444       2448       2452       2456       2460       2464       2468       2472       2476       2480       2484       2488       2492       2496       2500       2504       2508       2512       2516       2520       2524       2528       2532       2536       2540       2544       2548       2552       2556       2560       2564       2568       2572       2576       2580       2584       2588       2592       2596       2600       2604       2608       2612       2616       2620       2624       2628       2632       2636       2640       2644       2648       2652       2656       2660       2664       2668       2672       2676       2680       2684       2688       2692       2696       2700       2704       2708       2712       2716       2720       2724       2728       2732       2736       2740       2744       2748       2752       2756       2760       2764       2768       2772       2776       2780       2784       2788       2792       2796       2800       2804       2808       2812       2816       2820       2824       2828       2832       2836       2840       2844       2848       2852       2856       2860       2864       2868       2872       2876       2880       2884       2888       2892       2896       2900       2904       2908       2912       2916       2920       2924       2928       2932       2936       2940       2944       2948       2952       2956       2960       2964       2968       2972       2976       2980       2984       2988       2992       2996       3000       3004       3008       3012       3016       3020       3024       3028       3032       3036       3040       3044       3048       3052       3056       3060       3064       3068       3072       3076       3080       3084       3088       3092       3096       3100       3104       3108       3112       3116       3120       3124       3128       3132       3136       3140       3144       3148       3152       3156       3160       3164       3168       3172       3176       3180       3184       3188       3192       3196       3200       3204       3208       3212       3216       3220       3224       3228       3232       3236       3240       3244       3248       3252       3256       3260       3264       3268       3272       3276       3280       3284       3288       3292       3296       3300       3304       3308       3312       3316       3320       3324       3328       3332       3336       3340       3344       3348       3352       3356       3360       3364       3368       3372       3376       3380       3384       3388       3392       3396       3400       3404       3408       3412       3416       3420       3424       3428       3432       3436       3440       3444       3448       3452       3456       3460       3464       3468       3472       3476       3480       3484       3488       3492       3496       3500       3504       3508       3512       3516       3520       3524       3528       3532       3536       3540       3544       3548       3552       3556       3560       3564       3568       3572       3576       3580       3584       3588       3592       3596       3600       3604       3608       3612       3616       3620       3624       3628       3632       3636       3640       3644       3648       3652       3656       3660       3664       3668       3672       3676       3680       3684       3688       3692       3696       3700       3704       3708       3712       3716       3720       3724       3728       3732       3736       3740       3744       3748       3752       3756       3760       3764       3768       3772       3776       3780       3784       3788       3792       3796       3800       3804       3808       3812       3816       3820       3824       3828       3832       3836       3840       3844       3848       3852       3856       3860       3864       3868       3872       3876       3880       3884       3888       3892       3896       3900       3904       3908       3912       3916       3920       3924       3928       3932       3936       3940       3944       3948       3952       3956       3960       3964       3968       3972       3976       3980       3984       3988       3992       3996       4000       4004       4008       4012       4016       4020       4024       4028       4032       4036       4040       4044       4048       4052       4056       4060       4064       4068       4072       4076       4080       4084       4088       4092       4096 </DataArray>
<DataArray type="UInt8"                                    Name="types"                                                      NumberOfComponents=" 1" format="ascii">
         9          9          9          9          9          9          9          9          9          9          9          9          9          9          9          9          9          9          9          9          9          9          9          9          9          9          9          9          9          9          9          9          9          9          9          9          9          9          9          9          9          9          9          9          9          9          9          9          9          9          9          9          9          9          9          9          9          9          9          9          9          9          9          9          9          9          9          9          9          9          9          9          9          9          9          9          9          9          9          9          9          9          9          9          9          9          9          9          9          9          9          9          9          9          9          9          9          9          9          9          9          9          9          9          9          9          9          9          9          9          9          9          9          9          9          9          9          9          9          9          9          9          9          9          9          9          9          9          9          9          9          9          9          9          9          9          9          9          9          9          9          9          9          9          9          9          9          9          9          9          9          9          9          9          9          9          9          9          9          9          9          9          9          9          9          9          9          9          9          9          9          9          9          9          9          9          9          9          9          9          9          9          9          9          9          9          9          9          9          9          9          9          9          9          9          9          9          9          9          9          9          9          9          9          9          9          9          9          9          9          9          9          9          9          9          9          9          9          9          9          9          9          9          9          9          9          9          9          9          9          9          9          9          9          9          9          9          9          9          9          9          9          9          9          9          9          9          9          9          9          9          9          9          9          9          9          9          9          9          9          9          9          9          9          9          9          9          9          9          9          9          9          9          9          9          9          9          9          9          9          9          9          9          9          9          9          9          9          9          9          9          9          9          9          9          9          9          9          9          9          9          9          9          9          9          9          9          9          9          9          9          9          9          9          9          9          9          9          9          9          9          9          9          9          9          9          9          9          9          9          9          9          9          9          9          9          9          9          9          9          9          9          9          9          9          9          9          9          9          9          9          9          9          9          9          9          9          9          9          9          9          9          9          9          9          9          9          9          9          9          9          9          9          9          9          9          9          9          9          9          9          9          9          9          9          9          9          9          9          9          9          9          9          9          9          9          9          9          9          9          9          9          9          9          9          9          9          9          9          9          9          9          9          9          9          9          9          9          9          9          9          9          9          9          9          9          9          9          9          9          9          9          9          9          9          9          9          9          9          9          9          9          9          9          9          9          9          9          9          9          9          9          9          9          9          9          9          9          9          9          9          9          9          9          9          9          9          9          9          9          9          9          9          9          9          9          9          9          9          9          9          9          9          9          9          9          9          9          9          9          9          9          9          9          9          9          9          9          9          9          9          9          9          9          9          9          9          9          9          9          9          9          9          9          9          9          9          9          9          9          9          9          9          9          9          9          9          9          9          9          9          9          9          9          9          9          9          9          9          9          9          9          9          9          9          9          9          9          9          9          9          9          9          9          9          9          9          9          9          9          9          9          9          9          9          9          9          9          9          9          9          9          9          9          9          9          9          9          9          9          9          9          9          9          9          9          9          9          9          9          9          9          9          9          9          9          9          9          9          9          9          9          9          9          9          9          9          9          9          9          9          9          9          9          9          9          9          9          9          9          9          9          9          9          9          9          9          9          9          9          9          9          9          9          9          9          9          9          9          9          9          9          9          9          9          9          9          9          9          9          9          9          9          9          9          9          9          9          9          9          9          9          9          9          9          9          9          9          9          9          9          9          9          9          9          9          9          9          9          9          9          9          9          9          9          9          9          9          9          9          9          9          9          9          9          9          9          9          9          9          9          9          9          9          9          9          9          9          9          9          9          9          9          9          9          9          9          9          9          9          9          9          9          9          9          9          9          9          9          9          9          9          9          9          9          9          9          9          9          9          9          9          9          9          9          9          9          9          9          9          9          9          9          9          9          9          9          9          9          9          9          9          9          9          9          9          9          9          9          9          9          9          9          9          9          9          9          9          9          9          9          9          9          9          9          9          9          9          9          9          9          9          9          9          9          9          9          9          9          9          9          9          9          9          9          9          9          9          9          9          9          9          9          9          9          9          9          9          9          9          9          9          9          9          9          9          9          9          9          9          9          9          9          9          9          9          9          9          9          9          9          9          9          9          9          9          9          9          9          9          9          9          9          9          9          9          9          9          9          9          9          9          9          9          9          9          9          9          9          9          9          9          9          9          9          9          9          9          9          9          9          9          9          9          9          9          9          9          9          9          9          9          9          9          9          9          9          9          9          9          9          9          9          9          9          9          9          9          9          9          9          9          9          9          9          9          9          9          9          9          9          9          9          9          9          9          9          9          9          9          9          9          9          9          9          9          9          9          9          9          9          9          9          9          9          9          9          9          9          9          9          9          9          9          9          9          9          9          9          9          9          9          9          9          9          9          9          9          9          9          9          9          9          9          9          9          9          9          9          9          9          9          9          9          9          9          9          9          9          9          9          9          9          9          9          9          9          9          9          9          9          9          9          9          9          9          9          9          9          9          9          9          9          9          9          9          9          9          9          9          9          9          9          9 </DataArray>
</Cells>
<CellData>
<DataArray type="Int32"                                    Name="material"                                                      NumberOfComponents=" 1" format="ascii">
         1          1          1          1          1          1          1          1          1          1          1          1          1          1          1          1          1          1          1          1          1          1          1          1          1          1          1          1          1          1          1          1          1          1          1          1          1          1          1          1          1          1          1          1          1          1          1          1          1          1          1          1          1          1          1          1          1          1          1          1          1          1          1          1          1          1          1          1          1          1          1          1          1          1          1          1          1          1          1          1          1          1          1          1          1          1          1          1          1          1          1          1          1          1          1          1          1          1          1          1          1          1          1          1          1          1          1          1          1          1          1          1          1          1          1          1          1          1          1          1          1          1          1          1          1          1          1          1          1          1          1          1          1          1          1          1          1          1          1          1          1          1          1          1          1          1          1          1          1          1          1          1          1          1          1          1          1          1          1          1          1          1          1          1          1          1          1          1          1          1          1          1          1          1          1          1          1          1          1          1          1          1          1          1          1          1          1          1          1          1          1          1          1          1          1          1          1          1          1          1          1          1          1          1          1          1          1          1          1          1          1          1          1          1          1          1          1          1          1          1          1          1          1          1          1          1          1          1          1          1          1          1          1          1          1          1          1          1          1          1          1          1          1          1          1          1          1          1          1          1          1          1          1          1          1          1          1          1          1          1          1          1          1          1          1          1          1          1          1          1          1          1          1          1          1          1          1          1          1          1          1          1          1          1          1          1          1          1          1          1          1          1          1          1          1          1          1          1          1          1          1          1          1          1          1          1          1          1          1          1          1          1          1          1          1          1          1          1          1          1          1          1          1          1          1          1          1          1          1          1          1          1          1          1          1          1          1          1          1          1          1          1          1          1          1          1          1          1          1          1          1          1          1          1          1          1          1          1          1          1          1          1          1          1          1          1          1          1          1          1          1          1          1          1          1          1          1          1          1          1          1          1          1          1          1          1          1          1          1          1          1          1          1          1          1          1          1          1          1          1          1          1          1          1          1          1          1          1          1          1          1          1          1          1          1          1          1          1          1          1          1          1          1          1          1          1          1          1          1          1          1          1          1          1          1          1          1          1          1          1          1          1          1          1          1          1          1          1          1          1          1          1          1          1          1          1          1          1          1          1          1          1          1          1          1          1          1          1          1          1          1          1          1          1          1          1          1          1          1          1          1          1          1          1          1          1          1          1          1          1          1          1          1          1          1          1          1          1          1          1          1          1          1          1          1          1          1          1          1          1          1          1          1          1          1          1          1          1          1          1          1          1          1          1          1          1          1          1          1          1          1          1          1          1          1          1          1          1          1          1          1          1          1          1          1          1          1          1          1          1          1          1          1          1          1          1          1          1          1          1          1          1          1          1          1          1          1          1          1          1          1          1          1          1          1          1          1          1          1          1          1          1          1          1          1          1          1          1          1          1          1          1          1          1          1          1          1          1          1          1          1          1          1          1          1          1          1          1          1          1          1          1          1          1          1          1          1          1          1          1          1          1          1          1          1          1          1          1          1          1          1          1          1          1          1          1          1          1          1          1          1          1          1          1          1          1          1          1          1          1          1          1          1          1          1          1          1          1          1          1          1          1          1          1          1          1          1          1          1          1          1          1          1          1          1          1          1          1          1          1          1          1          1          1          1          1          1          1          1          1          1          1          1          1          1          1          1          1          1          1          1          1          1          1          1          1          1          1          1          1          1          1          1          1          1          1          1          1          1          1          1          1          1          1          1          1          1          1          1          1          1          1          1          1          1          1          1          1          1          1          1          1          1          1          1          1          1          1          1          1          1          1          1          1          1          1          1          1          1          1          1          1          1          1          1          1          1          1          1          1          1          1          1          1          1          1          1          1          1          1          1          1          1          1          1          1          1          1          1          1          1          1          1          1          1          1          1          1          1          1          1          1          1          1          1          1          1          1          1          1          1          1          1          1          1          1          1          1          1          1          1          1          1          1          1          1          1          1          1          1          1          1          1          1          1          1          1          1          1          1          1          1          1          1          1          1          1          1          1          1          1          1          1          1          1          1          1          1          1          1          1          1          1          1          1          1          1          1          1          1          1          1          1          1          1          1          1          1          1          1          1          1          1          1          1          1          1          1          1          1          1          1          1          1          1          1          1          1          1          1          1          1          1          1          1          1          1          1          1          1          1          1          1          1          1          1          1          1          1          1          1          1          1          1          1          1          1          1          1          1          1          1          1          1          1          1          1          1          1          1          1          1          1          1          1          1          1          1          1          1          1          1          1          1          1          1          1          1          1          1          1          1          1          1          1          1          1          1          1          1          1          1          1          1          1          1          1          1          1          1          1          1          1          1          1          1          1          1          1          1          1          1          1          1          1          1          1          1          1          1          1          1          1          1          1          1          1          1          1          1          1          1          1          1          1          1          1          1          1          1          1          1          1          1 </DataArray>
</CellData>
<PointData>
<DataArray type="Float64"                                    Name="u"                                                      NumberOfComponents=" 3" format="ascii">
             -0.000665158              -0.000000000               0.999999984              -0.000713827               0.000000000               0.999999984              -0.000735011              -0.000000000               0.999999984              -0.000746714               0.000000000               0.999999984              -0.000755764               0.000000000               0.999999984              -0.000764837               0.000000000               0.999999984              -0.000774949               0.000000000               0.999999984              -0.000786251               0.000000000               0.999999984              -0.000798611               0.000000000               0.999999984              -0.000811740               0.000000000               0.999999984              -0.000825444              -0.000000000               0.999999984              -0.000839636              -0.000000000               0.999999984              -0.000854227              -0.000000000               0.999999984              -0.000868816               0.000000000               0.999999984              -0.000883037              -0.000000000               0.999999984              -0.000896345               0.000000000               0.999999984              -0.000907980              -0.000000000               0.999999984              -0.000661594               0.000125682               0.999999984              -0.000706655               0.000102763               0.999999984              -0.000725480               0.000092885               0.999999984              -0.000735693               0.000089807               0.999999984              -0.000743796               0.000090239               0.999999984              -0.000752166               0.000092582               0.999999984              -0.000761586               0.000095799               0.999999984              -0.000772241               0.000099280               0.999999984              -0.000783978               0.000102567               0.999999984              -0.000796437               0.000105279               0.999999984              -0.000809465               0.000107304               0.999999984              -0.000822798               0.000108551               0.999999984              -0.000836138               0.000108631               0.999999984              -0.000849258               0.000107174               0.999999984              -0.000861777               0.000103472               0.999999984              -0.000873298               0.000096984               0.999999984              -0.000883295               0.000086515               0.999999984              -0.000650580               0.000250280               0.999999984              -0.000685174               0.000204971               0.999999984              -0.000697654               0.000186449               0.999999984              -0.000704102               0.000181249               0.999999984              -0.000709801               0.000182847               0.999999984              -0.000716481               0.000187949               0.999999984              -0.000724547               0.000194651               0.999999984              -0.000733809               0.000201745               0.999999984              -0.000743980               0.000208326               0.999999984              -0.000754649               0.000213793               0.999999984              -0.000765455               0.000217873               0.999999984              -0.000776152               0.000220262               0.999999984              -0.000786474               0.000220499               0.999999984              -0.000796065               0.000217941               0.999999984              -0.000804633               0.000211533               0.999999984              -0.000811836               0.000200278               0.999999984              -0.000817335               0.000182949               0.999999984              -0.000632404               0.000372633               0.999999984              -0.000650674               0.000306237               0.999999984              -0.000654047               0.000281051               0.999999984              -0.000655419               0.000275337               0.999999984              -0.000658295               0.000279208               0.999999984              -0.000663126               0.000287696               0.999999984              -0.000669590               0.000298122               0.999999984              -0.000677111               0.000308900               0.999999984              -0.000685069               0.000318656               0.999999984              -0.000693023               0.000326816               0.999999984              -0.000700645               0.000332844               0.999999984              -0.000707519               0.000336407               0.999999984              -0.000713256               0.000337044               0.999999984              -0.000717582               0.000333960               0.999999984              -0.000720253               0.000325961               0.999999984              -0.000721093               0.000312253               0.999999984              -0.000720177               0.000292300               0.999999984              -0.000607681               0.000491576               0.999999984              -0.000604900               0.000406259               0.999999984              -0.000598115               0.000376833               0.999999984              -0.000594766               0.000372280               0.999999984              -0.000595289               0.000379390               0.999999984              -0.000598658               0.000391688               0.999999984              -0.000603695               0.000405938               0.999999984              -0.000609412               0.000420036               0.999999984              -0.000615015               0.000432737               0.999999984              -0.000619956               0.000443119               0.999999984              -0.000623600               0.000450752               0.999999984              -0.000625624               0.000455265               0.999999984              -0.000625655               0.000456277               0.999999984              -0.000623492               0.000452917               0.999999984              -0.000619051               0.000444403               0.999999984              -0.000612561               0.000430615               0.999999984              -0.000604534               0.000411677               0.999999984              -0.000576694               0.000606004               0.999999984              -0.000550115               0.000504943               0.999999984              -0.000534161               0.000473746               0.999999984              -0.000527479               0.000471681               0.999999984              -0.000526821               0.000482507               0.999999984              -0.000529602               0.000498660               0.999999984              -0.000533703               0.000516302               0.999999984              -0.000537701               0.000533204               0.999999984              -0.000540591               0.000548094               0.999999984              -0.000541700               0.000560293               0.999999984              -0.000540581               0.000569209               0.999999984              -0.000536958               0.000574472               0.999999984              -0.000530558               0.000575593               0.999999984              -0.000521282               0.000572153               0.999999984              -0.000509374               0.000563961               0.999999984              -0.000495498               0.000551512               0.999999984              -0.000480340               0.000535786               0.999999984              -0.000539989               0.000714737               0.999999984              -0.000489230               0.000602277               0.999999984              -0.000466329               0.000571348               0.999999984              -0.000458421               0.000572418               0.999999984              -0.000458243               0.000586858               0.999999984              -0.000461198               0.000606428               0.999999984              -0.000464622               0.000626816               0.999999984              -0.000466687               0.000645869               0.999999984              -0.000466327               0.000662432               0.999999984              -0.000463031               0.000675944               0.999999984              -0.000456411               0.000685879               0.999999984              -0.000446287               0.000691589               0.999999984              -0.000432643               0.000692673               0.999999984              -0.000415771               0.000689356               0.999999984              -0.000396404               0.000682168               0.999999984              -0.000375317               0.000672061               0.999999984              -0.000353191               0.000660054               0.999999984              -0.000498433               0.000816543               0.999999984              -0.000425129               0.000698061               0.999999984              -0.000398488               0.000668658               0.999999984              -0.000391934               0.000672711               0.999999984              -0.000393312               0.000690322               0.999999984              -0.000396872               0.000712613               0.999999984              -0.000399367               0.000735332               0.999999984              -0.000398929               0.000756060               0.999999984              -0.000394675               0.000773827               0.999999984              -0.000386169               0.000788179               0.999999984              -0.000373199               0.000798585               0.999999984              -0.000355752               0.000804286               0.999999984              -0.000334280               0.000805375               0.999999984              -0.000309643               0.000802751               0.999999984              -0.000282719               0.000797291               0.999999984              -0.000254341               0.000789909               0.999999984              -0.000225211               0.000781595               0.999999984              -0.000453372               0.000909652               0.999999984              -0.000360024               0.000792105               0.999999984              -0.000334262               0.000764333               0.999999984              -0.000330724               0.000770788               0.999999984              -0.000334387               0.000790804               0.999999984              -0.000338438               0.000815325               0.999999984              -0.000339339               0.000839920               0.999999984              -0.000335669               0.000862101               0.999999984              -0.000326671               0.000880710               0.999999984              -0.000312051               0.000895355               0.999999984              -0.000291734               0.000905580               0.999999984              -0.000266116               0.000911187               0.999999984              -0.000236294               0.000912829               0.999999984              -0.000203411               0.000911598               0.999999984              -0.000168632               0.000908552               0.999999984              -0.000132974               0.000904455               0.999999984              -0.000096936               0.000899975               0.999999984              -0.000406885               0.000997559               0.999999984              -0.000306081               0.000895986               0.999999984              -0.000277094               0.000863182               0.999999984              -0.000272435               0.000863278               0.999999984              -0.000275753               0.000878404               0.999999984              -0.000280265               0.000900068               0.999999984              -0.000282400               0.000923652               0.999999984              -0.000280696               0.000946652               0.999999984              -0.000274214               0.000967345               0.999999984              -0.000262439               0.000985235               0.999999984              -0.000245283               0.000999863               0.999999984              -0.000222745               0.001011069               0.999999984              -0.000195476               0.001018849               0.999999984              -0.000164053               0.001023853               0.999999984              -0.000129728               0.001026725               0.999999984              -0.000093548               0.001028403               0.999999984              -0.000056465               0.001029378               0.999999984              -0.000355994               0.001077348               0.999999984              -0.000255120               0.000996247               0.999999984              -0.000222993               0.000964395               0.999999984              -0.000216294               0.000960415               0.999999984              -0.000218406               0.000971706               0.999999984              -0.000222612               0.000990860               0.999999984              -0.000225469               0.001013476               0.999999984              -0.000225324               0.001036974               0.999999984              -0.000221016               0.001059576               0.999999984              -0.000211855               0.001080306               0.999999984              -0.000197612               0.001098772               0.999999984              -0.000178163               0.001114583               0.999999984              -0.000153582               0.001127711               0.999999984              -0.000124270               0.001138286               0.999999984              -0.000090799               0.001146783               0.999999984              -0.000054163               0.001153884               0.999999984              -0.000015580               0.001160214               0.999999984              -0.000301829               0.001147132               0.999999984              -0.000207065               0.001089896               0.999999984              -0.000173569               0.001063350               0.999999984              -0.000164467               0.001058593               0.999999984              -0.000164784               0.001067742               0.999999984              -0.000167970               0.001085174               0.999999984              -0.000170821               0.001107186               0.999999984              -0.000171490               0.001131268               0.999999984              -0.000168831               0.001155754               0.999999984              -0.000161955               0.001179327               0.999999984              -0.000150450               0.001201506               0.999999984              -0.000134076               0.001221739               0.999999984              -0.000112510               0.001239808               0.999999984              -0.000085715               0.001255661               0.999999984              -0.000053690               0.001269552               0.999999984              -0.000016842               0.001281871               0.999999984               0.000023780               0.001293253               0.999999984              -0.000244854               0.001205771               0.999999984              -0.000161932               0.001173032               0.999999984              -0.000129539               0.001155130               0.999999984              -0.000118876               0.001152381               0.999999984              -0.000117361               0.001161218               0.999999984              -0.000119099               0.001178151               0.999999984              -0.000121320               0.001200219               0.999999984              -0.000122267               0.001225167               0.999999984              -0.000120688               0.001251492               0.999999984              -0.000115646               0.001278032               0.999999984              -0.000106663               0.001303953               0.999999984              -0.000093306               0.001328722               0.999999984              -0.000075172               0.001351956               0.999999984              -0.000051616               0.001373255               0.999999984              -0.000022102               0.001392666               0.999999984               0.000013652               0.001410414               0.999999984               0.000055648               0.001427000               0.999999984              -0.000185591               0.001252278               0.999999984              -0.000119362               0.001241900               0.999999984              -0.000091164               0.001234035               0.999999984              -0.000080504               0.001235401               0.999999984              -0.000077760               0.001245648               0.999999984              -0.000078181               0.001263113               0.999999984              -0.000079458               0.001285849               0.999999984              -0.000080206               0.001312040               0.999999984              -0.000079267               0.001340324               0.999999984              -0.000075784               0.001369686               0.999999984              -0.000069138               0.001399302               0.999999984              -0.000058940               0.001428554               0.999999984              -0.000044592               0.001456982               0.999999984              -0.000025378               0.001484114               0.999999984              -0.000000201               0.001509662               0.999999984               0.000032053               0.001533470               0.999999984               0.000072433               0.001555730               0.999999984              -0.000124651               0.001285848               0.999999984              -0.000078653               0.001293353               0.999999984              -0.000057726               0.001294935               0.999999984              -0.000049027               0.001301009               0.999999984              -0.000046195               0.001313579               0.999999984              -0.000045852               0.001332264               0.999999984              -0.000046331               0.001356002               0.999999984              -0.000046703               0.001383469               0.999999984              -0.000046180               0.001413554               0.999999984              -0.000044019               0.001445489               0.999999984              -0.000039706               0.001478417               0.999999984              -0.000032719               0.001511742               0.999999984              -0.000022663               0.001544916               0.999999984              -0.000008841               0.001577522               0.999999984               0.000009950               0.001609115               0.999999984               0.000035082               0.001639221               0.999999984               0.000068250               0.001667407               0.999999984              -0.000062594               0.001306188               0.999999984              -0.000039038               0.001325153               0.999999984              -0.000027893               0.001333422               0.999999984              -0.000023036               0.001343168               0.999999984              -0.000021252               0.001357816               0.999999984              -0.000020904               0.001377770               0.999999984              -0.000020914               0.001402451               0.999999984              -0.000020952               0.001430958               0.999999984              -0.000020782               0.001462359               0.999999984              -0.000019821               0.001496055               0.999999984              -0.000017630               0.001531357               0.999999984              -0.000014081               0.001567622               0.999999984              -0.000008873               0.001604348               0.999999984              -0.000001527               0.001641086               0.999999984               0.000008611               0.001677200               0.999999984               0.000022594               0.001712088               0.999999984               0.000041624               0.001744862               0.999999984              -0.000000000               0.001313026               0.999999984               0.000000000               0.001335870               0.999999984               0.000000000               0.001346442               0.999999984              -0.000000000               0.001357592               0.999999984              -0.000000000               0.001373130               0.999999984              -0.000000000               0.001393643               0.999999984               0.000000000               0.001418745               0.999999984               0.000000000               0.001447630               0.999999984              -0.000000000               0.001479509               0.999999984               0.000000000               0.001513943               0.999999984              -0.000000000               0.001550089               0.999999984              -0.000000000               0.001587410               0.999999984              -0.000000000               0.001625415               0.999999984               0.000000000               0.001663578               0.999999984               0.000000000               0.001701342               0.999999984              -0.000000000               0.001737979               0.999999984               0.000000000               0.001772491               0.999999984              -0.000665158              -0.000000000               0.999999984              -0.000713827               0.000000000               0.999999984              -0.000735011              -0.000000000               0.999999984              -0.000746714               0.000000000               0.999999984              -0.000755764               0.000000000               0.999999984              -0.000764837               0.000000000               0.999999984              -0.000774949               0.000000000               0.999999984              -0.000786251               0.000000000               0.999999984              -0.000798611               0.000000000               0.999999984              -0.000811740               0.000000000               0.999999984              -0.000825444              -0.000000000               0.999999984              -0.000839636              -0.000000000               0.999999984              -0.000854227              -0.000000000               0.999999984              -0.000868816               0.000000000               0.999999984              -0.000883037              -0.000000000               0.999999984              -0.000896345               0.000000000               0.999999984              -0.000907980              -0.000000000               0.999999984              -0.000661594              -0.000125682               0.999999984              -0.000706655              -0.000102763               0.999999984              -0.000725480              -0.000092885               0.999999984              -0.000735693              -0.000089807               0.999999984              -0.000743796              -0.000090239               0.999999984              -0.000752166              -0.000092582               0.999999984              -0.000761586              -0.000095799               0.999999984              -0.000772241              -0.000099280               0.999999984              -0.000783978              -0.000102567               0.999999984              -0.000796437              -0.000105279               0.999999984              -0.000809465              -0.000107304               0.999999984              -0.000822798              -0.000108551               0.999999984              -0.000836138              -0.000108631               0.999999984              -0.000849258              -0.000107174               0.999999984              -0.000861777              -0.000103472               0.999999984              -0.000873298              -0.000096984               0.999999984              -0.000883295              -0.000086515               0.999999984              -0.000650580              -0.000250280               0.999999984              -0.000685174              -0.000204971               0.999999984              -0.000697654              -0.000186449               0.999999984              -0.000704102              -0.000181249               0.999999984              -0.000709801              -0.000182847               0.999999984              -0.000716481              -0.000187949               0.999999984              -0.000724547              -0.000194651               0.999999984              -0.000733809              -0.000201745               0.999999984              -0.000743980              -0.000208326               0.999999984              -0.000754649              -0.000213793               0.999999984              -0.000765455              -0.000217873               0.999999984              -0.000776152              -0.000220262               0.999999984              -0.000786474              -0.000220499               0.999999984              -0.000796065              -0.000217941               0.999999984              -0.000804633              -0.000211533               0.999999984              -0.000811836              -0.000200278               0.999999984              -0.000817335              -0.000182949               0.999999984              -0.000632404              -0.000372633               0.999999984              -0.000650674              -0.000306237               0.999999984              -0.000654047              -0.000281051               0.999999984              -0.000655419              -0.000275337               0.999999984              -0.000658295              -0.000279208               0.999999984              -0.000663126              -0.000287696               0.999999984              -0.000669590              -0.000298122               0.999999984              -0.000677111              -0.000308900               0.999999984              -0.000685069              -0.000318656               0.999999984              -0.000693023              -0.000326816               0.999999984              -0.000700645              -0.000332844               0.999999984              -0.000707519              -0.000336407               0.999999984              -0.000713256              -0.000337044               0.999999984              -0.000717582              -0.000333960               0.999999984              -0.000720253              -0.000325961               0.999999984              -0.000721093              -0.000312253               0.999999984              -0.000720177              -0.000292300               0.999999984              -0.000607681              -0.000491576               0.999999984              -0.000604900              -0.000406259               0.999999984              -0.000598115              -0.000376833               0.999999984              -0.000594766              -0.000372280               0.999999984              -0.000595289              -0.000379390               0.999999984              -0.000598658              -0.000391688               0.999999984              -0.000603695              -0.000405938               0.999999984              -0.000609412              -0.000420036               0.999999984              -0.000615015              -0.000432737               0.999999984              -0.000619956              -0.000443119               0.999999984              -0.000623600              -0.000450752               0.999999984              -0.000625624              -0.000455265               0.999999984              -0.000625655              -0.000456277               0.999999984              -0.000623492              -0.000452917               0.999999984              -0.000619051              -0.000444403               0.999999984              -0.000612561              -0.000430615               0.999999984              -0.000604534              -0.000411677               0.999999984              -0.000576694              -0.000606004               0.999999984              -0.000550115              -0.000504943               0.999999984              -0.000534161              -0.000473746               0.999999984              -0.000527479              -0.000471681               0.999999984              -0.000526821              -0.000482507               0.999999984              -0.000529602              -0.000498660               0.999999984              -0.000533703              -0.000516302               0.999999984              -0.000537701              -0.000533204               0.999999984              -0.000540591              -0.000548094               0.999999984              -0.000541700              -0.000560293               0.999999984              -0.000540581              -0.000569209               0.999999984              -0.000536958              -0.000574472               0.999999984              -0.000530558              -0.000575593               0.999999984              -0.000521282              -0.000572153               0.999999984              -0.000509374              -0.000563961               0.999999984              -0.000495498              -0.000551512               0.999999984              -0.000480340              -0.000535786               0.999999984              -0.000539989              -0.000714737               0.999999984              -0.000489230              -0.000602277               0.999999984              -0.000466329              -0.000571348               0.999999984              -0.000458421              -0.000572418               0.999999984              -0.000458243              -0.000586858               0.999999984              -0.000461198              -0.000606428               0.999999984              -0.000464622              -0.000626816               0.999999984              -0.000466687              -0.000645869               0.999999984              -0.000466327              -0.000662432               0.999999984              -0.000463031              -0.000675944               0.999999984              -0.000456411              -0.000685879               0.999999984              -0.000446287              -0.000691589               0.999999984              -0.000432643              -0.000692673               0.999999984              -0.000415771              -0.000689356               0.999999984              -0.000396404              -0.000682168               0.999999984              -0.000375317              -0.000672061               0.999999984              -0.000353191              -0.000660054               0.999999984              -0.000498433              -0.000816543               0.999999984              -0.000425129              -0.000698061               0.999999984              -0.000398488              -0.000668658               0.999999984              -0.000391934              -0.000672711               0.999999984              -0.000393312              -0.000690322               0.999999984              -0.000396872              -0.000712613               0.999999984              -0.000399367              -0.000735332               0.999999984              -0.000398929              -0.000756060               0.999999984              -0.000394675              -0.000773827               0.999999984              -0.000386169              -0.000788179               0.999999984              -0.000373199              -0.000798585               0.999999984              -0.000355752              -0.000804286               0.999999984              -0.000334280              -0.000805375               0.999999984              -0.000309643              -0.000802751               0.999999984              -0.000282719              -0.000797291               0.999999984              -0.000254341              -0.000789909               0.999999984              -0.000225211              -0.000781595               0.999999984              -0.000453372              -0.000909652               0.999999984              -0.000360024              -0.000792105               0.999999984              -0.000334262              -0.000764333               0.999999984              -0.000330724              -0.000770788               0.999999984              -0.000334387              -0.000790804               0.999999984              -0.000338438              -0.000815325               0.999999984              -0.000339339              -0.000839920               0.999999984              -0.000335669              -0.000862101               0.999999984              -0.000326671              -0.000880710               0.999999984              -0.000312051              -0.000895355               0.999999984              -0.000291734              -0.000905580               0.999999984              -0.000266116              -0.000911187               0.999999984              -0.000236294              -0.000912829               0.999999984              -0.000203411              -0.000911598               0.999999984              -0.000168632              -0.000908552               0.999999984              -0.000132974              -0.000904455               0.999999984              -0.000096936              -0.000899975               0.999999984              -0.000406885              -0.000997559               0.999999984              -0.000306081              -0.000895986               0.999999984              -0.000277094              -0.000863182               0.999999984              -0.000272435              -0.000863278               0.999999984              -0.000275753              -0.000878404               0.999999984              -0.000280265              -0.000900068               0.999999984              -0.000282400              -0.000923652               0.999999984              -0.000280696              -0.000946652               0.999999984              -0.000274214              -0.000967345               0.999999984              -0.000262439              -0.000985235               0.999999984              -0.000245283              -0.000999863               0.999999984              -0.000222745              -0.001011069               0.999999984              -0.000195476              -0.001018849               0.999999984              -0.000164053              -0.001023853               0.999999984              -0.000129728              -0.001026725               0.999999984              -0.000093548              -0.001028403               0.999999984              -0.000056465              -0.001029378               0.999999984              -0.000355994              -0.001077348               0.999999984              -0.000255120              -0.000996247               0.999999984              -0.000222993              -0.000964395               0.999999984              -0.000216294              -0.000960415               0.999999984              -0.000218406              -0.000971706               0.999999984              -0.000222612              -0.000990860               0.999999984              -0.000225469              -0.001013476               0.999999984              -0.000225324              -0.001036974               0.999999984              -0.000221016              -0.001059576               0.999999984              -0.000211855              -0.001080306               0.999999984              -0.000197612              -0.001098772               0.999999984              -0.000178163              -0.001114583               0.999999984              -0.000153582              -0.001127711               0.999999984              -0.000124270              -0.001138286               0.999999984              -0.000090799              -0.001146783               0.999999984              -0.000054163              -0.001153884               0.999999984              -0.000015580              -0.001160214               0.999999984              -0.000301829              -0.001147132               0.999999984              -0.000207065              -0.001089896               0.999999984              -0.000173569              -0.001063350               0.999999984              -0.000164467              -0.001058593               0.999999984              -0.000164784              -0.001067742               0.999999984              -0.000167970              -0.001085174               0.999999984              -0.000170821              -0.001107186               0.999999984              -0.000171490              -0.001131268               0.999999984              -0.000168831              -0.001155754               0.999999984              -0.000161955              -0.001179327               0.999999984              -0.000150450              -0.001201506               0.999999984              -0.000134076              -0.001221739               0.999999984              -0.000112510              -0.001239808               0.999999984              -0.000085715              -0.001255661               0.999999984              -0.000053690              -0.001269552               0.999999984              -0.000016842              -0.001281871               0.999999984               0.000023780              -0.001293253               0.999999984              -0.000244854              -0.001205771               0.999999984              -0.000161932              -0.001173032               0.999999984              -0.000129539              -0.001155130               0.999999984              -0.000118876              -0.001152381               0.999999984              -0.000117361              -0.001161218               0.999999984              -0.000119099              -0.001178151               0.999999984              -0.000121320              -0.001200219               0.999999984              -0.000122267              -0.001225167               0.999999984              -0.000120688              -0.001251492               0.999999984              -0.000115646              -0.001278032               0.999999984              -0.000106663              -0.001303953               0.999999984              -0.000093306              -0.001328722               0.999999984              -0.000075172              -0.001351956               0.999999984              -0.000051616              -0.001373255               0.999999984              -0.000022102              -0.001392666               0.999999984               0.000013652              -0.001410414               0.999999984               0.000055648              -0.001427000               0.999999984              -0.000185591              -0.001252278               0.999999984              -0.000119362              -0.001241900               0.999999984              -0.000091164              -0.001234035               0.999999984              -0.000080504              -0.001235401               0.999999984              -0.000077760              -0.001245648               0.999999984              -0.000078181              -0.001263113               0.999999984              -0.000079458              -0.001285849               0.999999984              -0.000080206              -0.001312040               0.999999984              -0.000079267              -0.001340324               0.999999984              -0.000075784              -0.001369686               0.999999984              -0.000069138              -0.001399302               0.999999984              -0.000058940              -0.001428554               0.999999984              -0.000044592              -0.001456982               0.999999984              -0.000025378              -0.001484114               0.999999984              -0.000000201              -0.001509662               0.999999984               0.000032053              -0.001533470               0.999999984               0.000072433              -0.001555730               0.999999984              -0.000124651              -0.001285848               0.999999984              -0.000078653              -0.001293353               0.999999984              -0.000057726              -0.001294935               0.999999984              -0.000049027              -0.001301009               0.999999984              -0.000046195              -0.001313579               0.999999984              -0.000045852              -0.001332264               0.999999984              -0.000046331              -0.001356002               0.999999984              -0.000046703              -0.001383469               0.999999984              -0.000046180              -0.001413554               0.999999984              -0.000044019              -0.001445489               0.999999984              -0.000039706              -0.001478417               0.999999984              -0.000032719              -0.001511742               0.999999984              -0.000022663              -0.001544916               0.999999984              -0.000008841              -0.001577522               0.999999984               0.000009950              -0.001609115               0.999999984               0.000035082              -0.001639221               0.999999984               0.000068250              -0.001667407               0.999999984              -0.000062594              -0.001306188               0.999999984              -0.000039038              -0.001325153               0.999999984              -0.000027893              -0.001333422               0.999999984              -0.000023036              -0.001343168               0.999999984              -0.000021252              -0.001357816               0.999999984              -0.000020904              -0.001377770               0.999999984              -0.000020914              -0.001402451               0.999999984              -0.000020952              -0.001430958               0.999999984              -0.000020782              -0.001462359               0.999999984              -0.000019821              -0.001496055               0.999999984              -0.000017630              -0.001531357               0.999999984              -0.000014081              -0.001567622               0.999999984              -0.000008873              -0.001604348               0.999999984              -0.000001527              -0.001641086               0.999999984               0.000008611              -0.001677200               0.999999984               0.000022594              -0.001712088               0.999999984               0.000041624              -0.001744862               0.999999984               0.000000000              -0.001313026               0.999999984              -0.000000000              -0.001335870               0.999999984               0.000000000              -0.001346442               0.999999984               0.000000000              -0.001357592               0.999999984              -0.000000000              -0.001373130               0.999999984               0.000000000              -0.001393643               0.999999984              -0.000000000              -0.001418745               0.999999984              -0.000000000              -0.001447630               0.999999984               0.000000000              -0.001479509               0.999999984              -0.000000000              -0.001513943               0.999999984              -0.000000000              -0.001550089               0.999999984               0.000000000              -0.001587410               0.999999984              -0.000000000              -0.001625415               0.999999984              -0.000000000              -0.001663578               0.999999984               0.000000000              -0.001701342               0.999999984              -0.000000000              -0.001737979               0.999999984               0.000000000              -0.001772491               0.999999984               0.000665158               0.000000000               0.999999984               0.000713827               0.000000000               0.999999984               0.000735011               0.000000000               0.999999984               0.000746714               0.000000000               0.999999984               0.000755764               0.000000000               0.999999984               0.000764837              -0.000000000               0.999999984               0.000774949              -0.000000000               0.999999984               0.000786251               0.000000000               0.999999984               0.000798611               0.000000000               0.999999984               0.000811740               0.000000000               0.999999984               0.000825444              -0.000000000               0.999999984               0.000839636              -0.000000000               0.999999984               0.000854227               0.000000000               0.999999984               0.000868816              -0.000000000               0.999999984               0.000883037               0.000000000               0.999999984               0.000896345               0.000000000               0.999999984               0.000907980               0.000000000               0.999999984               0.000661594              -0.000125682               0.999999984               0.000706655              -0.000102763               0.999999984               0.000725480              -0.000092885               0.999999984               0.000735693              -0.000089807               0.999999984               0.000743796              -0.000090239               0.999999984               0.000752166              -0.000092582               0.999999984               0.000761586              -0.000095799               0.999999984               0.000772241              -0.000099280               0.999999984               0.000783978              -0.000102567               0.999999984               0.000796437              -0.000105279               0.999999984               0.000809465              -0.000107304               0.999999984               0.000822798              -0.000108551               0.999999984               0.000836138              -0.000108631               0.999999984               0.000849258              -0.000107174               0.999999984               0.000861777              -0.000103472               0.999999984               0.000873298              -0.000096984               0.999999984               0.000883295              -0.000086515               0.999999984               0.000650580              -0.000250280               0.999999984               0.000685174              -0.000204971               0.999999984               0.000697654              -0.000186449               0.999999984               0.000704102              -0.000181249               0.999999984               0.000709801              -0.000182847               0.999999984               0.000716481              -0.000187949               0.999999984               0.000724547              -0.000194651               0.999999984               0.000733809              -0.000201745               0.999999984               0.000743980              -0.000208326               0.999999984               0.000754649              -0.000213793               0.999999984               0.000765455              -0.000217873               0.999999984               0.000776152              -0.000220262               0.999999984               0.000786474              -0.000220499               0.999999984               0.000796065              -0.000217941               0.999999984               0.000804633              -0.000211533               0.999999984               0.000811836              -0.000200278               0.999999984               0.000817335              -0.000182949               0.999999984               0.000632404              -0.000372633               0.999999984               0.000650674              -0.000306237               0.999999984               0.000654047              -0.000281051               0.999999984               0.000655419              -0.000275337               0.999999984               0.000658295              -0.000279208               0.999999984               0.000663126              -0.000287696               0.999999984               0.000669590              -0.000298122               0.999999984               0.000677111              -0.000308900               0.999999984               0.000685069              -0.000318656               0.999999984               0.000693023              -0.000326816               0.999999984               0.000700645              -0.000332844               0.999999984               0.000707519              -0.000336407               0.999999984               0.000713256              -0.000337044               0.999999984               0.000717582              -0.000333960               0.999999984               0.000720253              -0.000325961               0.999999984               0.000721093              -0.000312253               0.999999984               0.000720177              -0.000292300               0.999999984               0.000607681              -0.000491576               0.999999984               0.000604900              -0.000406259               0.999999984               0.000598115              -0.000376833               0.999999984               0.000594766              -0.000372280               0.999999984               0.000595289              -0.000379390               0.999999984               0.000598658              -0.000391688               0.999999984               0.000603695              -0.000405938               0.999999984               0.000609412              -0.000420036               0.999999984               0.000615015              -0.000432737               0.999999984               0.000619956              -0.000443119               0.999999984               0.000623600              -0.000450752               0.999999984               0.000625624              -0.000455265               0.999999984               0.000625655              -0.000456277               0.999999984               0.000623492              -0.000452917               0.999999984               0.000619051              -0.000444403               0.999999984               0.000612561              -0.000430615               0.999999984               0.000604534              -0.000411677               0.999999984               0.000576694              -0.000606004               0.999999984               0.000550115              -0.000504943               0.999999984               0.000534161              -0.000473746               0.999999984               0.000527479              -0.000471681               0.999999984               0.000526821              -0.000482507               0.999999984               0.000529602              -0.000498660               0.999999984               0.000533703              -0.000516302               0.999999984               0.000537701              -0.000533204               0.999999984               0.000540591              -0.000548094               0.999999984               0.000541700              -0.000560293               0.999999984               0.000540581              -0.000569209               0.999999984               0.000536958              -0.000574472               0.999999984               0.000530558              -0.000575593               0.999999984               0.000521282              -0.000572153               0.999999984               0.000509374              -0.000563961               0.999999984               0.000495498              -0.000551512               0.999999984               0.000480340              -0.000535786               0.999999984               0.000539989              -0.000714737               0.999999984               0.000489230              -0.000602277               0.999999984               0.000466329              -0.000571348               0.999999984               0.000458421              -0.000572418               0.999999984               0.000458243              -0.000586858               0.999999984               0.000461198              -0.000606428               0.999999984               0.000464622              -0.000626816               0.999999984               0.000466687              -0.000645869               0.999999984               0.000466327              -0.000662432               0.999999984               0.000463031              -0.000675944               0.999999984               0.000456411              -0.000685879               0.999999984               0.000446287              -0.000691589               0.999999984               0.000432643              -0.000692673               0.999999984               0.000415771              -0.000689356               0.999999984               0.000396404              -0.000682168               0.999999984               0.000375317              -0.000672061               0.999999984               0.000353191              -0.000660054               0.999999984               0.000498433              -0.000816543               0.999999984               0.000425129              -0.000698061               0.999999984               0.000398488              -0.000668658               0.999999984               0.000391934              -0.000672711               0.999999984               0.000393312              -0.000690322               0.999999984               0.000396872              -0.000712613               0.999999984               0.000399367              -0.000735332               0.999999984               0.000398929              -0.000756060               0.999999984               0.000394675              -0.000773827               0.999999984               0.000386169              -0.000788179               0.999999984               0.000373199              -0.000798585               0.999999984               0.000355752              -0.000804286               0.999999984               0.000334280              -0.000805375               0.999999984               0.000309643              -0.000802751               0.999999984               0.000282719              -0.000797291               0.999999984               0.000254341              -0.000789909               0.999999984               0.000225211              -0.000781595               0.999999984               0.000453372              -0.000909652               0.999999984               0.000360024              -0.000792105               0.999999984               0.000334262              -0.000764333               0.999999984               0.000330724              -0.000770788               0.999999984               0.000334387              -0.000790804               0.999999984               0.000338438              -0.000815325               0.999999984               0.000339339              -0.000839920               0.999999984               0.000335669              -0.000862101               0.999999984               0.000326671              -0.000880710               0.999999984               0.000312051              -0.000895355               0.999999984               0.000291734              -0.000905580               0.999999984               0.000266116              -0.000911187               0.999999984               0.000236294              -0.000912829               0.999999984               0.000203411              -0.000911598               0.999999984               0.000168632              -0.000908552               0.999999984               0.000132974              -0.000904455               0.999999984               0.000096936              -0.000899975               0.999999984               0.000406885              -0.000997559               0.999999984               0.000306081              -0.000895986               0.999999984               0.000277094              -0.000863182               0.999999984               0.000272435              -0.000863278               0.999999984               0.000275753              -0.000878404               0.999999984               0.000280265              -0.000900068               0.999999984               0.000282400              -0.000923652               0.999999984               0.000280696              -0.000946652               0.999999984               0.000274214              -0.000967345               0.999999984               0.000262439              -0.000985235               0.999999984               0.000245283              -0.000999863               0.999999984               0.000222745              -0.001011069               0.999999984               0.000195476              -0.001018849               0.999999984               0.000164053              -0.001023853               0.999999984               0.000129728              -0.001026725               0.999999984               0.000093548              -0.001028403               0.999999984               0.000056465              -0.001029378               0.999999984               0.000355994              -0.001077348               0.999999984               0.000255120              -0.000996247               0.999999984               0.000222993              -0.000964395               0.999999984               0.000216294              -0.000960415               0.999999984               0.000218406              -0.000971706               0.999999984               0.000222612              -0.000990860               0.999999984               0.000225469              -0.001013476               0.999999984               0.000225324              -0.001036974               0.999999984               0.000221016              -0.001059576               0.999999984               0.000211855              -0.001080306               0.999999984               0.000197612              -0.001098772               0.999999984               0.000178163              -0.001114583               0.999999984               0.000153582              -0.001127711               0.999999984               0.000124270              -0.001138286               0.999999984               0.000090799              -0.001146783               0.999999984               0.000054163              -0.001153884               0.999999984               0.000015580              -0.001160214               0.999999984               0.000301829              -0.001147132               0.999999984               0.000207065              -0.001089896               0.999999984               0.000173569              -0.001063350               0.999999984               0.000164467              -0.001058593               0.999999984               0.000164784              -0.001067742               0.999999984               0.000167970              -0.001085174               0.999999984               0.000170821              -0.001107186               0.999999984               0.000171490              -0.001131268               0.999999984               0.000168831              -0.001155754               0.999999984               0.000161955              -0.001179327               0.999999984               0.000150450              -0.001201506               0.999999984               0.000134076              -0.001221739               0.999999984               0.000112510              -0.001239808               0.999999984               0.000085715              -0.001255661               0.999999984               0.000053690              -0.001269552               0.999999984               0.000016842              -0.001281871               0.999999984              -0.000023780              -0.001293253               0.999999984               0.000244854              -0.001205771               0.999999984               0.000161932              -0.001173032               0.999999984               0.000129539              -0.001155130               0.999999984               0.000118876              -0.001152381               0.999999984               0.000117361              -0.001161218               0.999999984               0.000119099              -0.001178151               0.999999984               0.000121320              -0.001200219               0.999999984               0.000122267              -0.001225167               0.999999984               0.000120688              -0.001251492               0.999999984               0.000115646              -0.001278032               0.999999984               0.000106663              -0.001303953               0.999999984               0.000093306              -0.001328722               0.999999984               0.000075172              -0.001351956               0.999999984               0.000051616              -0.001373255               0.999999984               0.000022102              -0.001392666               0.999999984              -0.000013652              -0.001410414               0.999999984              -0.000055648              -0.001427000               0.999999984               0.000185591              -0.001252278               0.999999984               0.000119362              -0.001241900               0.999999984               0.000091164              -0.001234035               0.999999984               0.000080504              -0.001235401               0.999999984               0.000077760              -0.001245648               0.999999984               0.000078181              -0.001263113               0.999999984               0.000079458              -0.001285849               0.999999984               0.000080206              -0.001312040               0.999999984               0.000079267              -0.001340324               0.999999984               0.000075784              -0.001369686               0.999999984               0.000069138              -0.001399302               0.999999984               0.000058940              -0.001428554               0.999999984               0.000044592              -0.001456982               0.999999984               0.000025378              -0.001484114               0.999999984               0.000000201              -0.001509662               0.999999984              -0.000032053              -0.001533470               0.999999984              -0.000072433              -0.001555730               0.999999984               0.000124651              -0.001285848               0.999999984               0.000078653              -0.001293353               0.999999984               0.000057726              -0.001294935               0.999999984               0.000049027              -0.001301009               0.999999984               0.000046195              -0.001313579               0.999999984               0.000045852              -0.001332264               0.999999984               0.000046331              -0.001356002               0.999999984               0.000046703              -0.001383469               0.999999984               0.000046180              -0.001413554               0.999999984               0.000044019              -0.001445489               0.999999984               0.000039706              -0.001478417               0.999999984               0.000032719              -0.001511742               0.999999984               0.000022663              -0.001544916               0.999999984               0.000008841              -0.001577522               0.999999984              -0.000009950              -0.001609115               0.999999984              -0.000035082              -0.001639221               0.999999984              -0.000068250              -0.001667407               0.999999984               0.000062594              -0.001306188               0.999999984               0.000039038              -0.001325153               0.999999984               0.000027893              -0.001333422               0.999999984               0.000023036              -0.001343168               0.999999984               0.000021252              -0.001357816               0.999999984               0.000020904              -0.001377770               0.999999984               0.000020914              -0.001402451               0.999999984               0.000020952              -0.001430958               0.999999984               0.000020782              -0.001462359               0.999999984               0.000019821              -0.001496055               0.999999984               0.000017630              -0.001531357               0.999999984               0.000014081              -0.001567622               0.999999984               0.000008873              -0.001604348               0.999999984               0.000001527              -0.001641086               0.999999984              -0.000008611              -0.001677200               0.999999984              -0.000022594              -0.001712088               0.999999984              -0.000041624              -0.001744862               0.999999984               0.000000000              -0.001313026               0.999999984              -0.000000000              -0.001335870               0.999999984               0.000000000              -0.001346442               0.999999984               0.000000000              -0.001357592               0.999999984              -0.000000000              -0.001373130               0.999999984               0.000000000              -0.001393643               0.999999984              -0.000000000              -0.001418745               0.999999984              -0.000000000              -0.001447630               0.999999984               0.000000000              -0.001479509               0.999999984              -0.000000000              -0.001513943               0.999999984              -0.000000000              -0.001550089               0.999999984               0.000000000              -0.001587410               0.999999984              -0.000000000              -0.001625415               0.999999984              -0.000000000              -0.001663578               0.999999984               0.000000000              -0.001701342               0.999999984              -0.000000000              -0.001737979               0.999999984               0.000000000              -0.001772491               0.999999984               0.000665158               0.000000000               0.999999984               0.000713827               0.000000000               0.999999984               0.000735011               0.000000000               0.999999984               0.000746714               0.000000000               0.999999984               0.000755764               0.000000000               0.999999984               0.000764837              -0.000000000               0.999999984               0.000774949              -0.000000000               0.999999984               0.000786251               0.000000000               0.999999984               0.000798611               0.000000000               0.999999984               0.000811740               0.000000000               0.999999984               0.000825444              -0.000000000               0.999999984               0.000839636              -0.000000000               0.999999984               0.000854227               0.000000000               0.999999984               0.000868816              -0.000000000               0.999999984               0.000883037               0.000000000               0.999999984               0.000896345               0.000000000               0.999999984               0.000907980               0.000000000               0.999999984               0.000661594               0.000125682               0.999999984               0.000706655               0.000102763               0.999999984               0.000725480               0.000092885               0.999999984               0.000735693               0.000089807               0.999999984               0.000743796               0.000090239               0.999999984               0.000752166               0.000092582               0.999999984               0.000761586               0.000095799               0.999999984               0.000772241               0.000099280               0.999999984               0.000783978               0.000102567               0.999999984               0.000796437               0.000105279               0.999999984               0.000809465               0.000107304               0.999999984               0.000822798               0.000108551               0.999999984               0.000836138               0.000108631               0.999999984               0.000849258               0.000107174               0.999999984               0.000861777               0.000103472               0.999999984               0.000873298               0.000096984               0.999999984               0.000883295               0.000086515               0.999999984               0.000650580               0.000250280               0.999999984               0.000685174               0.000204971               0.999999984               0.000697654               0.000186449               0.999999984               0.000704102               0.000181249               0.999999984               0.000709801               0.000182847               0.999999984               0.000716481               0.000187949               0.999999984               0.000724547               0.000194651               0.999999984               0.000733809               0.000201745               0.999999984               0.000743980               0.000208326               0.999999984               0.000754649               0.000213793               0.999999984               0.000765455               0.000217873               0.999999984               0.000776152               0.000220262               0.999999984               0.000786474               0.000220499               0.999999984               0.000796065               0.000217941               0.999999984               0.000804633               0.000211533               0.999999984               0.000811836               0.000200278               0.999999984               0.000817335               0.000182949               0.999999984               0.000632404               0.000372633               0.999999984               0.000650674               0.000306237               0.999999984               0.000654047               0.000281051               0.999999984               0.000655419               0.000275337               0.999999984               0.000658295               0.000279208               0.999999984               0.000663126               0.000287696               0.999999984               0.000669590               0.000298122               0.999999984               0.000677111               0.000308900               0.999999984               0.000685069               0.000318656               0.999999984               0.000693023               0.000326816               0.999999984               0.000700645               0.000332844               0.999999984               0.000707519               0.000336407               0.999999984               0.000713256               0.000337044               0.999999984               0.000717582               0.000333960               0.999999984               0.000720253               0.000325961               0.999999984               0.000721093               0.000312253               0.999999984               0.000720177               0.000292300               0.999999984               0.000607681               0.000491576               0.999999984               0.000604900               0.000406259               0.999999984               0.000598115               0.000376833               0.999999984               0.000594766               0.000372280               0.999999984               0.000595289               0.000379390               0.999999984               0.000598658               0.000391688               0.999999984               0.000603695               0.000405938               0.999999984               0.000609412               0.000420036               0.999999984               0.000615015               0.000432737               0.999999984               0.000619956               0.000443119               0.999999984               0.000623600               0.000450752               0.999999984               0.000625624               0.000455265               0.999999984               0.000625655               0.000456277               0.999999984               0.000623492               0.000452917               0.999999984               0.000619051               0.000444403               0.999999984               0.000612561               0.000430615               0.999999984               0.000604534               0.000411677               0.999999984               0.000576694               0.000606004               0.999999984               0.000550115               0.000504943               0.999999984               0.000534161               0.000473746               0.999999984               0.000527479               0.000471681               0.999999984               0.000526821               0.000482507               0.999999984               0.000529602               0.000498660               0.999999984               0.000533703               0.000516302               0.999999984               0.000537701               0.000533204               0.999999984               0.000540591               0.000548094               0.999999984               0.000541700               0.000560293               0.999999984               0.000540581               0.000569209               0.999999984               0.000536958               0.000574472               0.999999984               0.000530558               0.000575593               0.999999984               0.000521282               0.000572153               0.999999984               0.000509374               0.000563961               0.999999984               0.000495498               0.000551512               0.999999984               0.000480340               0.000535786               0.999999984               0.000539989               0.000714737               0.999999984               0.000489230               0.000602277               0.999999984               0.000466329               0.000571348               0.999999984               0.000458421               0.000572418               0.999999984               0.000458243               0.000586858               0.999999984               0.000461198               0.000606428               0.999999984               0.000464622               0.000626816               0.999999984               0.000466687               0.000645869               0.999999984               0.000466327               0.000662432               0.999999984               0.000463031               0.000675944               0.999999984               0.000456411               0.000685879               0.999999984               0.000446287               0.000691589               0.999999984               0.000432643               0.000692673               0.999999984               0.000415771               0.000689356               0.999999984               0.000396404               0.000682168               0.999999984               0.000375317               0.000672061               0.999999984               0.000353191               0.000660054               0.999999984               0.000498433               0.000816543               0.999999984               0.000425129               0.000698061               0.999999984               0.000398488               0.000668658               0.999999984               0.000391934               0.000672711               0.999999984               0.000393312               0.000690322               0.999999984               0.000396872               0.000712613               0.999999984               0.000399367               0.000735332               0.999999984               0.000398929               0.000756060               0.999999984               0.000394675               0.000773827               0.999999984               0.000386169               0.000788179               0.999999984               0.000373199               0.000798585               0.999999984               0.000355752               0.000804286               0.999999984               0.000334280               0.000805375               0.999999984               0.000309643               0.000802751               0.999999984               0.000282719               0.000797291               0.999999984               0.000254341               0.000789909               0.999999984               0.000225211               0.000781595               0.999999984               0.000453372               0.000909652               0.999999984               0.000360024               0.000792105               0.999999984               0.000334262               0.000764333               0.999999984               0.000330724               0.000770788               0.999999984               0.000334387               0.000790804               0.999999984               0.000338438               0.000815325               0.999999984               0.000339339               0.000839920               0.999999984               0.000335669               0.000862101               0.999999984               0.000326671               0.000880710               0.999999984               0.000312051               0.000895355               0.999999984               0.000291734               0.000905580               0.999999984               0.000266116               0.000911187               0.999999984               0.000236294               0.000912829               0.999999984               0.000203411               0.000911598               0.999999984               0.000168632               0.000908552               0.999999984               0.000132974               0.000904455               0.999999984               0.000096936               0.000899975               0.999999984               0.000406885               0.000997559               0.999999984               0.000306081               0.000895986               0.999999984               0.000277094               0.000863182               0.999999984               0.000272435               0.000863278               0.999999984               0.000275753               0.000878404               0.999999984               0.000280265               0.000900068               0.999999984               0.000282400               0.000923652               0.999999984               0.000280696               0.000946652               0.999999984               0.000274214               0.000967345               0.999999984               0.000262439               0.000985235               0.999999984               0.000245283               0.000999863               0.999999984               0.000222745               0.001011069               0.999999984               0.000195476               0.001018849               0.999999984               0.000164053               0.001023853               0.999999984               0.000129728               0.001026725               0.999999984               0.000093548               0.001028403               0.999999984               0.000056465               0.001029378               0.999999984               0.000355994               0.001077348               0.999999984               0.000255120               0.000996247               0.999999984               0.000222993               0.000964395               0.999999984               0.000216294               0.000960415               0.999999984               0.000218406               0.000971706               0.999999984               0.000222612               0.000990860               0.999999984               0.000225469               0.001013476               0.999999984               0.000225324               0.001036974               0.999999984               0.000221016               0.001059576               0.999999984               0.000211855               0.001080306               0.999999984               0.000197612               0.001098772               0.999999984               0.000178163               0.001114583               0.999999984               0.000153582               0.001127711               0.999999984               0.000124270               0.001138286               0.999999984               0.000090799               0.001146783               0.999999984               0.000054163               0.001153884               0.999999984               0.000015580               0.001160214               0.999999984               0.000301829               0.001147132               0.999999984               0.000207065               0.001089896               0.999999984               0.000173569               0.001063350               0.999999984               0.000164467               0.001058593               0.999999984               0.000164784               0.001067742               0.999999984               0.000167970               0.001085174               0.999999984               0.000170821               0.001107186               0.999999984               0.000171490               0.001131268               0.999999984               0.000168831               0.001155754               0.999999984               0.000161955               0.001179327               0.999999984               0.000150450               0.001201506               0.999999984               0.000134076               0.001221739               0.999999984               0.000112510               0.001239808               0.999999984               0.000085715               0.001255661               0.999999984               0.000053690               0.001269552               0.999999984               0.000016842               0.001281871               0.999999984              -0.000023780               0.001293253               0.999999984               0.000244854               0.001205771               0.999999984               0.000161932               0.001173032               0.999999984               0.000129539               0.001155130               0.999999984               0.000118876               0.001152381               0.999999984               0.000117361               0.001161218               0.999999984               0.000119099               0.001178151               0.999999984               0.000121320               0.001200219               0.999999984               0.000122267               0.001225167               0.999999984               0.000120688               0.001251492               0.999999984               0.000115646               0.001278032               0.999999984               0.000106663               0.001303953               0.999999984               0.000093306               0.001328722               0.999999984               0.000075172               0.001351956               0.999999984               0.000051616               0.001373255               0.999999984               0.000022102               0.001392666               0.999999984              -0.000013652               0.001410414               0.999999984              -0.000055648               0.001427000               0.999999984               0.000185591               0.001252278               0.999999984               0.000119362               0.001241900               0.999999984               0.000091164               0.001234035               0.999999984               0.000080504               0.001235401               0.999999984               0.000077760               0.001245648               0.999999984               0.000078181               0.001263113               0.999999984               0.000079458               0.001285849               0.999999984               0.000080206               0.001312040               0.999999984               0.000079267               0.001340324               0.999999984               0.000075784               0.001369686               0.999999984               0.000069138               0.001399302               0.999999984               0.000058940               0.001428554               0.999999984               0.000044592               0.001456982               0.999999984               0.000025378               0.001484114               0.999999984               0.000000201               0.001509662               0.999999984              -0.000032053               0.001533470               0.999999984              -0.000072433               0.001555730               0.999999984               0.000124651               0.001285848               0.999999984               0.000078653               0.001293353               0.999999984               0.000057726               0.001294935               0.999999984               0.000049027               0.001301009               0.999999984               0.000046195               0.001313579               0.999999984               0.000045852               0.001332264               0.999999984               0.000046331               0.001356002               0.999999984               0.000046703               0.001383469               0.999999984               0.000046180               0.001413554               0.999999984               0.000044019               0.001445489               0.999999984               0.000039706               0.001478417               0.999999984               0.000032719               0.001511742               0.999999984               0.000022663               0.001544916               0.999999984               0.000008841               0.001577522               0.999999984              -0.000009950               0.001609115               0.999999984              -0.000035082               0.001639221               0.999999984              -0.000068250               0.001667407               0.999999984               0.000062594               0.001306188               0.999999984               0.000039038               0.001325153               0.999999984               0.000027893               0.001333422               0.999999984               0.000023036               0.001343168               0.999999984               0.000021252               0.001357816               0.999999984               0.000020904               0.001377770               0.999999984               0.000020914               0.001402451               0.999999984               0.000020952               0.001430958               0.999999984               0.000020782               0.001462359               0.999999984               0.000019821               0.001496055               0.999999984               0.000017630               0.001531357               0.999999984               0.000014081               0.001567622               0.999999984               0.000008873               0.001604348               0.999999984               0.000001527               0.001641086               0.999999984              -0.000008611               0.001677200               0.999999984              -0.000022594               0.001712088               0.999999984              -0.000041624               0.001744862               0.999999984              -0.000000000               0.001313026               0.999999984               0.000000000               0.001335870               0.999999984               0.000000000               0.001346442               0.999999984              -0.000000000               0.001357592               0.999999984              -0.000000000               0.001373130               0.999999984              -0.000000000               0.001393643               0.999999984               0.000000000               0.001418745               0.999999984               0.000000000               0.001447630               0.999999984              -0.000000000               0.001479509               0.999999984               0.000000000               0.001513943               0.999999984              -0.000000000               0.001550089               0.999999984              -0.000000000               0.001587410               0.999999984              -0.000000000               0.001625415               0.999999984               0.000000000               0.001663578               0.999999984               0.000000000               0.001701342               0.999999984              -0.000000000               0.001737979               0.999999984               0.000000000               0.001772491               0.999999984 </DataArray>
<DataArray type="Float64"                                    Name="defo"                                                      NumberOfComponents=" 3" format="ascii">
             -0.000665158              -0.000000000               0.999999984              -0.000713827               0.000000000               0.999999984              -0.000735011              -0.000000000               0.999999984              -0.000746714               0.000000000               0.999999984              -0.000755764               0.000000000               0.999999984              -0.000764837               0.000000000               0.999999984              -0.000774949               0.000000000               0.999999984              -0.000786251               0.000000000               0.999999984              -0.000798611               0.000000000               0.999999984              -0.000811740               0.000000000               0.999999984              -0.000825444              -0.000000000               0.999999984              -0.000839636              -0.000000000               0.999999984              -0.000854227              -0.000000000               0.999999984              -0.000868816               0.000000000               0.999999984              -0.000883037              -0.000000000               0.999999984              -0.000896345               0.000000000               0.999999984              -0.000907980              -0.000000000               0.999999984              -0.000661594               0.000125682               0.999999984              -0.000706655               0.000102763               0.999999984              -0.000725480               0.000092885               0.999999984              -0.000735693               0.000089807               0.999999984              -0.000743796               0.000090239               0.999999984              -0.000752166               0.000092582               0.999999984              -0.000761586               0.000095799               0.999999984              -0.000772241               0.000099280               0.999999984              -0.000783978               0.000102567               0.999999984              -0.000796437               0.000105279               0.999999984              -0.000809465               0.000107304               0.999999984              -0.000822798               0.000108551               0.999999984              -0.000836138               0.000108631               0.999999984              -0.000849258               0.000107174               0.999999984              -0.000861777               0.000103472               0.999999984              -0.000873298               0.000096984               0.999999984              -0.000883295               0.000086515               0.999999984              -0.000650580               0.000250280               0.999999984              -0.000685174               0.000204971               0.999999984              -0.000697654               0.000186449               0.999999984              -0.000704102               0.000181249               0.999999984              -0.000709801               0.000182847               0.999999984              -0.000716481               0.000187949               0.999999984              -0.000724547               0.000194651               0.999999984              -0.000733809               0.000201745               0.999999984              -0.000743980               0.000208326               0.999999984              -0.000754649               0.000213793               0.999999984              -0.000765455               0.000217873               0.999999984              -0.000776152               0.000220262               0.999999984              -0.000786474               0.000220499               0.999999984              -0.000796065               0.000217941               0.999999984              -0.000804633               0.000211533               0.999999984              -0.000811836               0.000200278               0.999999984              -0.000817335               0.000182949               0.999999984              -0.000632404               0.000372633               0.999999984              -0.000650674               0.000306237               0.999999984              -0.000654047               0.000281051               0.999999984              -0.000655419               0.000275337               0.999999984              -0.000658295               0.000279208               0.999999984              -0.000663126               0.000287696               0.999999984              -0.000669590               0.000298122               0.999999984              -0.000677111               0.000308900               0.999999984              -0.000685069               0.000318656               0.999999984              -0.000693023               0.000326816               0.999999984              -0.000700645               0.000332844               0.999999984              -0.000707519               0.000336407               0.999999984              -0.000713256               0.000337044               0.999999984              -0.000717582               0.000333960               0.999999984              -0.000720253               0.000325961               0.999999984              -0.000721093               0.000312253               0.999999984              -0.000720177               0.000292300               0.999999984              -0.000607681               0.000491576               0.999999984              -0.000604900               0.000406259               0.999999984              -0.000598115               0.000376833               0.999999984              -0.000594766               0.000372280               0.999999984              -0.000595289               0.000379390               0.999999984              -0.000598658               0.000391688               0.999999984              -0.000603695               0.000405938               0.999999984              -0.000609412               0.000420036               0.999999984              -0.000615015               0.000432737               0.999999984              -0.000619956               0.000443119               0.999999984              -0.000623600               0.000450752               0.999999984              -0.000625624               0.000455265               0.999999984              -0.000625655               0.000456277               0.999999984              -0.000623492               0.000452917               0.999999984              -0.000619051               0.000444403               0.999999984              -0.000612561               0.000430615               0.999999984              -0.000604534               0.000411677               0.999999984              -0.000576694               0.000606004               0.999999984              -0.000550115               0.000504943               0.999999984              -0.000534161               0.000473746               0.999999984              -0.000527479               0.000471681               0.999999984              -0.000526821               0.000482507               0.999999984              -0.000529602               0.000498660               0.999999984              -0.000533703               0.000516302               0.999999984              -0.000537701               0.000533204               0.999999984              -0.000540591               0.000548094               0.999999984              -0.000541700               0.000560293               0.999999984              -0.000540581               0.000569209               0.999999984              -0.000536958               0.000574472               0.999999984              -0.000530558               0.000575593               0.999999984              -0.000521282               0.000572153               0.999999984              -0.000509374               0.000563961               0.999999984              -0.000495498               0.000551512               0.999999984              -0.000480340               0.000535786               0.999999984              -0.000539989               0.000714737               0.999999984              -0.000489230               0.000602277               0.999999984              -0.000466329               0.000571348               0.999999984              -0.000458421               0.000572418               0.999999984              -0.000458243               0.000586858               0.999999984              -0.000461198               0.000606428               0.999999984              -0.000464622               0.000626816               0.999999984              -0.000466687               0.000645869               0.999999984              -0.000466327               0.000662432               0.999999984              -0.000463031               0.000675944               0.999999984              -0.000456411               0.000685879               0.999999984              -0.000446287               0.000691589               0.999999984              -0.000432643               0.000692673               0.999999984              -0.000415771               0.000689356               0.999999984              -0.000396404               0.000682168               0.999999984              -0.000375317               0.000672061               0.999999984              -0.000353191               0.000660054               0.999999984              -0.000498433               0.000816543               0.999999984              -0.000425129               0.000698061               0.999999984              -0.000398488               0.000668658               0.999999984              -0.000391934               0.000672711               0.999999984              -0.000393312               0.000690322               0.999999984              -0.000396872               0.000712613               0.999999984              -0.000399367               0.000735332               0.999999984              -0.000398929               0.000756060               0.999999984              -0.000394675               0.000773827               0.999999984              -0.000386169               0.000788179               0.999999984              -0.000373199               0.000798585               0.999999984              -0.000355752               0.000804286               0.999999984              -0.000334280               0.000805375               0.999999984              -0.000309643               0.000802751               0.999999984              -0.000282719               0.000797291               0.999999984              -0.000254341               0.000789909               0.999999984              -0.000225211               0.000781595               0.999999984              -0.000453372               0.000909652               0.999999984              -0.000360024               0.000792105               0.999999984              -0.000334262               0.000764333               0.999999984              -0.000330724               0.000770788               0.999999984              -0.000334387               0.000790804               0.999999984              -0.000338438               0.000815325               0.999999984              -0.000339339               0.000839920               0.999999984              -0.000335669               0.000862101               0.999999984              -0.000326671               0.000880710               0.999999984              -0.000312051               0.000895355               0.999999984              -0.000291734               0.000905580               0.999999984              -0.000266116               0.000911187               0.999999984              -0.000236294               0.000912829               0.999999984              -0.000203411               0.000911598               0.999999984              -0.000168632               0.000908552               0.999999984              -0.000132974               0.000904455               0.999999984              -0.000096936               0.000899975               0.999999984              -0.000406885               0.000997559               0.999999984              -0.000306081               0.000895986               0.999999984              -0.000277094               0.000863182               0.999999984              -0.000272435               0.000863278               0.999999984              -0.000275753               0.000878404               0.999999984              -0.000280265               0.000900068               0.999999984              -0.000282400               0.000923652               0.999999984              -0.000280696               0.000946652               0.999999984              -0.000274214               0.000967345               0.999999984              -0.000262439               0.000985235               0.999999984              -0.000245283               0.000999863               0.999999984              -0.000222745               0.001011069               0.999999984              -0.000195476               0.001018849               0.999999984              -0.000164053               0.001023853               0.999999984              -0.000129728               0.001026725               0.999999984              -0.000093548               0.001028403               0.999999984              -0.000056465               0.001029378               0.999999984              -0.000355994               0.001077348               0.999999984              -0.000255120               0.000996247               0.999999984              -0.000222993               0.000964395               0.999999984              -0.000216294               0.000960415               0.999999984              -0.000218406               0.000971706               0.999999984              -0.000222612               0.000990860               0.999999984              -0.000225469               0.001013476               0.999999984              -0.000225324               0.001036974               0.999999984              -0.000221016               0.001059576               0.999999984              -0.000211855               0.001080306               0.999999984              -0.000197612               0.001098772               0.999999984              -0.000178163               0.001114583               0.999999984              -0.000153582               0.001127711               0.999999984              -0.000124270               0.001138286               0.999999984              -0.000090799               0.001146783               0.999999984              -0.000054163               0.001153884               0.999999984              -0.000015580               0.001160214               0.999999984              -0.000301829               0.001147132               0.999999984              -0.000207065               0.001089896               0.999999984              -0.000173569               0.001063350               0.999999984              -0.000164467               0.001058593               0.999999984              -0.000164784               0.001067742               0.999999984              -0.000167970               0.001085174               0.999999984              -0.000170821               0.001107186               0.999999984              -0.000171490               0.001131268               0.999999984              -0.000168831               0.001155754               0.999999984              -0.000161955               0.001179327               0.999999984              -0.000150450               0.001201506               0.999999984              -0.000134076               0.001221739               0.999999984              -0.000112510               0.001239808               0.999999984              -0.000085715               0.001255661               0.999999984              -0.000053690               0.001269552               0.999999984              -0.000016842               0.001281871               0.999999984               0.000023780               0.001293253               0.999999984              -0.000244854               0.001205771               0.999999984              -0.000161932               0.001173032               0.999999984              -0.000129539               0.001155130               0.999999984              -0.000118876               0.001152381               0.999999984              -0.000117361               0.001161218               0.999999984              -0.000119099               0.001178151               0.999999984              -0.000121320               0.001200219               0.999999984              -0.000122267               0.001225167               0.999999984              -0.000120688               0.001251492               0.999999984              -0.000115646               0.001278032               0.999999984              -0.000106663               0.001303953               0.999999984              -0.000093306               0.001328722               0.999999984              -0.000075172               0.001351956               0.999999984              -0.000051616               0.001373255               0.999999984              -0.000022102               0.001392666               0.999999984               0.000013652               0.001410414               0.999999984               0.000055648               0.001427000               0.999999984              -0.000185591               0.001252278               0.999999984              -0.000119362               0.001241900               0.999999984              -0.000091164               0.001234035               0.999999984              -0.000080504               0.001235401               0.999999984              -0.000077760               0.001245648               0.999999984              -0.000078181               0.001263113               0.999999984              -0.000079458               0.001285849               0.999999984              -0.000080206               0.001312040               0.999999984              -0.000079267               0.001340324               0.999999984              -0.000075784               0.001369686               0.999999984              -0.000069138               0.001399302               0.999999984              -0.000058940               0.001428554               0.999999984              -0.000044592               0.001456982               0.999999984              -0.000025378               0.001484114               0.999999984              -0.000000201               0.001509662               0.999999984               0.000032053               0.001533470               0.999999984               0.000072433               0.001555730               0.999999984              -0.000124651               0.001285848               0.999999984              -0.000078653               0.001293353               0.999999984              -0.000057726               0.001294935               0.999999984              -0.000049027               0.001301009               0.999999984              -0.000046195               0.001313579               0.999999984              -0.000045852               0.001332264               0.999999984              -0.000046331               0.001356002               0.999999984              -0.000046703               0.001383469               0.999999984              -0.000046180               0.001413554               0.999999984              -0.000044019               0.001445489               0.999999984              -0.000039706               0.001478417               0.999999984              -0.000032719               0.001511742               0.999999984              -0.000022663               0.001544916               0.999999984              -0.000008841               0.001577522               0.999999984               0.000009950               0.001609115               0.999999984               0.000035082               0.001639221               0.999999984               0.000068250               0.001667407               0.999999984              -0.000062594               0.001306188               0.999999984              -0.000039038               0.001325153               0.999999984              -0.000027893               0.001333422               0.999999984              -0.000023036               0.001343168               0.999999984              -0.000021252               0.001357816               0.999999984              -0.000020904               0.001377770               0.999999984              -0.000020914               0.001402451               0.999999984              -0.000020952               0.001430958               0.999999984              -0.000020782               0.001462359               0.999999984              -0.000019821               0.001496055               0.999999984              -0.000017630               0.001531357               0.999999984              -0.000014081               0.001567622               0.999999984              -0.000008873               0.001604348               0.999999984              -0.000001527               0.001641086               0.999999984               0.000008611               0.001677200               0.999999984               0.000022594               0.001712088               0.999999984               0.000041624               0.001744862               0.999999984              -0.000000000               0.001313026               0.999999984               0.000000000               0.001335870               0.999999984               0.000000000               0.001346442               0.999999984              -0.000000000               0.001357592               0.999999984              -0.000000000               0.001373130               0.999999984              -0.000000000               0.001393643               0.999999984               0.000000000               0.001418745               0.999999984               0.000000000               0.001447630               0.999999984              -0.000000000               0.001479509               0.999999984               0.000000000               0.001513943               0.999999984              -0.000000000               0.001550089               0.999999984              -0.000000000               0.001587410               0.999999984              -0.000000000               0.001625415               0.999999984               0.000000000               0.001663578               0.999999984               0.000000000               0.001701342               0.999999984              -0.000000000               0.001737979               0.999999984               0.000000000               0.001772491               0.999999984              -0.000665158              -0.000000000               0.999999984              -0.000713827               0.000000000               0.999999984              -0.000735011              -0.000000000               0.999999984              -0.000746714               0.000000000               0.999999984              -0.000755764               0.000000000               0.999999984              -0.000764837               0.000000000               0.999999984              -0.000774949               0.000000000               0.999999984              -0.000786251               0.000000000               0.999999984              -0.000798611               0.000000000               0.999999984              -0.000811740               0.000000000               0.999999984              -0.000825444              -0.000000000               0.999999984              -0.000839636              -0.000000000               0.999999984              -0.000854227              -0.000000000               0.999999984              -0.000868816               0.000000000               0.999999984              -0.000883037              -0.000000000               0.999999984              -0.000896345               0.000000000               0.999999984              -0.000907980              -0.000000000               0.999999984              -0.000661594              -0.000125682               0.999999984              -0.000706655              -0.000102763               0.999999984              -0.000725480              -0.000092885               0.999999984              -0.000735693              -0.000089807               0.999999984              -0.000743796              -0.000090239               0.999999984              -0.000752166              -0.000092582               0.999999984              -0.000761586              -0.000095799               0.999999984              -0.000772241              -0.000099280               0.999999984              -0.000783978              -0.000102567               0.999999984              -0.000796437              -0.000105279               0.999999984              -0.000809465              -0.000107304               0.999999984              -0.000822798              -0.000108551               0.999999984              -0.000836138              -0.000108631               0.999999984              -0.000849258              -0.000107174               0.999999984              -0.000861777              -0.000103472               0.999999984              -0.000873298              -0.000096984               0.999999984              -0.000883295              -0.000086515               0.999999984              -0.000650580              -0.000250280               0.999999984              -0.000685174              -0.000204971               0.999999984              -0.000697654              -0.000186449               0.999999984              -0.000704102              -0.000181249               0.999999984              -0.000709801              -0.000182847               0.999999984              -0.000716481              -0.000187949               0.999999984              -0.000724547              -0.000194651               0.999999984              -0.000733809              -0.000201745               0.999999984              -0.000743980              -0.000208326               0.999999984              -0.000754649              -0.000213793               0.999999984              -0.000765455              -0.000217873               0.999999984              -0.000776152              -0.000220262               0.999999984              -0.000786474              -0.000220499               0.999999984              -0.000796065              -0.000217941               0.999999984              -0.000804633              -0.000211533               0.999999984              -0.000811836              -0.000200278               0.999999984              -0.000817335              -0.000182949               0.999999984              -0.000632404              -0.000372633               0.999999984              -0.000650674              -0.000306237               0.999999984              -0.000654047              -0.000281051               0.999999984              -0.000655419              -0.000275337               0.999999984              -0.000658295              -0.000279208               0.999999984              -0.000663126              -0.000287696               0.999999984              -0.000669590              -0.000298122               0.999999984              -0.000677111              -0.000308900               0.999999984              -0.000685069              -0.000318656               0.999999984              -0.000693023              -0.000326816               0.999999984              -0.000700645              -0.000332844               0.999999984              -0.000707519              -0.000336407               0.999999984              -0.000713256              -0.000337044               0.999999984              -0.000717582              -0.000333960               0.999999984              -0.000720253              -0.000325961               0.999999984              -0.000721093              -0.000312253               0.999999984              -0.000720177              -0.000292300               0.999999984              -0.000607681              -0.000491576               0.999999984              -0.000604900              -0.000406259               0.999999984              -0.000598115              -0.000376833               0.999999984              -0.000594766              -0.000372280               0.999999984              -0.000595289              -0.000379390               0.999999984              -0.000598658              -0.000391688               0.999999984              -0.000603695              -0.000405938               0.999999984              -0.000609412              -0.000420036               0.999999984              -0.000615015              -0.000432737               0.999999984              -0.000619956              -0.000443119               0.999999984              -0.000623600              -0.000450752               0.999999984              -0.000625624              -0.000455265               0.999999984              -0.000625655              -0.000456277               0.999999984              -0.000623492              -0.000452917               0.999999984              -0.000619051              -0.000444403               0.999999984              -0.000612561              -0.000430615               0.999999984              -0.000604534              -0.000411677               0.999999984              -0.000576694              -0.000606004               0.999999984              -0.000550115              -0.000504943               0.999999984              -0.000534161              -0.000473746               0.999999984              -0.000527479              -0.000471681               0.999999984              -0.000526821              -0.000482507               0.999999984              -0.000529602              -0.000498660               0.999999984              -0.000533703              -0.000516302               0.999999984              -0.000537701              -0.000533204               0.999999984              -0.000540591              -0.000548094               0.999999984              -0.000541700              -0.000560293               0.999999984              -0.000540581              -0.000569209               0.999999984              -0.000536958              -0.000574472               0.999999984              -0.000530558              -0.000575593               0.999999984              -0.000521282              -0.000572153               0.999999984              -0.000509374              -0.000563961               0.999999984              -0.000495498              -0.000551512               0.999999984              -0.000480340              -0.000535786               0.999999984              -0.000539989              -0.000714737               0.999999984              -0.000489230              -0.000602277               0.999999984              -0.000466329              -0.000571348               0.999999984              -0.000458421              -0.000572418               0.999999984              -0.000458243              -0.000586858               0.999999984              -0.000461198              -0.000606428               0.999999984              -0.000464622              -0.000626816               0.999999984              -0.000466687              -0.000645869               0.999999984              -0.000466327              -0.000662432               0.999999984              -0.000463031              -0.000675944               0.999999984              -0.000456411              -0.000685879               0.999999984              -0.000446287              -0.000691589               0.999999984              -0.000432643              -0.000692673               0.999999984              -0.000415771              -0.000689356               0.999999984              -0.000396404              -0.000682168               0.999999984              -0.000375317              -0.000672061               0.999999984              -0.000353191              -0.000660054               0.999999984              -0.000498433              -0.000816543               0.999999984              -0.000425129              -0.000698061               0.999999984              -0.000398488              -0.000668658               0.999999984              -0.000391934              -0.000672711               0.999999984              -0.000393312              -0.000690322               0.999999984              -0.000396872              -0.000712613               0.999999984              -0.000399367              -0.000735332               0.999999984              -0.000398929              -0.000756060               0.999999984              -0.000394675              -0.000773827               0.999999984              -0.000386169              -0.000788179               0.999999984              -0.000373199              -0.000798585               0.999999984              -0.000355752              -0.000804286               0.999999984              -0.000334280              -0.000805375               0.999999984              -0.000309643              -0.000802751               0.999999984              -0.000282719              -0.000797291               0.999999984              -0.000254341              -0.000789909               0.999999984              -0.000225211              -0.000781595               0.999999984              -0.000453372              -0.000909652               0.999999984              -0.000360024              -0.000792105               0.999999984              -0.000334262              -0.000764333               0.999999984              -0.000330724              -0.000770788               0.999999984              -0.000334387              -0.000790804               0.999999984              -0.000338438              -0.000815325               0.999999984              -0.000339339              -0.000839920               0.999999984              -0.000335669              -0.000862101               0.999999984              -0.000326671              -0.000880710               0.999999984              -0.000312051              -0.000895355               0.999999984              -0.000291734              -0.000905580               0.999999984              -0.000266116              -0.000911187               0.999999984              -0.000236294              -0.000912829               0.999999984              -0.000203411              -0.000911598               0.999999984              -0.000168632              -0.000908552               0.999999984              -0.000132974              -0.000904455               0.999999984              -0.000096936              -0.000899975               0.999999984              -0.000406885              -0.000997559               0.999999984              -0.000306081              -0.000895986               0.999999984              -0.000277094              -0.000863182               0.999999984              -0.000272435              -0.000863278               0.999999984              -0.000275753              -0.000878404               0.999999984              -0.000280265              -0.000900068               0.999999984              -0.000282400              -0.000923652               0.999999984              -0.000280696              -0.000946652               0.999999984              -0.000274214              -0.000967345               0.999999984              -0.000262439              -0.000985235               0.999999984              -0.000245283              -0.000999863               0.999999984              -0.000222745              -0.001011069               0.999999984              -0.000195476              -0.001018849               0.999999984              -0.000164053              -0.001023853               0.999999984              -0.000129728              -0.001026725               0.999999984              -0.000093548              -0.001028403               0.999999984              -0.000056465              -0.001029378               0.999999984              -0.000355994              -0.001077348               0.999999984              -0.000255120              -0.000996247               0.999999984              -0.000222993              -0.000964395               0.999999984              -0.000216294              -0.000960415               0.999999984              -0.000218406              -0.000971706               0.999999984              -0.000222612              -0.000990860               0.999999984              -0.000225469              -0.001013476               0.999999984              -0.000225324              -0.001036974               0.999999984              -0.000221016              -0.001059576               0.999999984              -0.000211855              -0.001080306               0.999999984              -0.000197612              -0.001098772               0.999999984              -0.000178163              -0.001114583               0.999999984              -0.000153582              -0.001127711               0.999999984              -0.000124270              -0.001138286               0.999999984              -0.000090799              -0.001146783               0.999999984              -0.000054163              -0.001153884               0.999999984              -0.000015580              -0.001160214               0.999999984              -0.000301829              -0.001147132               0.999999984              -0.000207065              -0.001089896               0.999999984              -0.000173569              -0.001063350               0.999999984              -0.000164467              -0.001058593               0.999999984              -0.000164784              -0.001067742               0.999999984              -0.000167970              -0.001085174               0.999999984              -0.000170821              -0.001107186               0.999999984              -0.000171490              -0.001131268               0.999999984              -0.000168831              -0.001155754               0.999999984              -0.000161955              -0.001179327               0.999999984              -0.000150450              -0.001201506               0.999999984              -0.000134076              -0.001221739               0.999999984              -0.000112510              -0.001239808               0.999999984              -0.000085715              -0.001255661               0.999999984              -0.000053690              -0.001269552               0.999999984              -0.000016842              -0.001281871               0.999999984               0.000023780              -0.001293253               0.999999984              -0.000244854              -0.001205771               0.999999984              -0.000161932              -0.001173032               0.999999984              -0.000129539              -0.001155130               0.999999984              -0.000118876              -0.001152381               0.999999984              -0.000117361              -0.001161218               0.999999984              -0.000119099              -0.001178151               0.999999984              -0.000121320              -0.001200219               0.999999984              -0.000122267              -0.001225167               0.999999984              -0.000120688              -0.001251492               0.999999984              -0.000115646              -0.001278032               0.999999984              -0.000106663              -0.001303953               0.999999984              -0.000093306              -0.001328722               0.999999984              -0.000075172              -0.001351956               0.999999984              -0.000051616              -0.001373255               0.999999984              -0.000022102              -0.001392666               0.999999984               0.000013652              -0.001410414               0.999999984               0.000055648              -0.001427000               0.999999984              -0.000185591              -0.001252278               0.999999984              -0.000119362              -0.001241900               0.999999984              -0.000091164              -0.001234035               0.999999984              -0.000080504              -0.001235401               0.999999984              -0.000077760              -0.001245648               0.999999984              -0.000078181              -0.001263113               0.999999984              -0.000079458              -0.001285849               0.999999984              -0.000080206              -0.001312040               0.999999984              -0.000079267              -0.001340324               0.999999984              -0.000075784              -0.001369686               0.999999984              -0.000069138              -0.001399302               0.999999984              -0.000058940              -0.001428554               0.999999984              -0.000044592              -0.001456982               0.999999984              -0.000025378              -0.001484114               0.999999984              -0.000000201              -0.001509662               0.999999984               0.000032053              -0.001533470               0.999999984               0.000072433              -0.001555730               0.999999984              -0.000124651              -0.001285848               0.999999984              -0.000078653              -0.001293353               0.999999984              -0.000057726              -0.001294935               0.999999984              -0.000049027              -0.001301009               0.999999984              -0.000046195              -0.001313579               0.999999984              -0.000045852              -0.001332264               0.999999984              -0.000046331              -0.001356002               0.999999984              -0.000046703              -0.001383469               0.999999984              -0.000046180              -0.001413554               0.999999984              -0.000044019              -0.001445489               0.999999984              -0.000039706              -0.001478417               0.999999984              -0.000032719              -0.001511742               0.999999984              -0.000022663              -0.001544916               0.999999984              -0.000008841              -0.001577522               0.999999984               0.000009950              -0.001609115               0.999999984               0.000035082              -0.001639221               0.999999984               0.000068250              -0.001667407               0.999999984              -0.000062594              -0.001306188               0.999999984              -0.000039038              -0.001325153               0.999999984              -0.000027893              -0.001333422               0.999999984              -0.000023036              -0.001343168               0.999999984              -0.000021252              -0.001357816               0.999999984              -0.000020904              -0.001377770               0.999999984              -0.000020914              -0.001402451               0.999999984              -0.000020952              -0.001430958               0.999999984              -0.000020782              -0.001462359               0.999999984              -0.000019821              -0.001496055               0.999999984              -0.000017630              -0.001531357               0.999999984              -0.000014081              -0.001567622               0.999999984              -0.000008873              -0.001604348               0.999999984              -0.000001527              -0.001641086               0.999999984               0.000008611              -0.001677200               0.999999984               0.000022594              -0.001712088               0.999999984               0.000041624              -0.001744862               0.999999984               0.000000000              -0.001313026               0.999999984              -0.000000000              -0.001335870               0.999999984               0.000000000              -0.001346442               0.999999984               0.000000000              -0.001357592               0.999999984              -0.000000000              -0.001373130               0.999999984               0.000000000              -0.001393643               0.999999984              -0.000000000              -0.001418745               0.999999984              -0.000000000              -0.001447630               0.999999984               0.000000000              -0.001479509               0.999999984              -0.000000000              -0.001513943               0.999999984              -0.000000000              -0.001550089               0.999999984               0.000000000              -0.001587410               0.999999984              -0.000000000              -0.001625415               0.999999984              -0.000000000              -0.001663578               0.999999984               0.000000000              -0.001701342               0.999999984              -0.000000000              -0.001737979               0.999999984               0.000000000              -0.001772491               0.999999984               0.000665158               0.000000000               0.999999984               0.000713827               0.000000000               0.999999984               0.000735011               0.000000000               0.999999984               0.000746714               0.000000000               0.999999984               0.000755764               0.000000000               0.999999984               0.000764837              -0.000000000               0.999999984               0.000774949              -0.000000000               0.999999984               0.000786251               0.000000000               0.999999984               0.000798611               0.000000000               0.999999984               0.000811740               0.000000000               0.999999984               0.000825444              -0.000000000               0.999999984               0.000839636              -0.000000000               0.999999984               0.000854227               0.000000000               0.999999984               0.000868816              -0.000000000               0.999999984               0.000883037               0.000000000               0.999999984               0.000896345               0.000000000               0.999999984               0.000907980               0.000000000               0.999999984               0.000661594              -0.000125682               0.999999984               0.000706655              -0.000102763               0.999999984               0.000725480              -0.000092885               0.999999984               0.000735693              -0.000089807               0.999999984               0.000743796              -0.000090239               0.999999984               0.000752166              -0.000092582               0.999999984               0.000761586              -0.000095799               0.999999984               0.000772241              -0.000099280               0.999999984               0.000783978              -0.000102567               0.999999984               0.000796437              -0.000105279               0.999999984               0.000809465              -0.000107304               0.999999984               0.000822798              -0.000108551               0.999999984               0.000836138              -0.000108631               0.999999984               0.000849258              -0.000107174               0.999999984               0.000861777              -0.000103472               0.999999984               0.000873298              -0.000096984               0.999999984               0.000883295              -0.000086515               0.999999984               0.000650580              -0.000250280               0.999999984               0.000685174              -0.000204971               0.999999984               0.000697654              -0.000186449               0.999999984               0.000704102              -0.000181249               0.999999984               0.000709801              -0.000182847               0.999999984               0.000716481              -0.000187949               0.999999984               0.000724547              -0.000194651               0.999999984               0.000733809              -0.000201745               0.999999984               0.000743980              -0.000208326               0.999999984               0.000754649              -0.000213793               0.999999984               0.000765455              -0.000217873               0.999999984               0.000776152              -0.000220262               0.999999984               0.000786474              -0.000220499               0.999999984               0.000796065              -0.000217941               0.999999984               0.000804633              -0.000211533               0.999999984               0.000811836              -0.000200278               0.999999984               0.000817335              -0.000182949               0.999999984               0.000632404              -0.000372633               0.999999984               0.000650674              -0.000306237               0.999999984               0.000654047              -0.000281051               0.999999984               0.000655419              -0.000275337               0.999999984               0.000658295              -0.000279208               0.999999984               0.000663126              -0.000287696               0.999999984               0.000669590              -0.000298122               0.999999984               0.000677111              -0.000308900               0.999999984               0.000685069              -0.000318656               0.999999984               0.000693023              -0.000326816               0.999999984               0.000700645              -0.000332844               0.999999984               0.000707519              -0.000336407               0.999999984               0.000713256              -0.000337044               0.999999984               0.000717582              -0.000333960               0.999999984               0.000720253              -0.000325961               0.999999984               0.000721093              -0.000312253               0.999999984               0.000720177              -0.000292300               0.999999984               0.000607681              -0.000491576               0.999999984               0.000604900              -0.000406259               0.999999984               0.000598115              -0.000376833               0.999999984               0.000594766              -0.000372280               0.999999984               0.000595289              -0.000379390               0.999999984               0.000598658              -0.000391688               0.999999984               0.000603695              -0.000405938               0.999999984               0.000609412              -0.000420036               0.999999984               0.000615015              -0.000432737               0.999999984               0.000619956              -0.000443119               0.999999984               0.000623600              -0.000450752               0.999999984               0.000625624              -0.000455265               0.999999984               0.000625655              -0.000456277               0.999999984               0.000623492              -0.000452917               0.999999984               0.000619051              -0.000444403               0.999999984               0.000612561              -0.000430615               0.999999984               0.000604534              -0.000411677               0.999999984               0.000576694              -0.000606004               0.999999984               0.000550115              -0.000504943               0.999999984               0.000534161              -0.000473746               0.999999984               0.000527479              -0.000471681               0.999999984               0.000526821              -0.000482507               0.999999984               0.000529602              -0.000498660               0.999999984               0.000533703              -0.000516302               0.999999984               0.000537701              -0.000533204               0.999999984               0.000540591              -0.000548094               0.999999984               0.000541700              -0.000560293               0.999999984               0.000540581              -0.000569209               0.999999984               0.000536958              -0.000574472               0.999999984               0.000530558              -0.000575593               0.999999984               0.000521282              -0.000572153               0.999999984               0.000509374              -0.000563961               0.999999984               0.000495498              -0.000551512               0.999999984               0.000480340              -0.000535786               0.999999984               0.000539989              -0.000714737               0.999999984               0.000489230              -0.000602277               0.999999984               0.000466329              -0.000571348               0.999999984               0.000458421              -0.000572418               0.999999984               0.000458243              -0.000586858               0.999999984               0.000461198              -0.000606428               0.999999984               0.000464622              -0.000626816               0.999999984               0.000466687              -0.000645869               0.999999984               0.000466327              -0.000662432               0.999999984               0.000463031              -0.000675944               0.999999984               0.000456411              -0.000685879               0.999999984               0.000446287              -0.000691589               0.999999984               0.000432643              -0.000692673               0.999999984               0.000415771              -0.000689356               0.999999984               0.000396404              -0.000682168               0.999999984               0.000375317              -0.000672061               0.999999984               0.000353191              -0.000660054               0.999999984               0.000498433              -0.000816543               0.999999984               0.000425129              -0.000698061               0.999999984               0.000398488              -0.000668658               0.999999984               0.000391934              -0.000672711               0.999999984               0.000393312              -0.000690322               0.999999984               0.000396872              -0.000712613               0.999999984               0.000399367              -0.000735332               0.999999984               0.000398929              -0.000756060               0.999999984               0.000394675              -0.000773827               0.999999984               0.000386169              -0.000788179               0.999999984               0.000373199              -0.000798585               0.999999984               0.000355752              -0.000804286               0.999999984               0.000334280              -0.000805375               0.999999984               0.000309643              -0.000802751               0.999999984               0.000282719              -0.000797291               0.999999984               0.000254341              -0.000789909               0.999999984               0.000225211              -0.000781595               0.999999984               0.000453372              -0.000909652               0.999999984               0.000360024              -0.000792105               0.999999984               0.000334262              -0.000764333               0.999999984               0.000330724              -0.000770788               0.999999984               0.000334387              -0.000790804               0.999999984               0.000338438              -0.000815325               0.999999984               0.000339339              -0.000839920               0.999999984               0.000335669              -0.000862101               0.999999984               0.000326671              -0.000880710               0.999999984               0.000312051              -0.000895355               0.999999984               0.000291734              -0.000905580               0.999999984               0.000266116              -0.000911187               0.999999984               0.000236294              -0.000912829               0.999999984               0.000203411              -0.000911598               0.999999984               0.000168632              -0.000908552               0.999999984               0.000132974              -0.000904455               0.999999984               0.000096936              -0.000899975               0.999999984               0.000406885              -0.000997559               0.999999984               0.000306081              -0.000895986               0.999999984               0.000277094              -0.000863182               0.999999984               0.000272435              -0.000863278               0.999999984               0.000275753              -0.000878404               0.999999984               0.000280265              -0.000900068               0.999999984               0.000282400              -0.000923652               0.999999984               0.000280696              -0.000946652               0.999999984               0.000274214              -0.000967345               0.999999984               0.000262439              -0.000985235               0.999999984               0.000245283              -0.000999863               0.999999984               0.000222745              -0.001011069               0.999999984               0.000195476              -0.001018849               0.999999984               0.000164053              -0.001023853               0.999999984               0.000129728              -0.001026725               0.999999984               0.000093548              -0.001028403               0.999999984               0.000056465              -0.001029378               0.999999984               0.000355994              -0.001077348               0.999999984               0.000255120              -0.000996247               0.999999984               0.000222993              -0.000964395               0.999999984               0.000216294              -0.000960415               0.999999984               0.000218406              -0.000971706               0.999999984               0.000222612              -0.000990860               0.999999984               0.000225469              -0.001013476               0.999999984               0.000225324              -0.001036974               0.999999984               0.000221016              -0.001059576               0.999999984               0.000211855              -0.001080306               0.999999984               0.000197612              -0.001098772               0.999999984               0.000178163              -0.001114583               0.999999984               0.000153582              -0.001127711               0.999999984               0.000124270              -0.001138286               0.999999984               0.000090799              -0.001146783               0.999999984               0.000054163              -0.001153884               0.999999984               0.000015580              -0.001160214               0.999999984               0.000301829              -0.001147132               0.999999984               0.000207065              -0.001089896               0.999999984               0.000173569              -0.001063350               0.999999984               0.000164467              -0.001058593               0.999999984               0.000164784              -0.001067742               0.999999984               0.000167970              -0.001085174               0.999999984               0.000170821              -0.001107186               0.999999984               0.000171490              -0.001131268               0.999999984               0.000168831              -0.001155754               0.999999984               0.000161955              -0.001179327               0.999999984               0.000150450              -0.001201506               0.999999984               0.000134076              -0.001221739               0.999999984               0.000112510              -0.001239808               0.999999984               0.000085715              -0.001255661               0.999999984               0.000053690              -0.001269552               0.999999984               0.000016842              -0.001281871               0.999999984              -0.000023780              -0.001293253               0.999999984               0.000244854              -0.001205771               0.999999984               0.000161932              -0.001173032               0.999999984               0.000129539              -0.001155130               0.999999984               0.000118876              -0.001152381               0.999999984               0.000117361              -0.001161218               0.999999984               0.000119099              -0.001178151               0.999999984               0.000121320              -0.001200219               0.999999984               0.000122267              -0.001225167               0.999999984               0.000120688              -0.001251492               0.999999984               0.000115646              -0.001278032               0.999999984               0.000106663              -0.001303953               0.999999984               0.000093306              -0.001328722               0.999999984               0.000075172              -0.001351956               0.999999984               0.000051616              -0.001373255               0.999999984               0.000022102              -0.001392666               0.999999984              -0.000013652              -0.001410414               0.999999984              -0.000055648              -0.001427000               0.999999984               0.000185591              -0.001252278               0.999999984               0.000119362              -0.001241900               0.999999984               0.000091164              -0.001234035               0.999999984               0.000080504              -0.001235401               0.999999984               0.000077760              -0.001245648               0.999999984               0.000078181              -0.001263113               0.999999984               0.000079458              -0.001285849               0.999999984               0.000080206              -0.001312040               0.999999984               0.000079267              -0.001340324               0.999999984               0.000075784              -0.001369686               0.999999984               0.000069138              -0.001399302               0.999999984               0.000058940              -0.001428554               0.999999984               0.000044592              -0.001456982               0.999999984               0.000025378              -0.001484114               0.999999984               0.000000201              -0.001509662               0.999999984              -0.000032053              -0.001533470               0.999999984              -0.000072433              -0.001555730               0.999999984               0.000124651              -0.001285848               0.999999984               0.000078653              -0.001293353               0.999999984               0.000057726              -0.001294935               0.999999984               0.000049027              -0.001301009               0.999999984               0.000046195              -0.001313579               0.999999984               0.000045852              -0.001332264               0.999999984               0.000046331              -0.001356002               0.999999984               0.000046703              -0.001383469               0.999999984               0.000046180              -0.001413554               0.999999984               0.000044019              -0.001445489               0.999999984               0.000039706              -0.001478417               0.999999984               0.000032719              -0.001511742               0.999999984               0.000022663              -0.001544916               0.999999984               0.000008841              -0.001577522               0.999999984              -0.000009950              -0.001609115               0.999999984              -0.000035082              -0.001639221               0.999999984              -0.000068250              -0.001667407               0.999999984               0.000062594              -0.001306188               0.999999984               0.000039038              -0.001325153               0.999999984               0.000027893              -0.001333422               0.999999984               0.000023036              -0.001343168               0.999999984               0.000021252              -0.001357816               0.999999984               0.000020904              -0.001377770               0.999999984               0.000020914              -0.001402451               0.999999984               0.000020952              -0.001430958               0.999999984               0.000020782              -0.001462359               0.999999984               0.000019821              -0.001496055               0.999999984               0.000017630              -0.001531357               0.999999984               0.000014081              -0.001567622               0.999999984               0.000008873              -0.001604348               0.999999984               0.000001527              -0.001641086               0.999999984              -0.000008611              -0.001677200               0.999999984              -0.000022594              -0.001712088               0.999999984              -0.000041624              -0.001744862               0.999999984               0.000000000              -0.001313026               0.999999984              -0.000000000              -0.001335870               0.999999984               0.000000000              -0.001346442               0.999999984               0.000000000              -0.001357592               0.999999984              -0.000000000              -0.001373130               0.999999984               0.000000000              -0.001393643               0.999999984              -0.000000000              -0.001418745               0.999999984              -0.000000000              -0.001447630               0.999999984               0.000000000              -0.001479509               0.999999984              -0.000000000              -0.001513943               0.999999984              -0.000000000              -0.001550089               0.999999984               0.000000000              -0.001587410               0.999999984              -0.000000000              -0.001625415               0.999999984              -0.000000000              -0.001663578               0.999999984               0.000000000              -0.001701342               0.999999984              -0.000000000              -0.001737979               0.999999984               0.000000000              -0.001772491               0.999999984               0.000665158               0.000000000               0.999999984               0.000713827               0.000000000               0.999999984               0.000735011               0.000000000               0.999999984               0.000746714               0.000000000               0.999999984               0.000755764               0.000000000               0.999999984               0.000764837              -0.000000000               0.999999984               0.000774949              -0.000000000               0.999999984               0.000786251               0.000000000               0.999999984               0.000798611               0.000000000               0.999999984               0.000811740               0.000000000               0.999999984               0.000825444              -0.000000000               0.999999984               0.000839636              -0.000000000               0.999999984               0.000854227               0.000000000               0.999999984               0.000868816              -0.000000000               0.999999984               0.000883037               0.000000000               0.999999984               0.000896345               0.000000000               0.999999984               0.000907980               0.000000000               0.999999984               0.000661594               0.000125682               0.999999984               0.000706655               0.000102763               0.999999984               0.000725480               0.000092885               0.999999984               0.000735693               0.000089807               0.999999984               0.000743796               0.000090239               0.999999984               0.000752166               0.000092582               0.999999984               0.000761586               0.000095799               0.999999984               0.000772241               0.000099280               0.999999984               0.000783978               0.000102567               0.999999984               0.000796437               0.000105279               0.999999984               0.000809465               0.000107304               0.999999984               0.000822798               0.000108551               0.999999984               0.000836138               0.000108631               0.999999984               0.000849258               0.000107174               0.999999984               0.000861777               0.000103472               0.999999984               0.000873298               0.000096984               0.999999984               0.000883295               0.000086515               0.999999984               0.000650580               0.000250280               0.999999984               0.000685174               0.000204971               0.999999984               0.000697654               0.000186449               0.999999984               0.000704102               0.000181249               0.999999984               0.000709801               0.000182847               0.999999984               0.000716481               0.000187949               0.999999984               0.000724547               0.000194651               0.999999984               0.000733809               0.000201745               0.999999984               0.000743980               0.000208326               0.999999984               0.000754649               0.000213793               0.999999984               0.000765455               0.000217873               0.999999984               0.000776152               0.000220262               0.999999984               0.000786474               0.000220499               0.999999984               0.000796065               0.000217941               0.999999984               0.000804633               0.000211533               0.999999984               0.000811836               0.000200278               0.999999984               0.000817335               0.000182949               0.999999984               0.000632404               0.000372633               0.999999984               0.000650674               0.000306237               0.999999984               0.000654047               0.000281051               0.999999984               0.000655419               0.000275337               0.999999984               0.000658295               0.000279208               0.999999984               0.000663126               0.000287696               0.999999984               0.000669590               0.000298122               0.999999984               0.000677111               0.000308900               0.999999984               0.000685069               0.000318656               0.999999984               0.000693023               0.000326816               0.999999984               0.000700645               0.000332844               0.999999984               0.000707519               0.000336407               0.999999984               0.000713256               0.000337044               0.999999984               0.000717582               0.000333960               0.999999984               0.000720253               0.000325961               0.999999984               0.000721093               0.000312253               0.999999984               0.000720177               0.000292300               0.999999984               0.000607681               0.000491576               0.999999984               0.000604900               0.000406259               0.999999984               0.000598115               0.000376833               0.999999984               0.000594766               0.000372280               0.999999984               0.000595289               0.000379390               0.999999984               0.000598658               0.000391688               0.999999984               0.000603695               0.000405938               0.999999984               0.000609412               0.000420036               0.999999984               0.000615015               0.000432737               0.999999984               0.000619956               0.000443119               0.999999984               0.000623600               0.000450752               0.999999984               0.000625624               0.000455265               0.999999984               0.000625655               0.000456277               0.999999984               0.000623492               0.000452917               0.999999984               0.000619051               0.000444403               0.999999984               0.000612561               0.000430615               0.999999984               0.000604534               0.000411677               0.999999984               0.000576694               0.000606004               0.999999984               0.000550115               0.000504943               0.999999984               0.000534161               0.000473746               0.999999984               0.000527479               0.000471681               0.999999984               0.000526821               0.000482507               0.999999984               0.000529602               0.000498660               0.999999984               0.000533703               0.000516302               0.999999984               0.000537701               0.000533204               0.999999984               0.000540591               0.000548094               0.999999984               0.000541700               0.000560293               0.999999984               0.000540581               0.000569209               0.999999984               0.000536958               0.000574472               0.999999984               0.000530558               0.000575593               0.999999984               0.000521282               0.000572153               0.999999984               0.000509374               0.000563961               0.999999984               0.000495498               0.000551512               0.999999984               0.000480340               0.000535786               0.999999984               0.000539989               0.000714737               0.999999984               0.000489230               0.000602277               0.999999984               0.000466329               0.000571348               0.999999984               0.000458421               0.000572418               0.999999984               0.000458243               0.000586858               0.999999984               0.000461198               0.000606428               0.999999984               0.000464622               0.000626816               0.999999984               0.000466687               0.000645869               0.999999984               0.000466327               0.000662432               0.999999984               0.000463031               0.000675944               0.999999984               0.000456411               0.000685879               0.999999984               0.000446287               0.000691589               0.999999984               0.000432643               0.000692673               0.999999984               0.000415771               0.000689356               0.999999984               0.000396404               0.000682168               0.999999984               0.000375317               0.000672061               0.999999984               0.000353191               0.000660054               0.999999984               0.000498433               0.000816543               0.999999984               0.000425129               0.000698061               0.999999984               0.000398488               0.000668658               0.999999984               0.000391934               0.000672711               0.999999984               0.000393312               0.000690322               0.999999984               0.000396872               0.000712613               0.999999984               0.000399367               0.000735332               0.999999984               0.000398929               0.000756060               0.999999984               0.000394675               0.000773827               0.999999984               0.000386169               0.000788179               0.999999984               0.000373199               0.000798585               0.999999984               0.000355752               0.000804286               0.999999984               0.000334280               0.000805375               0.999999984               0.000309643               0.000802751               0.999999984               0.000282719               0.000797291               0.999999984               0.000254341               0.000789909               0.999999984               0.000225211               0.000781595               0.999999984               0.000453372               0.000909652               0.999999984               0.000360024               0.000792105               0.999999984               0.000334262               0.000764333               0.999999984               0.000330724               0.000770788               0.999999984               0.000334387               0.000790804               0.999999984               0.000338438               0.000815325               0.999999984               0.000339339               0.000839920               0.999999984               0.000335669               0.000862101               0.999999984               0.000326671               0.000880710               0.999999984               0.000312051               0.000895355               0.999999984               0.000291734               0.000905580               0.999999984               0.000266116               0.000911187               0.999999984               0.000236294               0.000912829               0.999999984               0.000203411               0.000911598               0.999999984               0.000168632               0.000908552               0.999999984               0.000132974               0.000904455               0.999999984               0.000096936               0.000899975               0.999999984               0.000406885               0.000997559               0.999999984               0.000306081               0.000895986               0.999999984               0.000277094               0.000863182               0.999999984               0.000272435               0.000863278               0.999999984               0.000275753               0.000878404               0.999999984               0.000280265               0.000900068               0.999999984               0.000282400               0.000923652               0.999999984               0.000280696               0.000946652               0.999999984               0.000274214               0.000967345               0.999999984               0.000262439               0.000985235               0.999999984               0.000245283               0.000999863               0.999999984               0.000222745               0.001011069               0.999999984               0.000195476               0.001018849               0.999999984               0.000164053               0.001023853               0.999999984               0.000129728               0.001026725               0.999999984               0.000093548               0.001028403               0.999999984               0.000056465               0.001029378               0.999999984               0.000355994               0.001077348               0.999999984               0.000255120               0.000996247               0.999999984               0.000222993               0.000964395               0.999999984               0.000216294               0.000960415               0.999999984               0.000218406               0.000971706               0.999999984               0.000222612               0.000990860               0.999999984               0.000225469               0.001013476               0.999999984               0.000225324               0.001036974               0.999999984               0.000221016               0.001059576               0.999999984               0.000211855               0.001080306               0.999999984               0.000197612               0.001098772               0.999999984               0.000178163               0.001114583               0.999999984               0.000153582               0.001127711               0.999999984               0.000124270               0.001138286               0.999999984               0.000090799               0.001146783               0.999999984               0.000054163               0.001153884               0.999999984               0.000015580               0.001160214               0.999999984               0.000301829               0.001147132               0.999999984               0.000207065               0.001089896               0.999999984               0.000173569               0.001063350               0.999999984               0.000164467               0.001058593               0.999999984               0.000164784               0.001067742               0.999999984               0.000167970               0.001085174               0.999999984               0.000170821               0.001107186               0.999999984               0.000171490               0.001131268               0.999999984               0.000168831               0.001155754               0.999999984               0.000161955               0.001179327               0.999999984               0.000150450               0.001201506               0.999999984               0.000134076               0.001221739               0.999999984               0.000112510               0.001239808               0.999999984               0.000085715               0.001255661               0.999999984               0.000053690               0.001269552               0.999999984               0.000016842               0.001281871               0.999999984              -0.000023780               0.001293253               0.999999984               0.000244854               0.001205771               0.999999984               0.000161932               0.001173032               0.999999984               0.000129539               0.001155130               0.999999984               0.000118876               0.001152381               0.999999984               0.000117361               0.001161218               0.999999984               0.000119099               0.001178151               0.999999984               0.000121320               0.001200219               0.999999984               0.000122267               0.001225167               0.999999984               0.000120688               0.001251492               0.999999984               0.000115646               0.001278032               0.999999984               0.000106663               0.001303953               0.999999984               0.000093306               0.001328722               0.999999984               0.000075172               0.001351956               0.999999984               0.000051616               0.001373255               0.999999984               0.000022102               0.001392666               0.999999984              -0.000013652               0.001410414               0.999999984              -0.000055648               0.001427000               0.999999984               0.000185591               0.001252278               0.999999984               0.000119362               0.001241900               0.999999984               0.000091164               0.001234035               0.999999984               0.000080504               0.001235401               0.999999984               0.000077760               0.001245648               0.999999984               0.000078181               0.001263113               0.999999984               0.000079458               0.001285849               0.999999984               0.000080206               0.001312040               0.999999984               0.000079267               0.001340324               0.999999984               0.000075784               0.001369686               0.999999984               0.000069138               0.001399302               0.999999984               0.000058940               0.001428554               0.999999984               0.000044592               0.001456982               0.999999984               0.000025378               0.001484114               0.999999984               0.000000201               0.001509662               0.999999984              -0.000032053               0.001533470               0.999999984              -0.000072433               0.001555730               0.999999984               0.000124651               0.001285848               0.999999984               0.000078653               0.001293353               0.999999984               0.000057726               0.001294935               0.999999984               0.000049027               0.001301009               0.999999984               0.000046195               0.001313579               0.999999984               0.000045852               0.001332264               0.999999984               0.000046331               0.001356002               0.999999984               0.000046703               0.001383469               0.999999984               0.000046180               0.001413554               0.999999984               0.000044019               0.001445489               0.999999984               0.000039706               0.001478417               0.999999984               0.000032719               0.001511742               0.999999984               0.000022663               0.001544916               0.999999984               0.000008841               0.001577522               0.999999984              -0.000009950               0.001609115               0.999999984              -0.000035082               0.001639221               0.999999984              -0.000068250               0.001667407               0.999999984               0.000062594               0.001306188               0.999999984               0.000039038               0.001325153               0.999999984               0.000027893               0.001333422               0.999999984               0.000023036               0.001343168               0.999999984               0.000021252               0.001357816               0.999999984               0.000020904               0.001377770               0.999999984               0.000020914               0.001402451               0.999999984               0.000020952               0.001430958               0.999999984               0.000020782               0.001462359               0.999999984               0.000019821               0.001496055               0.999999984               0.000017630               0.001531357               0.999999984               0.000014081               0.001567622               0.999999984               0.000008873               0.001604348               0.999999984               0.000001527               0.001641086               0.999999984              -0.000008611               0.001677200               0.999999984              -0.000022594               0.001712088               0.999999984              -0.000041624               0.001744862               0.999999984              -0.000000000               0.001313026               0.999999984               0.000000000               0.001335870               0.999999984               0.000000000               0.001346442               0.999999984              -0.000000000               0.001357592               0.999999984              -0.000000000               0.001373130               0.999999984              -0.000000000               0.001393643               0.999999984               0.000000000               0.001418745               0.999999984               0.000000000               0.001447630               0.999999984              -0.000000000               0.001479509               0.999999984               0.000000000               0.001513943               0.999999984              -0.000000000               0.001550089               0.999999984              -0.000000000               0.001587410               0.999999984              -0.000000000               0.001625415               0.999999984               0.000000000               0.001663578               0.999999984               0.000000000               0.001701342               0.999999984              -0.000000000               0.001737979               0.999999984               0.000000000               0.001772491               0.999999984 </DataArray>
<DataArray type="Float64"                                    Name="stress"                                                      NumberOfComponents="10" format="ascii">
              0.002122448               0.023001065               0.000000000              -0.002079210               0.008360015               0.006280805               0.000000000               0.000000000               0.000000000               0.000000000               0.002113653               0.018002857               0.000000000              -0.001457734               0.006486803               0.005029070               0.000000000               0.000000000               0.000000000               0.000000000               0.002786369               0.013949479               0.000000000              -0.000698795               0.004882712               0.004183917               0.000000000               0.000000000               0.000000000               0.000000000               0.002686455               0.011687027               0.000000000              -0.000453457               0.004046789               0.003593332               0.000000000               0.000000000               0.000000000               0.000000000               0.002351326               0.010283296              -0.000000000              -0.000403664               0.003562286               0.003158622               0.000000000               0.000000000               0.000000000               0.000000000               0.001967789               0.009329876              -0.000000000              -0.000428312               0.003252698               0.002824386               0.000000000               0.000000000               0.000000000               0.000000000               0.001604235               0.008623706              -0.000000000              -0.000476374               0.003033331               0.002556957               0.000000000               0.000000000               0.000000000               0.000000000               0.001286748               0.008059047              -0.000000000              -0.000524849               0.002861272               0.002336423               0.000000000               0.000000000               0.000000000               0.000000000               0.001021914               0.007574054               0.000000000              -0.000563537               0.002712505               0.002148968               0.000000000               0.000000000               0.000000000               0.000000000               0.000798015               0.007128050              -0.000000000              -0.000591749               0.002573243               0.001981493               0.000000000               0.000000000               0.000000000               0.000000000               0.000599009               0.006701116              -0.000000000              -0.000613010               0.002438020               0.001825010               0.000000000               0.000000000               0.000000000               0.000000000               0.000419352               0.006281100               0.000000000              -0.000627879               0.002302972               0.001675093               0.000000000               0.000000000               0.000000000               0.000000000               0.000265171               0.005852075               0.000000000              -0.000632069               0.002161362               0.001529293               0.000000000               0.000000000               0.000000000               0.000000000               0.000143555               0.005397951               0.000000000              -0.000620909               0.002006269               0.001385359               0.000000000               0.000000000               0.000000000               0.000000000               0.000056027               0.004895650               0.000000000              -0.000590945               0.001828849               0.001237904               0.000000000               0.000000000               0.000000000               0.000000000               0.000015337               0.004328334               0.000000000              -0.000535289               0.001621193               0.001085904               0.000000000               0.000000000               0.000000000               0.000000000              -0.000038205               0.003891742              -0.000000000              -0.000500793               0.001464166               0.000963372               0.000000000               0.000000000               0.000000000               0.000000000               0.002205335               0.022543354              -0.001575282              -0.001990914               0.008178014               0.006187100               0.000000000               0.000000000               0.000000000               0.000000000               0.002080903               0.017707955              -0.000788746              -0.001433152               0.006380310               0.004947158               0.000000000               0.000000000               0.000000000               0.000000000               0.002631482               0.013835262              -0.000002659              -0.000742600               0.004859241               0.004116641               0.000000000               0.000000000               0.000000000               0.000000000               0.002481919               0.011665220               0.000330288              -0.000527432               0.004064178               0.003536747               0.000000000               0.000000000               0.000000000               0.000000000               0.002135508               0.010308750               0.000465664              -0.000487777               0.003598808               0.003111031               0.000000000               0.000000000               0.000000000               0.000000000               0.001761468               0.009377417               0.000512173              -0.000511625               0.003296316               0.002784691               0.000000000               0.000000000               0.000000000               0.000000000               0.001414977               0.008680838               0.000516425              -0.000554487               0.003078413               0.002523926               0.000000000               0.000000000               0.000000000               0.000000000               0.001112932               0.008117334               0.000500170              -0.000597316               0.002904856               0.002307540               0.000000000               0.000000000               0.000000000               0.000000000               0.000863037               0.007629415               0.000472324              -0.000630036               0.002753125               0.002123089               0.000000000               0.000000000               0.000000000               0.000000000               0.000654435               0.007181472               0.000441403              -0.000652269               0.002611223               0.001958954               0.000000000               0.000000000               0.000000000               0.000000000               0.000473642               0.006753761               0.000413253              -0.000666603               0.002473432               0.001806829               0.000000000               0.000000000               0.000000000               0.000000000               0.000320787               0.006334940               0.000383705              -0.000671571               0.002335482               0.001663912               0.000000000               0.000000000               0.000000000               0.000000000               0.000194651               0.005912382               0.000347881              -0.000666052               0.002192791               0.001526740               0.000000000               0.000000000               0.000000000               0.000000000               0.000097189               0.005471991               0.000297981              -0.000647551               0.002039829               0.001392278               0.000000000               0.000000000               0.000000000               0.000000000               0.000031091               0.004996281               0.000229335              -0.000612875               0.001869702               0.001256827               0.000000000               0.000000000               0.000000000               0.000000000               0.000002599               0.004471324               0.000132140              -0.000557940               0.001676406               0.001118467               0.000000000               0.000000000               0.000000000               0.000000000              -0.000042262               0.004079053               0.000082022              -0.000525728               0.001534913               0.001009185               0.000000000               0.000000000               0.000000000               0.000000000               0.002400910               0.021223778              -0.002925770              -0.001752628               0.007658731               0.005906103               0.000000000               0.000000000               0.000000000               0.000000000               0.001956692               0.016863966              -0.001463745              -0.001374233               0.006079343               0.004705110               0.000000000               0.000000000               0.000000000               0.000000000               0.002166794               0.013494611              -0.000019028              -0.000874277               0.004789584               0.003915308               0.000000000               0.000000000               0.000000000               0.000000000               0.001894354               0.011579509               0.000570500              -0.000737054               0.004105482               0.003368428               0.000000000               0.000000000               0.000000000               0.000000000               0.001530506               0.010351378               0.000798633              -0.000719981               0.003690418               0.002970437               0.000000000               0.000000000               0.000000000               0.000000000               0.001183619               0.009477034               0.000868978              -0.000740770               0.003405903               0.002665133               0.000000000               0.000000000               0.000000000               0.000000000               0.000886090               0.008801972               0.000867706              -0.000767961               0.003189948               0.002421987               0.000000000               0.000000000               0.000000000               0.000000000               0.000641754               0.008243225               0.000832281              -0.000789744               0.003010962               0.002221219               0.000000000               0.000000000               0.000000000               0.000000000               0.000445126               0.007749637               0.000781783              -0.000801781               0.002850447               0.002048666               0.000000000               0.000000000               0.000000000               0.000000000               0.000290960               0.007299031               0.000728453              -0.000803267               0.002700741               0.001897475               0.000000000               0.000000000               0.000000000               0.000000000               0.000167139               0.006871551               0.000677639              -0.000796265               0.002555916               0.001759651               0.000000000               0.000000000               0.000000000               0.000000000               0.000069710               0.006456672               0.000624972              -0.000780941               0.002412516               0.001631575               0.000000000               0.000000000               0.000000000               0.000000000               0.000001153               0.006050465               0.000561568              -0.000755874               0.002268759               0.001512885               0.000000000               0.000000000               0.000000000               0.000000000              -0.000039577               0.005643616               0.000473757              -0.000720292               0.002121284               0.001400992               0.000000000               0.000000000               0.000000000               0.000000000              -0.000052887               0.005227980               0.000353912              -0.000673329               0.001967085               0.001293757               0.000000000               0.000000000               0.000000000               0.000000000              -0.000035488               0.004805222               0.000196223              -0.000613959               0.001806378               0.001192418               0.000000000               0.000000000               0.000000000               0.000000000              -0.000049468               0.004513982               0.000118706              -0.000582797               0.001698911               0.001116114               0.000000000               0.000000000               0.000000000               0.000000000               0.002598268               0.019203251              -0.003902965              -0.001426055               0.006876371               0.005450316               0.000000000               0.000000000               0.000000000               0.000000000               0.001705533               0.015585828              -0.001960607              -0.001308651               0.005631441               0.004322790               0.000000000               0.000000000               0.000000000               0.000000000               0.001441912               0.012962194              -0.000069974              -0.001079554               0.004680539               0.003600985               0.000000000               0.000000000               0.000000000               0.000000000               0.001025269               0.011402105               0.000658770              -0.001040785               0.004147592               0.003106807               0.000000000               0.000000000               0.000000000               0.000000000               0.000659783               0.010341627               0.000922562              -0.001045282               0.003795602               0.002750320               0.000000000               0.000000000               0.000000000               0.000000000               0.000375785               0.009541580               0.000993722              -0.001051776               0.003531087               0.002479311               0.000000000               0.000000000               0.000000000               0.000000000               0.000164025               0.008892257               0.000984374              -0.001050020               0.003314063               0.002264042               0.000000000               0.000000000               0.000000000               0.000000000               0.000013346               0.008333913               0.000936502              -0.001036732               0.003123520               0.002086788               0.000000000               0.000000000               0.000000000               0.000000000              -0.000091511               0.007835646               0.000872552              -0.001013770               0.002949779               0.001936009               0.000000000               0.000000000               0.000000000               0.000000000              -0.000163905               0.007377349               0.000806976              -0.000983631               0.002786969               0.001803338               0.000000000               0.000000000               0.000000000               0.000000000              -0.000208658               0.006947947               0.000744229              -0.000946738               0.002631539               0.001684801               0.000000000               0.000000000               0.000000000               0.000000000              -0.000224293               0.006543337               0.000681939              -0.000902025               0.002481765               0.001579740               0.000000000               0.000000000               0.000000000               0.000000000              -0.000213895               0.006160001               0.000607562              -0.000850209               0.002336716               0.001486507               0.000000000               0.000000000               0.000000000               0.000000000              -0.000182842               0.005792148               0.000503469              -0.000792582               0.002194891               0.001402309               0.000000000               0.000000000               0.000000000               0.000000000              -0.000132155               0.005446287               0.000365738              -0.000730342               0.002058858               0.001328516               0.000000000               0.000000000               0.000000000               0.000000000              -0.000067313               0.005138805               0.000197532              -0.000667592               0.001935448               0.001267857               0.000000000               0.000000000               0.000000000               0.000000000              -0.000053232               0.004951419               0.000116910              -0.000638888               0.001863419               0.001224531               0.000000000               0.000000000               0.000000000               0.000000000               0.002671116               0.016721415              -0.004414006              -0.001088509               0.005936585               0.004848076               0.000000000               0.000000000               0.000000000               0.000000000               0.001301826               0.014038517              -0.002249853              -0.001266628               0.005101668               0.003835040               0.000000000               0.000000000               0.000000000               0.000000000               0.000537038               0.012303020              -0.000181291              -0.001336485               0.004546461               0.003209976               0.000000000               0.000000000               0.000000000               0.000000000               0.000022574               0.011128571               0.000565124              -0.001382603               0.004170354               0.002787751               0.000000000               0.000000000               0.000000000               0.000000000              -0.000294218               0.010234977               0.000819683              -0.001389701               0.003874858               0.002485158               0.000000000               0.000000000               0.000000000               0.000000000              -0.000474844               0.009504080               0.000880649              -0.001366073               0.003623353               0.002257280               0.000000000               0.000000000               0.000000000               0.000000000              -0.000569035               0.008873418               0.000865587              -0.001322562               0.003398631               0.002076068               0.000000000               0.000000000               0.000000000               0.000000000              -0.000608237               0.008308748               0.000819096              -0.001266679               0.003191781               0.001925102               0.000000000               0.000000000               0.000000000               0.000000000              -0.000610742               0.007800055               0.000760432              -0.001204032               0.003001336               0.001797304               0.000000000               0.000000000               0.000000000               0.000000000              -0.000583143               0.007338814               0.000700588              -0.001136028               0.002824923               0.001688895               0.000000000               0.000000000               0.000000000               0.000000000              -0.000531521               0.006916303               0.000644129              -0.001063856               0.002660030               0.001596174               0.000000000               0.000000000               0.000000000               0.000000000              -0.000459276               0.006525573               0.000586828              -0.000987923               0.002504477               0.001516554               0.000000000               0.000000000               0.000000000               0.000000000              -0.000367926               0.006162974               0.000515055              -0.000908342               0.002357085               0.001448743               0.000000000               0.000000000               0.000000000               0.000000000              -0.000266140               0.005833103               0.000415265              -0.000828938               0.002220661               0.001391723               0.000000000               0.000000000               0.000000000               0.000000000              -0.000164143               0.005552043               0.000291358              -0.000755557               0.002102515               0.001346958               0.000000000               0.000000000               0.000000000               0.000000000              -0.000075873               0.005337514               0.000151230              -0.000695640               0.002011034               0.001315394               0.000000000               0.000000000               0.000000000               0.000000000              -0.000048552               0.005228635               0.000084959              -0.000671785               0.001966789               0.001295004               0.000000000               0.000000000               0.000000000               0.000000000               0.002486274               0.014027001              -0.004460458              -0.000821024               0.004949294               0.004128270               0.000000000               0.000000000               0.000000000               0.000000000               0.000737988               0.012391742              -0.002359827              -0.001272221               0.004554613               0.003282392               0.000000000               0.000000000               0.000000000               0.000000000              -0.000440272               0.011577310              -0.000375090              -0.001612262               0.004396485               0.002784224               0.000000000               0.000000000               0.000000000               0.000000000              -0.000961559               0.010759615               0.000300593              -0.001705532               0.004155013               0.002449481               0.000000000               0.000000000               0.000000000               0.000000000              -0.001168643               0.010006896               0.000523128              -0.001689099               0.003898632               0.002209533               0.000000000               0.000000000               0.000000000               0.000000000              -0.001214460               0.009328267               0.000578312              -0.001621452               0.003649875               0.002028423               0.000000000               0.000000000               0.000000000               0.000000000              -0.001173017               0.008709489               0.000572641              -0.001528564               0.003412655               0.001884091               0.000000000               0.000000000               0.000000000               0.000000000              -0.001086857               0.008146349               0.000546463              -0.001425861               0.003190710               0.001764848               0.000000000               0.000000000               0.000000000               0.000000000              -0.000977802               0.007638539               0.000516393              -0.001321490               0.002986651               0.001665161               0.000000000               0.000000000               0.000000000               0.000000000              -0.000852373               0.007186965               0.000483907              -0.001218008               0.002801634               0.001583626               0.000000000               0.000000000               0.000000000               0.000000000              -0.000716270               0.006780893               0.000446804              -0.001116210               0.002632345               0.001516135               0.000000000               0.000000000               0.000000000               0.000000000              -0.000573091               0.006407207               0.000402631              -0.001015807               0.002474317               0.001458509               0.000000000               0.000000000               0.000000000               0.000000000              -0.000422865               0.006065174               0.000345188              -0.000916719               0.002327277               0.001410559               0.000000000               0.000000000               0.000000000               0.000000000              -0.000276480               0.005771192               0.000268406              -0.000825077               0.002198737               0.001373660               0.000000000               0.000000000               0.000000000               0.000000000              -0.000152924               0.005541545               0.000177635              -0.000750038               0.002097176               0.001347138               0.000000000               0.000000000               0.000000000               0.000000000              -0.000063819               0.005385977               0.000086997              -0.000697177               0.002027700               0.001330523               0.000000000               0.000000000               0.000000000               0.000000000              -0.000035494               0.005317527               0.000048045              -0.000677999               0.001998491               0.001320492               0.000000000               0.000000000               0.000000000               0.000000000               0.001978543               0.011344196              -0.004120971              -0.000676073               0.004006717               0.003330644               0.000000000               0.000000000               0.000000000               0.000000000               0.000047852               0.010777244              -0.002342618              -0.001329210               0.004035448               0.002706239               0.000000000               0.000000000               0.000000000               0.000000000              -0.001378394               0.010808129              -0.000656402              -0.001867909               0.004225310               0.002357401               0.000000000               0.000000000               0.000000000               0.000000000              -0.001805545               0.010281471              -0.000097321              -0.001962258               0.004081209               0.002118950               0.000000000               0.000000000               0.000000000               0.000000000              -0.001853672               0.009643078               0.000101384              -0.001900507               0.003847830               0.001947323               0.000000000               0.000000000               0.000000000               0.000000000              -0.001745775               0.009010312               0.000172933              -0.001780950               0.003597058               0.001816107               0.000000000               0.000000000               0.000000000               0.000000000              -0.001568769               0.008417709               0.000198249              -0.001640498               0.003352708               0.001712210               0.000000000               0.000000000               0.000000000               0.000000000              -0.001362951               0.007874621               0.000211203              -0.001495431               0.003123324               0.001627894               0.000000000               0.000000000               0.000000000               0.000000000              -0.001153249               0.007385683               0.000221723              -0.001355675               0.002913761               0.001558086               0.000000000               0.000000000               0.000000000               0.000000000              -0.000945596               0.006950328               0.000227221              -0.001223386               0.002724548               0.001501162               0.000000000               0.000000000               0.000000000               0.000000000              -0.000741796               0.006559619               0.000218879              -0.001098123               0.002552559               0.001454436               0.000000000               0.000000000               0.000000000               0.000000000              -0.000550079               0.006200664               0.000195574              -0.000981360               0.002393987               0.001412627               0.000000000               0.000000000               0.000000000               0.000000000              -0.000373759               0.005883565               0.000161817              -0.000875603               0.002253036               0.001377433               0.000000000               0.000000000               0.000000000               0.000000000              -0.000223931               0.005626947               0.000118347              -0.000787340               0.002138077               0.001350737               0.000000000               0.000000000               0.000000000               0.000000000              -0.000112950               0.005439176               0.000070454              -0.000722252               0.002053791               0.001331540               0.000000000               0.000000000               0.000000000               0.000000000              -0.000042520               0.005316647               0.000030175              -0.000680524               0.001999039               0.001318515               0.000000000               0.000000000               0.000000000               0.000000000              -0.000023921               0.005260633               0.000017279              -0.000666548               0.001975709               0.001309162               0.000000000               0.000000000               0.000000000               0.000000000               0.001180265               0.008850959              -0.003490489              -0.000663772               0.003171547               0.002507774               0.000000000               0.000000000               0.000000000               0.000000000              -0.000728315               0.009282359              -0.002244822              -0.001433411               0.003571892               0.002138481               0.000000000               0.000000000               0.000000000               0.000000000              -0.002185281               0.010001186              -0.001019630              -0.002069624               0.004023570               0.001953946               0.000000000               0.000000000               0.000000000               0.000000000              -0.002423147               0.009702365              -0.000568755              -0.002121470               0.003941246               0.001819776               0.000000000               0.000000000               0.000000000               0.000000000              -0.002288400               0.009162639              -0.000362907              -0.002003475               0.003722008               0.001718533               0.000000000               0.000000000               0.000000000               0.000000000              -0.002030205               0.008586698              -0.000249064              -0.001834660               0.003473757               0.001639098               0.000000000               0.000000000               0.000000000               0.000000000              -0.001734637               0.008038715              -0.000173817              -0.001655324               0.003231320               0.001575996               0.000000000               0.000000000               0.000000000               0.000000000              -0.001435567               0.007532120              -0.000115613              -0.001479849               0.003003965               0.001524116               0.000000000               0.000000000               0.000000000               0.000000000              -0.001151312               0.007069296              -0.000061432              -0.001315401               0.002794875               0.001479475               0.000000000               0.000000000               0.000000000               0.000000000              -0.000886571               0.006648305              -0.000014385              -0.001163499               0.002603913               0.001440413               0.000000000               0.000000000               0.000000000               0.000000000              -0.000642967               0.006265172               0.000012739              -0.001024257               0.002429788               0.001405532               0.000000000               0.000000000               0.000000000               0.000000000              -0.000431251               0.005925664               0.000018938              -0.000902425               0.002276010               0.001373585               0.000000000               0.000000000               0.000000000               0.000000000              -0.000261458               0.005645514               0.000016110              -0.000803734               0.002149731               0.001345997               0.000000000               0.000000000               0.000000000               0.000000000              -0.000137864               0.005432334               0.000009478              -0.000730739               0.002054340               0.001323601               0.000000000               0.000000000               0.000000000               0.000000000              -0.000059543               0.005282715               0.000000179              -0.000682666               0.001988443               0.001305777               0.000000000               0.000000000               0.000000000               0.000000000              -0.000020308               0.005183007              -0.000003749              -0.000655490               0.001946148               0.001290659               0.000000000               0.000000000               0.000000000               0.000000000              -0.000015656               0.005133889               0.000000806              -0.000647605               0.001927148               0.001279542               0.000000000               0.000000000               0.000000000               0.000000000               0.000203731               0.006727844              -0.002690053              -0.000764582               0.002497452               0.001732870               0.000000000               0.000000000               0.000000000               0.000000000              -0.001481689               0.007933702              -0.002120554              -0.001547343               0.003160321               0.001612978               0.000000000               0.000000000               0.000000000               0.000000000              -0.002802763               0.009201352              -0.001451111              -0.002201200               0.003800820               0.001599620               0.000000000               0.000000000               0.000000000               0.000000000              -0.002838089               0.009142132              -0.001068677              -0.002207044               0.003783028               0.001575984               0.000000000               0.000000000               0.000000000               0.000000000              -0.002551828               0.008731952              -0.000829741              -0.002048425               0.003593430               0.001545005               0.000000000               0.000000000               0.000000000               0.000000000              -0.002172938               0.008245537              -0.000659134              -0.001845539               0.003363665               0.001518125               0.000000000               0.000000000               0.000000000               0.000000000              -0.001786370               0.007757512              -0.000528413              -0.001639574               0.003132336               0.001492762               0.000000000               0.000000000               0.000000000               0.000000000              -0.001418811               0.007294079              -0.000426683              -0.001443811               0.002912605               0.001468795               0.000000000               0.000000000               0.000000000               0.000000000              -0.001081045               0.006862128              -0.000334911              -0.001263155               0.002708405               0.001445250               0.000000000               0.000000000               0.000000000               0.000000000              -0.000779384               0.006460475              -0.000250661              -0.001099826               0.002520079               0.001420253               0.000000000               0.000000000               0.000000000               0.000000000              -0.000518451               0.006086013              -0.000181469              -0.000955168               0.002347040               0.001391872               0.000000000               0.000000000               0.000000000               0.000000000              -0.000308591               0.005760357              -0.000132013              -0.000835764               0.002198688               0.001362924               0.000000000               0.000000000               0.000000000               0.000000000              -0.000156188               0.005502467              -0.000094681              -0.000746377               0.002082930               0.001336552               0.000000000               0.000000000               0.000000000               0.000000000              -0.000064771               0.005310961              -0.000062642              -0.000688157               0.001999688               0.001311531               0.000000000               0.000000000               0.000000000               0.000000000              -0.000026009               0.005175457              -0.000038363              -0.000656684               0.001944030               0.001287346               0.000000000               0.000000000               0.000000000               0.000000000              -0.000021183               0.005087584              -0.000019310              -0.000643890               0.001910474               0.001266584               0.000000000               0.000000000               0.000000000               0.000000000              -0.000028615               0.005046810              -0.000007338              -0.000641580               0.001896113               0.001254533               0.000000000               0.000000000               0.000000000               0.000000000              -0.000959235               0.004733311              -0.001837083              -0.000951376               0.001894879               0.000943503               0.000000000               0.000000000               0.000000000               0.000000000              -0.002097195               0.006370073              -0.001978421              -0.001582704               0.002650904               0.001068200               0.000000000               0.000000000               0.000000000               0.000000000              -0.003142633               0.008036855              -0.001909544              -0.002183089               0.003406621               0.001223532               0.000000000               0.000000000               0.000000000               0.000000000              -0.003073334               0.008341413              -0.001604580              -0.002195172               0.003512167               0.001316995               0.000000000               0.000000000               0.000000000               0.000000000              -0.002731883               0.008186597              -0.001330062              -0.002047776               0.003411430               0.001363654               0.000000000               0.000000000               0.000000000               0.000000000              -0.002321834               0.007880694              -0.001105488              -0.001855770               0.003245462               0.001389692               0.000000000               0.000000000               0.000000000               0.000000000              -0.001904774               0.007526459              -0.000925133              -0.001655093               0.003060492               0.001405399               0.000000000               0.000000000               0.000000000               0.000000000              -0.001511612               0.007156605              -0.000779751              -0.001461427               0.002872653               0.001411227               0.000000000               0.000000000               0.000000000               0.000000000              -0.001153829               0.006793676              -0.000649742              -0.001281892               0.002691833               0.001409941               0.000000000               0.000000000               0.000000000               0.000000000              -0.000837831               0.006449449              -0.000527860              -0.001120365               0.002523250               0.001402885               0.000000000               0.000000000               0.000000000               0.000000000              -0.000566208               0.006121275              -0.000415681              -0.000977485               0.002366233               0.001388748               0.000000000               0.000000000               0.000000000               0.000000000              -0.000344773               0.005817174              -0.000317181              -0.000856435               0.002224517               0.001368082               0.000000000               0.000000000               0.000000000               0.000000000              -0.000181385               0.005555267              -0.000229217              -0.000762426               0.002105879               0.001343453               0.000000000               0.000000000               0.000000000               0.000000000              -0.000079841               0.005343033              -0.000150557              -0.000697818               0.002013599               0.001315782               0.000000000               0.000000000               0.000000000               0.000000000              -0.000037456               0.005183723              -0.000085310              -0.000662010               0.001948560               0.001286551               0.000000000               0.000000000               0.000000000               0.000000000              -0.000041161               0.005074135              -0.000034283              -0.000649700               0.001907928               0.001258228               0.000000000               0.000000000               0.000000000               0.000000000              -0.000057966               0.005023590              -0.000010459              -0.000649684               0.001891075               0.001241390               0.000000000               0.000000000               0.000000000               0.000000000              -0.002458242               0.002920240              -0.000985328              -0.001286868               0.001402359               0.000115491               0.000000000               0.000000000               0.000000000               0.000000000              -0.002788020               0.004800018              -0.001761915              -0.001645506               0.002148492               0.000502985               0.000000000               0.000000000               0.000000000               0.000000000              -0.003375706               0.006684650              -0.002272092              -0.002101466               0.002928682               0.000827216               0.000000000               0.000000000               0.000000000               0.000000000              -0.003215708               0.007341794              -0.002114256              -0.002123610               0.003155110               0.001031500               0.000000000               0.000000000               0.000000000               0.000000000              -0.002847429               0.007485110              -0.001841888              -0.002003420               0.003162818               0.001159398               0.000000000               0.000000000               0.000000000               0.000000000              -0.002434232               0.007398965              -0.001584540              -0.001837704               0.003078865               0.001241161               0.000000000               0.000000000               0.000000000               0.000000000              -0.002015354               0.007212518              -0.001366083              -0.001657319               0.002956588               0.001299269               0.000000000               0.000000000               0.000000000               0.000000000              -0.001617485               0.006972552              -0.001180696              -0.001478123               0.002816868               0.001338745               0.000000000               0.000000000               0.000000000               0.000000000              -0.001249650               0.006706902              -0.001015357              -0.001306979               0.002671271               0.001364292               0.000000000               0.000000000               0.000000000               0.000000000              -0.000917417               0.006438142              -0.000861267              -0.001148797               0.002528958               0.001380161               0.000000000               0.000000000               0.000000000               0.000000000              -0.000625250               0.006171539              -0.000716526              -0.001005909               0.002392462               0.001386553               0.000000000               0.000000000               0.000000000               0.000000000              -0.000377708               0.005906983              -0.000577821              -0.000880011               0.002262312               0.001382300               0.000000000               0.000000000               0.000000000               0.000000000              -0.000184474               0.005657378              -0.000443788              -0.000776348               0.002144557               0.001368209               0.000000000               0.000000000               0.000000000               0.000000000              -0.000051698               0.005433640              -0.000314119              -0.000698590               0.002044059               0.001345469               0.000000000               0.000000000               0.000000000               0.000000000               0.000012134               0.005250003              -0.000191565              -0.000651699               0.001967216               0.001315518               0.000000000               0.000000000               0.000000000               0.000000000               0.000007256               0.005107820              -0.000084639              -0.000635755               0.001914508               0.001278753               0.000000000               0.000000000               0.000000000               0.000000000              -0.000023268               0.005038806              -0.000032478              -0.000638575               0.001892443               0.001253869               0.000000000               0.000000000               0.000000000               0.000000000              -0.004193219               0.001433489              -0.000203502              -0.001751641               0.001061703              -0.000689938               0.000000000               0.000000000               0.000000000               0.000000000              -0.003609270               0.003315946              -0.001447762              -0.001767966               0.001694625              -0.000073341               0.000000000               0.000000000               0.000000000               0.000000000              -0.003546422               0.005160089              -0.002421819              -0.001974915               0.002378317               0.000403401               0.000000000               0.000000000               0.000000000               0.000000000              -0.003214088               0.006063945              -0.002451713              -0.001963272               0.002675718               0.000712446               0.000000000               0.000000000               0.000000000               0.000000000              -0.002804982               0.006478286              -0.002234200              -0.001861650               0.002779957               0.000918306               0.000000000               0.000000000               0.000000000               0.000000000              -0.002393163               0.006628884              -0.001980519              -0.001726043               0.002784953               0.001058910               0.000000000               0.000000000               0.000000000               0.000000000              -0.001989628               0.006634535              -0.001747106              -0.001575424               0.002736630               0.001161206               0.000000000               0.000000000               0.000000000               0.000000000              -0.001603645               0.006553227              -0.001539110              -0.001420517               0.002657893               0.001237375               0.000000000               0.000000000               0.000000000               0.000000000              -0.001241126               0.006414294              -0.001350918              -0.001267206               0.002560478               0.001293272               0.000000000               0.000000000               0.000000000               0.000000000              -0.000903918               0.006248165              -0.001177510              -0.001119988               0.002456030               0.001336042               0.000000000               0.000000000               0.000000000               0.000000000              -0.000596078               0.006066984              -0.001015007              -0.000981900               0.002349608               0.001367708               0.000000000               0.000000000               0.000000000               0.000000000              -0.000323266               0.005871218              -0.000855735              -0.000855125               0.002242095               0.001386970               0.000000000               0.000000000               0.000000000               0.000000000              -0.000092720               0.005669197              -0.000693387              -0.000743418               0.002137519               0.001394101               0.000000000               0.000000000               0.000000000               0.000000000               0.000080600               0.005470054              -0.000522165              -0.000653530               0.002041177               0.001387646               0.000000000               0.000000000               0.000000000               0.000000000               0.000183529               0.005287676              -0.000342287              -0.000592135               0.001959919               0.001367784               0.000000000               0.000000000               0.000000000               0.000000000               0.000202913               0.005131522              -0.000165262              -0.000565347               0.001898939               0.001333593               0.000000000               0.000000000               0.000000000               0.000000000               0.000173534               0.005052087              -0.000074498              -0.000566434               0.001872823               0.001306389               0.000000000               0.000000000               0.000000000               0.000000000              -0.006041566               0.000341218               0.000397808              -0.002308238               0.000883146              -0.001425092               0.000000000               0.000000000               0.000000000               0.000000000              -0.004505794               0.001999346              -0.001078439              -0.001939588               0.001312969              -0.000626619               0.000000000               0.000000000               0.000000000               0.000000000              -0.003681329               0.003587850              -0.002327185              -0.001828976               0.001805595              -0.000023381               0.000000000               0.000000000               0.000000000               0.000000000              -0.003096075               0.004604192              -0.002530911              -0.001736549               0.002113564               0.000377015               0.000000000               0.000000000               0.000000000               0.000000000              -0.002611273               0.005233582              -0.002399128              -0.001633422               0.002288983               0.000655561               0.000000000               0.000000000               0.000000000               0.000000000              -0.002188396               0.005608903              -0.002182968              -0.001521759               0.002376868               0.000855109               0.000000000               0.000000000               0.000000000               0.000000000              -0.001804473               0.005808390              -0.001964835              -0.001402723               0.002403685               0.001000961               0.000000000               0.000000000               0.000000000               0.000000000              -0.001440575               0.005893995              -0.001760323              -0.001276963               0.002390299               0.001113337               0.000000000               0.000000000               0.000000000               0.000000000              -0.001092452               0.005904381              -0.001568949              -0.001147715               0.002350679               0.001202964               0.000000000               0.000000000               0.000000000               0.000000000              -0.000759237               0.005864188              -0.001392744              -0.001017735               0.002293955               0.001276219               0.000000000               0.000000000               0.000000000               0.000000000              -0.000443931               0.005788615              -0.001228468              -0.000890049               0.002226202               0.001336152               0.000000000               0.000000000               0.000000000               0.000000000              -0.000148021               0.005688232              -0.001068168              -0.000766536               0.002151570               0.001385034               0.000000000               0.000000000               0.000000000               0.000000000               0.000120732               0.005561253              -0.000899899              -0.000649881               0.002070359               0.001420478               0.000000000               0.000000000               0.000000000               0.000000000               0.000350448               0.005416323              -0.000711149              -0.000545621               0.001987296               0.001441675               0.000000000               0.000000000               0.000000000               0.000000000               0.000524708               0.005269558              -0.000496627              -0.000461928               0.001910478               0.001448550               0.000000000               0.000000000               0.000000000               0.000000000               0.000619844               0.005131655              -0.000257578              -0.000409014               0.001846873               0.001437858               0.000000000               0.000000000               0.000000000               0.000000000               0.000637638               0.005062589              -0.000131011              -0.000393709               0.001818749               0.001425040               0.000000000               0.000000000               0.000000000               0.000000000              -0.007818794              -0.000370645               0.000721747              -0.002885715               0.000838351              -0.002047364               0.000000000               0.000000000               0.000000000               0.000000000              -0.005401236               0.000927185              -0.000713890              -0.002141359               0.001022841              -0.001118518               0.000000000               0.000000000               0.000000000               0.000000000              -0.003799450               0.002131611              -0.001989363              -0.001691243               0.001274275              -0.000416967               0.000000000               0.000000000               0.000000000               0.000000000              -0.002915690               0.003145025              -0.002298142              -0.001486509               0.001543833               0.000057324               0.000000000               0.000000000               0.000000000               0.000000000              -0.002323331               0.003907780              -0.002254430              -0.001359719               0.001755819               0.000396100               0.000000000               0.000000000               0.000000000               0.000000000              -0.001870582               0.004459248              -0.002096340              -0.001258872               0.001906024               0.000647152               0.000000000               0.000000000               0.000000000               0.000000000              -0.001496085               0.004834384              -0.001917127              -0.001165328               0.001999887               0.000834559               0.000000000               0.000000000               0.000000000               0.000000000              -0.001157238               0.005079002              -0.001741617              -0.001068838               0.002049262               0.000980425               0.000000000               0.000000000               0.000000000               0.000000000              -0.000828654               0.005237343              -0.001573337              -0.000965411               0.002067567               0.001102155               0.000000000               0.000000000               0.000000000               0.000000000              -0.000503620               0.005332002              -0.001415881              -0.000855357               0.002062435               0.001207078               0.000000000               0.000000000               0.000000000               0.000000000              -0.000183683               0.005376202              -0.001269075              -0.000740905               0.002039017               0.001298112               0.000000000               0.000000000               0.000000000               0.000000000               0.000130446               0.005382800              -0.001125833              -0.000623932               0.002002226               0.001378294               0.000000000               0.000000000               0.000000000               0.000000000               0.000437061               0.005353214              -0.000973878              -0.000505253               0.001952804               0.001447551               0.000000000               0.000000000               0.000000000               0.000000000               0.000733195               0.005293508              -0.000797441              -0.000386740               0.001893398               0.001506658               0.000000000               0.000000000               0.000000000               0.000000000               0.001004778               0.005209579              -0.000581038              -0.000274405               0.001827977               0.001553572               0.000000000               0.000000000               0.000000000               0.000000000               0.001230539               0.005109619              -0.000314751              -0.000177250               0.001762273               0.001585023               0.000000000               0.000000000               0.000000000               0.000000000               0.001356563               0.005067673              -0.000173699              -0.000124748               0.001730790               0.001606042               0.000000000               0.000000000               0.000000000               0.000000000              -0.009305915              -0.000759160               0.000724623              -0.003394821               0.000878547              -0.002516273               0.000000000               0.000000000               0.000000000               0.000000000              -0.006184475               0.000158749              -0.000406730              -0.002339020               0.000832584              -0.001506436               0.000000000               0.000000000               0.000000000               0.000000000              -0.003910832               0.000958492              -0.001446635              -0.001586372               0.000848282              -0.000738090               0.000000000               0.000000000               0.000000000               0.000000000              -0.002735491               0.001891104              -0.001750774              -0.001262195               0.001051092              -0.000211104               0.000000000               0.000000000               0.000000000               0.000000000              -0.002025980               0.002710574              -0.001764117              -0.001098562               0.001269702               0.000171140               0.000000000               0.000000000               0.000000000               0.000000000              -0.001531356               0.003376257              -0.001668885              -0.000996289               0.001457503               0.000461214               0.000000000               0.000000000               0.000000000               0.000000000              -0.001153768               0.003885269              -0.001544400              -0.000918320               0.001601183               0.000682863               0.000000000               0.000000000               0.000000000               0.000000000              -0.000831957               0.004261596              -0.001418930              -0.000844682               0.001702078               0.000857396               0.000000000               0.000000000               0.000000000               0.000000000              -0.000520598               0.004549898              -0.001295884              -0.000763960               0.001771271               0.001007310               0.000000000               0.000000000               0.000000000               0.000000000              -0.000207528               0.004768049              -0.001177634              -0.000673828               0.001813943               0.001140115               0.000000000               0.000000000               0.000000000               0.000000000               0.000109685               0.004923529              -0.001065747              -0.000574308               0.001832596               0.001258288               0.000000000               0.000000000               0.000000000               0.000000000               0.000437702               0.005031535              -0.000957268              -0.000464803               0.001832096               0.001367293               0.000000000               0.000000000               0.000000000               0.000000000               0.000781692               0.005100857              -0.000843290              -0.000344472               0.001815093               0.001470621               0.000000000               0.000000000               0.000000000               0.000000000               0.001144410               0.005134266              -0.000705846              -0.000212629               0.001782281               0.001569652               0.000000000               0.000000000               0.000000000               0.000000000               0.001527131               0.005128155              -0.000527097              -0.000068345               0.001732150               0.001663804               0.000000000               0.000000000               0.000000000               0.000000000               0.001924483               0.005079122              -0.000291761               0.000086790               0.001664094               0.001750884               0.000000000               0.000000000               0.000000000               0.000000000               0.002207194               0.005073315              -0.000168657               0.000193531               0.001626578               0.001820109               0.000000000               0.000000000               0.000000000               0.000000000              -0.010295783              -0.000930421               0.000443905              -0.003744614               0.000938058              -0.002806556               0.000000000               0.000000000               0.000000000               0.000000000              -0.006720982              -0.000296955              -0.000175730              -0.002483247               0.000728759              -0.001754488               0.000000000               0.000000000               0.000000000               0.000000000              -0.003994109               0.000195612              -0.000756982              -0.001522241               0.000572613              -0.000949628               0.000000000               0.000000000               0.000000000               0.000000000              -0.002607391               0.001039261              -0.000944590              -0.001107678               0.000715641              -0.000392037               0.000000000               0.000000000               0.000000000               0.000000000              -0.001807946               0.001871864              -0.000969737              -0.000911961               0.000927935               0.000015974               0.000000000               0.000000000               0.000000000               0.000000000              -0.001280014               0.002594160              -0.000927838              -0.000804273               0.001132802               0.000328529               0.000000000               0.000000000               0.000000000               0.000000000              -0.000888870               0.003184375              -0.000864600              -0.000731372               0.001305238               0.000573866               0.000000000               0.000000000               0.000000000               0.000000000              -0.000570057               0.003648137              -0.000802056              -0.000669787               0.001439296               0.000769509               0.000000000               0.000000000               0.000000000               0.000000000              -0.000275768               0.004022343              -0.000739119              -0.000606205               0.001542836               0.000936631               0.000000000               0.000000000               0.000000000               0.000000000               0.000022266               0.004326501              -0.000674313              -0.000532462               0.001619640               0.001087178               0.000000000               0.000000000               0.000000000               0.000000000               0.000335270               0.004562775              -0.000612752              -0.000444620               0.001669116               0.001224497               0.000000000               0.000000000               0.000000000               0.000000000               0.000675284               0.004747673              -0.000554807              -0.000340227               0.001695951               0.001355724               0.000000000               0.000000000               0.000000000               0.000000000               0.001050196               0.004892292              -0.000493031              -0.000217713               0.001703319               0.001485606               0.000000000               0.000000000               0.000000000               0.000000000               0.001468765               0.004993465              -0.000417336              -0.000073396               0.001688937               0.001615541               0.000000000               0.000000000               0.000000000               0.000000000               0.001947008               0.005047099              -0.000315331               0.000099240               0.001649270               0.001748509               0.000000000               0.000000000               0.000000000               0.000000000               0.002500806               0.005043156              -0.000174991               0.000307405               0.001578567               0.001885972               0.000000000               0.000000000               0.000000000               0.000000000               0.002931724               0.005071356              -0.000102931               0.000465472               0.001535278               0.002000750               0.000000000               0.000000000               0.000000000               0.000000000              -0.010642764              -0.000979478              -0.000000000              -0.003868600               0.000963034              -0.002905565               0.000000000               0.000000000               0.000000000               0.000000000              -0.006910703              -0.000451064              -0.000000000              -0.002535129               0.000694684              -0.001840445               0.000000000               0.000000000               0.000000000               0.000000000              -0.004024584              -0.000070109               0.000000000              -0.001500454               0.000476778              -0.001023676               0.000000000               0.000000000               0.000000000               0.000000000              -0.002562126               0.000739518               0.000000000              -0.001053236               0.000597580              -0.000455655               0.000000000               0.000000000               0.000000000               0.000000000              -0.001729466               0.001571949               0.000000000              -0.000845042               0.000805658              -0.000039384               0.000000000               0.000000000               0.000000000               0.000000000              -0.001191007               0.002308516               0.000000000              -0.000735190               0.001014561               0.000279370               0.000000000               0.000000000               0.000000000               0.000000000              -0.000790216               0.002924676               0.000000000              -0.000661914               0.001195520               0.000533606               0.000000000               0.000000000               0.000000000               0.000000000              -0.000468283               0.003418531              -0.000000000              -0.000602921               0.001340473               0.000737551               0.000000000               0.000000000               0.000000000               0.000000000              -0.000182274               0.003825116              -0.000000000              -0.000546491               0.001457190               0.000910699               0.000000000               0.000000000               0.000000000               0.000000000               0.000106937               0.004159071               0.000000000              -0.000479781               0.001546270               0.001066489               0.000000000               0.000000000               0.000000000               0.000000000               0.000419126               0.004422591              -0.000000000              -0.000395651               0.001606066               0.001210415               0.000000000               0.000000000               0.000000000               0.000000000               0.000763618               0.004635806               0.000000000              -0.000293118               0.001642959               0.001349841               0.000000000               0.000000000               0.000000000               0.000000000               0.001149775               0.004805819               0.000000000              -0.000169562               0.001658444               0.001488883               0.000000000               0.000000000               0.000000000               0.000000000               0.001591474               0.004931718               0.000000000              -0.000019662               0.001650444               0.001630781               0.000000000               0.000000000               0.000000000               0.000000000               0.002108444               0.005009236              -0.000000000               0.000164510               0.001614892               0.001779402               0.000000000               0.000000000               0.000000000               0.000000000               0.002727297               0.005024912              -0.000000000               0.000394618               0.001543415               0.001938033               0.000000000               0.000000000               0.000000000               0.000000000               0.003220290               0.005068714               0.000000000               0.000574014               0.001498216               0.002072230               0.000000000               0.000000000               0.000000000               0.000000000               0.000000000               0.000000000               0.000000000               0.000000000               0.000000000               0.000000000               0.000000000               0.000000000               0.000000000               0.000000000               0.000000000               0.000000000               0.000000000               0.000000000               0.000000000               0.000000000               0.000000000               0.000000000               0.000000000               0.000000000               0.000000000               0.000000000               0.000000000               0.000000000               0.000000000               0.000000000               0.000000000               0.000000000               0.000000000               0.000000000               0.000000000               0.000000000               0.000000000               0.000000000               0.000000000               0.000000000               0.000000000               0.000000000               0.000000000               0.000000000               0.000000000               0.000000000               0.000000000               0.000000000               0.000000000               0.000000000               0.000000000               0.000000000               0.000000000               0.000000000               0.000000000               0.000000000               0.000000000               0.000000000               0.000000000               0.000000000               0.000000000               0.000000000               0.000000000               0.000000000               0.000000000               0.000000000               0.000000000               0.000000000               0.000000000               0.000000000               0.000000000               0.000000000               0.000000000               0.000000000               0.000000000               0.000000000               0.000000000               0.000000000               0.000000000               0.000000000               0.000000000               0.000000000               0.000000000               0.000000000               0.000000000               0.000000000               0.000000000               0.000000000               0.000000000               0.000000000               0.000000000               0.000000000               0.000000000               0.000000000               0.000000000               0.000000000               0.000000000               0.000000000               0.000000000               0.000000000               0.000000000               0.000000000               0.000000000               0.000000000               0.000000000               0.000000000               0.000000000               0.000000000               0.000000000               0.000000000               0.000000000               0.000000000               0.000000000               0.000000000               0.000000000               0.000000000               0.000000000               0.000000000               0.000000000               0.000000000               0.000000000               0.000000000               0.000000000               0.000000000               0.000000000               0.000000000               0.000000000               0.000000000               0.000000000               0.000000000               0.000000000               0.000000000               0.000000000               0.000000000               0.000000000               0.000000000               0.000000000               0.000000000               0.000000000               0.000000000               0.000000000               0.000000000               0.000000000               0.000000000               0.000000000               0.000000000               0.000000000               0.000000000               0.000000000               0.000000000               0.000000000               0.000000000               0.000000000               0.000000000               0.000000000               0.000000000               0.000000000               0.000000000               0.000000000               0.000000000               0.000000000               0.000000000               0.000000000               0.000000000               0.000000000               0.000000000               0.000000000               0.000000000               0.000000000               0.000000000               0.000000000               0.000000000               0.000000000               0.000000000               0.002205335               0.022543354               0.001575282              -0.001990914               0.008178014               0.006187100               0.000000000               0.000000000               0.000000000               0.000000000               0.002080903               0.017707955               0.000788746              -0.001433152               0.006380310               0.004947158               0.000000000               0.000000000               0.000000000               0.000000000               0.002631482               0.013835262               0.000002659              -0.000742600               0.004859241               0.004116641               0.000000000               0.000000000               0.000000000               0.000000000               0.002481919               0.011665220              -0.000330288              -0.000527432               0.004064178               0.003536747               0.000000000               0.000000000               0.000000000               0.000000000               0.002135508               0.010308750              -0.000465664              -0.000487777               0.003598808               0.003111031               0.000000000               0.000000000               0.000000000               0.000000000               0.001761468               0.009377417              -0.000512173              -0.000511625               0.003296316               0.002784691               0.000000000               0.000000000               0.000000000               0.000000000               0.001414977               0.008680838              -0.000516425              -0.000554487               0.003078413               0.002523926               0.000000000               0.000000000               0.000000000               0.000000000               0.001112932               0.008117334              -0.000500170              -0.000597316               0.002904856               0.002307540               0.000000000               0.000000000               0.000000000               0.000000000               0.000863037               0.007629415              -0.000472324              -0.000630036               0.002753125               0.002123089               0.000000000               0.000000000               0.000000000               0.000000000               0.000654435               0.007181472              -0.000441403              -0.000652269               0.002611223               0.001958954               0.000000000               0.000000000               0.000000000               0.000000000               0.000473642               0.006753761              -0.000413253              -0.000666603               0.002473432               0.001806829               0.000000000               0.000000000               0.000000000               0.000000000               0.000320787               0.006334940              -0.000383705              -0.000671571               0.002335482               0.001663912               0.000000000               0.000000000               0.000000000               0.000000000               0.000194651               0.005912382              -0.000347881              -0.000666052               0.002192791               0.001526740               0.000000000               0.000000000               0.000000000               0.000000000               0.000097189               0.005471991              -0.000297981              -0.000647551               0.002039829               0.001392278               0.000000000               0.000000000               0.000000000               0.000000000               0.000031091               0.004996281              -0.000229335              -0.000612875               0.001869702               0.001256827               0.000000000               0.000000000               0.000000000               0.000000000               0.000002599               0.004471324              -0.000132140              -0.000557940               0.001676406               0.001118467               0.000000000               0.000000000               0.000000000               0.000000000              -0.000042262               0.004079053              -0.000082022              -0.000525728               0.001534913               0.001009185               0.000000000               0.000000000               0.000000000               0.000000000               0.002400910               0.021223778               0.002925770              -0.001752628               0.007658731               0.005906103               0.000000000               0.000000000               0.000000000               0.000000000               0.001956692               0.016863966               0.001463745              -0.001374233               0.006079343               0.004705110               0.000000000               0.000000000               0.000000000               0.000000000               0.002166794               0.013494611               0.000019028              -0.000874277               0.004789584               0.003915308               0.000000000               0.000000000               0.000000000               0.000000000               0.001894354               0.011579509              -0.000570500              -0.000737054               0.004105482               0.003368428               0.000000000               0.000000000               0.000000000               0.000000000               0.001530506               0.010351378              -0.000798633              -0.000719981               0.003690418               0.002970437               0.000000000               0.000000000               0.000000000               0.000000000               0.001183619               0.009477034              -0.000868978              -0.000740770               0.003405903               0.002665133               0.000000000               0.000000000               0.000000000               0.000000000               0.000886090               0.008801972              -0.000867706              -0.000767961               0.003189948               0.002421987               0.000000000               0.000000000               0.000000000               0.000000000               0.000641754               0.008243225              -0.000832281              -0.000789744               0.003010962               0.002221219               0.000000000               0.000000000               0.000000000               0.000000000               0.000445126               0.007749637              -0.000781783              -0.000801781               0.002850447               0.002048666               0.000000000               0.000000000               0.000000000               0.000000000               0.000290960               0.007299031              -0.000728453              -0.000803267               0.002700741               0.001897475               0.000000000               0.000000000               0.000000000               0.000000000               0.000167139               0.006871551              -0.000677639              -0.000796265               0.002555916               0.001759651               0.000000000               0.000000000               0.000000000               0.000000000               0.000069710               0.006456672              -0.000624972              -0.000780941               0.002412516               0.001631575               0.000000000               0.000000000               0.000000000               0.000000000               0.000001153               0.006050465              -0.000561568              -0.000755874               0.002268759               0.001512885               0.000000000               0.000000000               0.000000000               0.000000000              -0.000039577               0.005643616              -0.000473757              -0.000720292               0.002121284               0.001400992               0.000000000               0.000000000               0.000000000               0.000000000              -0.000052887               0.005227980              -0.000353912              -0.000673329               0.001967085               0.001293757               0.000000000               0.000000000               0.000000000               0.000000000              -0.000035488               0.004805222              -0.000196223              -0.000613959               0.001806378               0.001192418               0.000000000               0.000000000               0.000000000               0.000000000              -0.000049468               0.004513982              -0.000118706              -0.000582797               0.001698911               0.001116114               0.000000000               0.000000000               0.000000000               0.000000000               0.002598268               0.019203251               0.003902965              -0.001426055               0.006876371               0.005450316               0.000000000               0.000000000               0.000000000               0.000000000               0.001705533               0.015585828               0.001960607              -0.001308651               0.005631441               0.004322790               0.000000000               0.000000000               0.000000000               0.000000000               0.001441912               0.012962194               0.000069974              -0.001079554               0.004680539               0.003600985               0.000000000               0.000000000               0.000000000               0.000000000               0.001025269               0.011402105              -0.000658770              -0.001040785               0.004147592               0.003106807               0.000000000               0.000000000               0.000000000               0.000000000               0.000659783               0.010341627              -0.000922562              -0.001045282               0.003795602               0.002750320               0.000000000               0.000000000               0.000000000               0.000000000               0.000375785               0.009541580              -0.000993722              -0.001051776               0.003531087               0.002479311               0.000000000               0.000000000               0.000000000               0.000000000               0.000164025               0.008892257              -0.000984374              -0.001050020               0.003314063               0.002264042               0.000000000               0.000000000               0.000000000               0.000000000               0.000013346               0.008333913              -0.000936502              -0.001036732               0.003123520               0.002086788               0.000000000               0.000000000               0.000000000               0.000000000              -0.000091511               0.007835646              -0.000872552              -0.001013770               0.002949779               0.001936009               0.000000000               0.000000000               0.000000000               0.000000000              -0.000163905               0.007377349              -0.000806976              -0.000983631               0.002786969               0.001803338               0.000000000               0.000000000               0.000000000               0.000000000              -0.000208658               0.006947947              -0.000744229              -0.000946738               0.002631539               0.001684801               0.000000000               0.000000000               0.000000000               0.000000000              -0.000224293               0.006543337              -0.000681939              -0.000902025               0.002481765               0.001579740               0.000000000               0.000000000               0.000000000               0.000000000              -0.000213895               0.006160001              -0.000607562              -0.000850209               0.002336716               0.001486507               0.000000000               0.000000000               0.000000000               0.000000000              -0.000182842               0.005792148              -0.000503469              -0.000792582               0.002194891               0.001402309               0.000000000               0.000000000               0.000000000               0.000000000              -0.000132155               0.005446287              -0.000365738              -0.000730342               0.002058858               0.001328516               0.000000000               0.000000000               0.000000000               0.000000000              -0.000067313               0.005138805              -0.000197532              -0.000667592               0.001935448               0.001267857               0.000000000               0.000000000               0.000000000               0.000000000              -0.000053232               0.004951419              -0.000116910              -0.000638888               0.001863419               0.001224531               0.000000000               0.000000000               0.000000000               0.000000000               0.002671116               0.016721415               0.004414006              -0.001088509               0.005936585               0.004848076               0.000000000               0.000000000               0.000000000               0.000000000               0.001301826               0.014038517               0.002249853              -0.001266628               0.005101668               0.003835040               0.000000000               0.000000000               0.000000000               0.000000000               0.000537038               0.012303020               0.000181291              -0.001336485               0.004546461               0.003209976               0.000000000               0.000000000               0.000000000               0.000000000               0.000022574               0.011128571              -0.000565124              -0.001382603               0.004170354               0.002787751               0.000000000               0.000000000               0.000000000               0.000000000              -0.000294218               0.010234977              -0.000819683              -0.001389701               0.003874858               0.002485158               0.000000000               0.000000000               0.000000000               0.000000000              -0.000474844               0.009504080              -0.000880649              -0.001366073               0.003623353               0.002257280               0.000000000               0.000000000               0.000000000               0.000000000              -0.000569035               0.008873418              -0.000865587              -0.001322562               0.003398631               0.002076068               0.000000000               0.000000000               0.000000000               0.000000000              -0.000608237               0.008308748              -0.000819096              -0.001266679               0.003191781               0.001925102               0.000000000               0.000000000               0.000000000               0.000000000              -0.000610742               0.007800055              -0.000760432              -0.001204032               0.003001336               0.001797304               0.000000000               0.000000000               0.000000000               0.000000000              -0.000583143               0.007338814              -0.000700588              -0.001136028               0.002824923               0.001688895               0.000000000               0.000000000               0.000000000               0.000000000              -0.000531521               0.006916303              -0.000644129              -0.001063856               0.002660030               0.001596174               0.000000000               0.000000000               0.000000000               0.000000000              -0.000459276               0.006525573              -0.000586828              -0.000987923               0.002504477               0.001516554               0.000000000               0.000000000               0.000000000               0.000000000              -0.000367926               0.006162974              -0.000515055              -0.000908342               0.002357085               0.001448743               0.000000000               0.000000000               0.000000000               0.000000000              -0.000266140               0.005833103              -0.000415265              -0.000828938               0.002220661               0.001391723               0.000000000               0.000000000               0.000000000               0.000000000              -0.000164143               0.005552043              -0.000291358              -0.000755557               0.002102515               0.001346958               0.000000000               0.000000000               0.000000000               0.000000000              -0.000075873               0.005337514              -0.000151230              -0.000695640               0.002011034               0.001315394               0.000000000               0.000000000               0.000000000               0.000000000              -0.000048552               0.005228635              -0.000084959              -0.000671785               0.001966789               0.001295004               0.000000000               0.000000000               0.000000000               0.000000000               0.002486274               0.014027001               0.004460458              -0.000821024               0.004949294               0.004128270               0.000000000               0.000000000               0.000000000               0.000000000               0.000737988               0.012391742               0.002359827              -0.001272221               0.004554613               0.003282392               0.000000000               0.000000000               0.000000000               0.000000000              -0.000440272               0.011577310               0.000375090              -0.001612262               0.004396485               0.002784224               0.000000000               0.000000000               0.000000000               0.000000000              -0.000961559               0.010759615              -0.000300593              -0.001705532               0.004155013               0.002449481               0.000000000               0.000000000               0.000000000               0.000000000              -0.001168643               0.010006896              -0.000523128              -0.001689099               0.003898632               0.002209533               0.000000000               0.000000000               0.000000000               0.000000000              -0.001214460               0.009328267              -0.000578312              -0.001621452               0.003649875               0.002028423               0.000000000               0.000000000               0.000000000               0.000000000              -0.001173017               0.008709489              -0.000572641              -0.001528564               0.003412655               0.001884091               0.000000000               0.000000000               0.000000000               0.000000000              -0.001086857               0.008146349              -0.000546463              -0.001425861               0.003190710               0.001764848               0.000000000               0.000000000               0.000000000               0.000000000              -0.000977802               0.007638539              -0.000516393              -0.001321490               0.002986651               0.001665161               0.000000000               0.000000000               0.000000000               0.000000000              -0.000852373               0.007186965              -0.000483907              -0.001218008               0.002801634               0.001583626               0.000000000               0.000000000               0.000000000               0.000000000              -0.000716270               0.006780893              -0.000446804              -0.001116210               0.002632345               0.001516135               0.000000000               0.000000000               0.000000000               0.000000000              -0.000573091               0.006407207              -0.000402631              -0.001015807               0.002474317               0.001458509               0.000000000               0.000000000               0.000000000               0.000000000              -0.000422865               0.006065174              -0.000345188              -0.000916719               0.002327277               0.001410559               0.000000000               0.000000000               0.000000000               0.000000000              -0.000276480               0.005771192              -0.000268406              -0.000825077               0.002198737               0.001373660               0.000000000               0.000000000               0.000000000               0.000000000              -0.000152924               0.005541545              -0.000177635              -0.000750038               0.002097176               0.001347138               0.000000000               0.000000000               0.000000000               0.000000000              -0.000063819               0.005385977              -0.000086997              -0.000697177               0.002027700               0.001330523               0.000000000               0.000000000               0.000000000               0.000000000              -0.000035494               0.005317527              -0.000048045              -0.000677999               0.001998491               0.001320492               0.000000000               0.000000000               0.000000000               0.000000000               0.001978543               0.011344196               0.004120971              -0.000676073               0.004006717               0.003330644               0.000000000               0.000000000               0.000000000               0.000000000               0.000047852               0.010777244               0.002342618              -0.001329210               0.004035448               0.002706239               0.000000000               0.000000000               0.000000000               0.000000000              -0.001378394               0.010808129               0.000656402              -0.001867909               0.004225310               0.002357401               0.000000000               0.000000000               0.000000000               0.000000000              -0.001805545               0.010281471               0.000097321              -0.001962258               0.004081209               0.002118950               0.000000000               0.000000000               0.000000000               0.000000000              -0.001853672               0.009643078              -0.000101384              -0.001900507               0.003847830               0.001947323               0.000000000               0.000000000               0.000000000               0.000000000              -0.001745775               0.009010312              -0.000172933              -0.001780950               0.003597058               0.001816107               0.000000000               0.000000000               0.000000000               0.000000000              -0.001568769               0.008417709              -0.000198249              -0.001640498               0.003352708               0.001712210               0.000000000               0.000000000               0.000000000               0.000000000              -0.001362951               0.007874621              -0.000211203              -0.001495431               0.003123324               0.001627894               0.000000000               0.000000000               0.000000000               0.000000000              -0.001153249               0.007385683              -0.000221723              -0.001355675               0.002913761               0.001558086               0.000000000               0.000000000               0.000000000               0.000000000              -0.000945596               0.006950328              -0.000227221              -0.001223386               0.002724548               0.001501162               0.000000000               0.000000000               0.000000000               0.000000000              -0.000741796               0.006559619              -0.000218879              -0.001098123               0.002552559               0.001454436               0.000000000               0.000000000               0.000000000               0.000000000              -0.000550079               0.006200664              -0.000195574              -0.000981360               0.002393987               0.001412627               0.000000000               0.000000000               0.000000000               0.000000000              -0.000373759               0.005883565              -0.000161817              -0.000875603               0.002253036               0.001377433               0.000000000               0.000000000               0.000000000               0.000000000              -0.000223931               0.005626947              -0.000118347              -0.000787340               0.002138077               0.001350737               0.000000000               0.000000000               0.000000000               0.000000000              -0.000112950               0.005439176              -0.000070454              -0.000722252               0.002053791               0.001331540               0.000000000               0.000000000               0.000000000               0.000000000              -0.000042520               0.005316647              -0.000030175              -0.000680524               0.001999039               0.001318515               0.000000000               0.000000000               0.000000000               0.000000000              -0.000023921               0.005260633              -0.000017279              -0.000666548               0.001975709               0.001309162               0.000000000               0.000000000               0.000000000               0.000000000               0.001180265               0.008850959               0.003490489              -0.000663772               0.003171547               0.002507774               0.000000000               0.000000000               0.000000000               0.000000000              -0.000728315               0.009282359               0.002244822              -0.001433411               0.003571892               0.002138481               0.000000000               0.000000000               0.000000000               0.000000000              -0.002185281               0.010001186               0.001019630              -0.002069624               0.004023570               0.001953946               0.000000000               0.000000000               0.000000000               0.000000000              -0.002423147               0.009702365               0.000568755              -0.002121470               0.003941246               0.001819776               0.000000000               0.000000000               0.000000000               0.000000000              -0.002288400               0.009162639               0.000362907              -0.002003475               0.003722008               0.001718533               0.000000000               0.000000000               0.000000000               0.000000000              -0.002030205               0.008586698               0.000249064              -0.001834660               0.003473757               0.001639098               0.000000000               0.000000000               0.000000000               0.000000000              -0.001734637               0.008038715               0.000173817              -0.001655324               0.003231320               0.001575996               0.000000000               0.000000000               0.000000000               0.000000000              -0.001435567               0.007532120               0.000115613              -0.001479849               0.003003965               0.001524116               0.000000000               0.000000000               0.000000000               0.000000000              -0.001151312               0.007069296               0.000061432              -0.001315401               0.002794875               0.001479475               0.000000000               0.000000000               0.000000000               0.000000000              -0.000886571               0.006648305               0.000014385              -0.001163499               0.002603913               0.001440413               0.000000000               0.000000000               0.000000000               0.000000000              -0.000642967               0.006265172              -0.000012739              -0.001024257               0.002429788               0.001405532               0.000000000               0.000000000               0.000000000               0.000000000              -0.000431251               0.005925664              -0.000018938              -0.000902425               0.002276010               0.001373585               0.000000000               0.000000000               0.000000000               0.000000000              -0.000261458               0.005645514              -0.000016110              -0.000803734               0.002149731               0.001345997               0.000000000               0.000000000               0.000000000               0.000000000              -0.000137864               0.005432334              -0.000009478              -0.000730739               0.002054340               0.001323601               0.000000000               0.000000000               0.000000000               0.000000000              -0.000059543               0.005282715              -0.000000179              -0.000682666               0.001988443               0.001305777               0.000000000               0.000000000               0.000000000               0.000000000              -0.000020308               0.005183007               0.000003749              -0.000655490               0.001946148               0.001290659               0.000000000               0.000000000               0.000000000               0.000000000              -0.000015656               0.005133889              -0.000000806              -0.000647605               0.001927148               0.001279542               0.000000000               0.000000000               0.000000000               0.000000000               0.000203731               0.006727844               0.002690053              -0.000764582               0.002497452               0.001732870               0.000000000               0.000000000               0.000000000               0.000000000              -0.001481689               0.007933702               0.002120554              -0.001547343               0.003160321               0.001612978               0.000000000               0.000000000               0.000000000               0.000000000              -0.002802763               0.009201352               0.001451111              -0.002201200               0.003800820               0.001599620               0.000000000               0.000000000               0.000000000               0.000000000              -0.002838089               0.009142132               0.001068677              -0.002207044               0.003783028               0.001575984               0.000000000               0.000000000               0.000000000               0.000000000              -0.002551828               0.008731952               0.000829741              -0.002048425               0.003593430               0.001545005               0.000000000               0.000000000               0.000000000               0.000000000              -0.002172938               0.008245537               0.000659134              -0.001845539               0.003363665               0.001518125               0.000000000               0.000000000               0.000000000               0.000000000              -0.001786370               0.007757512               0.000528413              -0.001639574               0.003132336               0.001492762               0.000000000               0.000000000               0.000000000               0.000000000              -0.001418811               0.007294079               0.000426683              -0.001443811               0.002912605               0.001468795               0.000000000               0.000000000               0.000000000               0.000000000              -0.001081045               0.006862128               0.000334911              -0.001263155               0.002708405               0.001445250               0.000000000               0.000000000               0.000000000               0.000000000              -0.000779384               0.006460475               0.000250661              -0.001099826               0.002520079               0.001420253               0.000000000               0.000000000               0.000000000               0.000000000              -0.000518451               0.006086013               0.000181469              -0.000955168               0.002347040               0.001391872               0.000000000               0.000000000               0.000000000               0.000000000              -0.000308591               0.005760357               0.000132013              -0.000835764               0.002198688               0.001362924               0.000000000               0.000000000               0.000000000               0.000000000              -0.000156188               0.005502467               0.000094681              -0.000746377               0.002082930               0.001336552               0.000000000               0.000000000               0.000000000               0.000000000              -0.000064771               0.005310961               0.000062642              -0.000688157               0.001999688               0.001311531               0.000000000               0.000000000               0.000000000               0.000000000              -0.000026009               0.005175457               0.000038363              -0.000656684               0.001944030               0.001287346               0.000000000               0.000000000               0.000000000               0.000000000              -0.000021183               0.005087584               0.000019310              -0.000643890               0.001910474               0.001266584               0.000000000               0.000000000               0.000000000               0.000000000              -0.000028615               0.005046810               0.000007338              -0.000641580               0.001896113               0.001254533               0.000000000               0.000000000               0.000000000               0.000000000              -0.000959235               0.004733311               0.001837083              -0.000951376               0.001894879               0.000943503               0.000000000               0.000000000               0.000000000               0.000000000              -0.002097195               0.006370073               0.001978421              -0.001582704               0.002650904               0.001068200               0.000000000               0.000000000               0.000000000               0.000000000              -0.003142633               0.008036855               0.001909544              -0.002183089               0.003406621               0.001223532               0.000000000               0.000000000               0.000000000               0.000000000              -0.003073334               0.008341413               0.001604580              -0.002195172               0.003512167               0.001316995               0.000000000               0.000000000               0.000000000               0.000000000              -0.002731883               0.008186597               0.001330062              -0.002047776               0.003411430               0.001363654               0.000000000               0.000000000               0.000000000               0.000000000              -0.002321834               0.007880694               0.001105488              -0.001855770               0.003245462               0.001389692               0.000000000               0.000000000               0.000000000               0.000000000              -0.001904774               0.007526459               0.000925133              -0.001655093               0.003060492               0.001405399               0.000000000               0.000000000               0.000000000               0.000000000              -0.001511612               0.007156605               0.000779751              -0.001461427               0.002872653               0.001411227               0.000000000               0.000000000               0.000000000               0.000000000              -0.001153829               0.006793676               0.000649742              -0.001281892               0.002691833               0.001409941               0.000000000               0.000000000               0.000000000               0.000000000              -0.000837831               0.006449449               0.000527860              -0.001120365               0.002523250               0.001402885               0.000000000               0.000000000               0.000000000               0.000000000              -0.000566208               0.006121275               0.000415681              -0.000977485               0.002366233               0.001388748               0.000000000               0.000000000               0.000000000               0.000000000              -0.000344773               0.005817174               0.000317181              -0.000856435               0.002224517               0.001368082               0.000000000               0.000000000               0.000000000               0.000000000              -0.000181385               0.005555267               0.000229217              -0.000762426               0.002105879               0.001343453               0.000000000               0.000000000               0.000000000               0.000000000              -0.000079841               0.005343033               0.000150557              -0.000697818               0.002013599               0.001315782               0.000000000               0.000000000               0.000000000               0.000000000              -0.000037456               0.005183723               0.000085310              -0.000662010               0.001948560               0.001286551               0.000000000               0.000000000               0.000000000               0.000000000              -0.000041161               0.005074135               0.000034283              -0.000649700               0.001907928               0.001258228               0.000000000               0.000000000               0.000000000               0.000000000              -0.000057966               0.005023590               0.000010459              -0.000649684               0.001891075               0.001241390               0.000000000               0.000000000               0.000000000               0.000000000              -0.002458242               0.002920240               0.000985328              -0.001286868               0.001402359               0.000115491               0.000000000               0.000000000               0.000000000               0.000000000              -0.002788020               0.004800018               0.001761915              -0.001645506               0.002148492               0.000502985               0.000000000               0.000000000               0.000000000               0.000000000              -0.003375706               0.006684650               0.002272092              -0.002101466               0.002928682               0.000827216               0.000000000               0.000000000               0.000000000               0.000000000              -0.003215708               0.007341794               0.002114256              -0.002123610               0.003155110               0.001031500               0.000000000               0.000000000               0.000000000               0.000000000              -0.002847429               0.007485110               0.001841888              -0.002003420               0.003162818               0.001159398               0.000000000               0.000000000               0.000000000               0.000000000              -0.002434232               0.007398965               0.001584540              -0.001837704               0.003078865               0.001241161               0.000000000               0.000000000               0.000000000               0.000000000              -0.002015354               0.007212518               0.001366083              -0.001657319               0.002956588               0.001299269               0.000000000               0.000000000               0.000000000               0.000000000              -0.001617485               0.006972552               0.001180696              -0.001478123               0.002816868               0.001338745               0.000000000               0.000000000               0.000000000               0.000000000              -0.001249650               0.006706902               0.001015357              -0.001306979               0.002671271               0.001364292               0.000000000               0.000000000               0.000000000               0.000000000              -0.000917417               0.006438142               0.000861267              -0.001148797               0.002528958               0.001380161               0.000000000               0.000000000               0.000000000               0.000000000              -0.000625250               0.006171539               0.000716526              -0.001005909               0.002392462               0.001386553               0.000000000               0.000000000               0.000000000               0.000000000              -0.000377708               0.005906983               0.000577821              -0.000880011               0.002262312               0.001382300               0.000000000               0.000000000               0.000000000               0.000000000              -0.000184474               0.005657378               0.000443788              -0.000776348               0.002144557               0.001368209               0.000000000               0.000000000               0.000000000               0.000000000              -0.000051698               0.005433640               0.000314119              -0.000698590               0.002044059               0.001345469               0.000000000               0.000000000               0.000000000               0.000000000               0.000012134               0.005250003               0.000191565              -0.000651699               0.001967216               0.001315518               0.000000000               0.000000000               0.000000000               0.000000000               0.000007256               0.005107820               0.000084639              -0.000635755               0.001914508               0.001278753               0.000000000               0.000000000               0.000000000               0.000000000              -0.000023268               0.005038806               0.000032478              -0.000638575               0.001892443               0.001253869               0.000000000               0.000000000               0.000000000               0.000000000              -0.004193219               0.001433489               0.000203502              -0.001751641               0.001061703              -0.000689938               0.000000000               0.000000000               0.000000000               0.000000000              -0.003609270               0.003315946               0.001447762              -0.001767966               0.001694625              -0.000073341               0.000000000               0.000000000               0.000000000               0.000000000              -0.003546422               0.005160089               0.002421819              -0.001974915               0.002378317               0.000403401               0.000000000               0.000000000               0.000000000               0.000000000              -0.003214088               0.006063945               0.002451713              -0.001963272               0.002675718               0.000712446               0.000000000               0.000000000               0.000000000               0.000000000              -0.002804982               0.006478286               0.002234200              -0.001861650               0.002779957               0.000918306               0.000000000               0.000000000               0.000000000               0.000000000              -0.002393163               0.006628884               0.001980519              -0.001726043               0.002784953               0.001058910               0.000000000               0.000000000               0.000000000               0.000000000              -0.001989628               0.006634535               0.001747106              -0.001575424               0.002736630               0.001161206               0.000000000               0.000000000               0.000000000               0.000000000              -0.001603645               0.006553227               0.001539110              -0.001420517               0.002657893               0.001237375               0.000000000               0.000000000               0.000000000               0.000000000              -0.001241126               0.006414294               0.001350918              -0.001267206               0.002560478               0.001293272               0.000000000               0.000000000               0.000000000               0.000000000              -0.000903918               0.006248165               0.001177510              -0.001119988               0.002456030               0.001336042               0.000000000               0.000000000               0.000000000               0.000000000              -0.000596078               0.006066984               0.001015007              -0.000981900               0.002349608               0.001367708               0.000000000               0.000000000               0.000000000               0.000000000              -0.000323266               0.005871218               0.000855735              -0.000855125               0.002242095               0.001386970               0.000000000               0.000000000               0.000000000               0.000000000              -0.000092720               0.005669197               0.000693387              -0.000743418               0.002137519               0.001394101               0.000000000               0.000000000               0.000000000               0.000000000               0.000080600               0.005470054               0.000522165              -0.000653530               0.002041177               0.001387646               0.000000000               0.000000000               0.000000000               0.000000000               0.000183529               0.005287676               0.000342287              -0.000592135               0.001959919               0.001367784               0.000000000               0.000000000               0.000000000               0.000000000               0.000202913               0.005131522               0.000165262              -0.000565347               0.001898939               0.001333593               0.000000000               0.000000000               0.000000000               0.000000000               0.000173534               0.005052087               0.000074498              -0.000566434               0.001872823               0.001306389               0.000000000               0.000000000               0.000000000               0.000000000              -0.006041566               0.000341218              -0.000397808              -0.002308238               0.000883146              -0.001425092               0.000000000               0.000000000               0.000000000               0.000000000              -0.004505794               0.001999346               0.001078439              -0.001939588               0.001312969              -0.000626619               0.000000000               0.000000000               0.000000000               0.000000000              -0.003681329               0.003587850               0.002327185              -0.001828976               0.001805595              -0.000023381               0.000000000               0.000000000               0.000000000               0.000000000              -0.003096075               0.004604192               0.002530911              -0.001736549               0.002113564               0.000377015               0.000000000               0.000000000               0.000000000               0.000000000              -0.002611273               0.005233582               0.002399128              -0.001633422               0.002288983               0.000655561               0.000000000               0.000000000               0.000000000               0.000000000              -0.002188396               0.005608903               0.002182968              -0.001521759               0.002376868               0.000855109               0.000000000               0.000000000               0.000000000               0.000000000              -0.001804473               0.005808390               0.001964835              -0.001402723               0.002403685               0.001000961               0.000000000               0.000000000               0.000000000               0.000000000              -0.001440575               0.005893995               0.001760323              -0.001276963               0.002390299               0.001113337               0.000000000               0.000000000               0.000000000               0.000000000              -0.001092452               0.005904381               0.001568949              -0.001147715               0.002350679               0.001202964               0.000000000               0.000000000               0.000000000               0.000000000              -0.000759237               0.005864188               0.001392744              -0.001017735               0.002293955               0.001276219               0.000000000               0.000000000               0.000000000               0.000000000              -0.000443931               0.005788615               0.001228468              -0.000890049               0.002226202               0.001336152               0.000000000               0.000000000               0.000000000               0.000000000              -0.000148021               0.005688232               0.001068168              -0.000766536               0.002151570               0.001385034               0.000000000               0.000000000               0.000000000               0.000000000               0.000120732               0.005561253               0.000899899              -0.000649881               0.002070359               0.001420478               0.000000000               0.000000000               0.000000000               0.000000000               0.000350448               0.005416323               0.000711149              -0.000545621               0.001987296               0.001441675               0.000000000               0.000000000               0.000000000               0.000000000               0.000524708               0.005269558               0.000496627              -0.000461928               0.001910478               0.001448550               0.000000000               0.000000000               0.000000000               0.000000000               0.000619844               0.005131655               0.000257578              -0.000409014               0.001846873               0.001437858               0.000000000               0.000000000               0.000000000               0.000000000               0.000637638               0.005062589               0.000131011              -0.000393709               0.001818749               0.001425040               0.000000000               0.000000000               0.000000000               0.000000000              -0.007818794              -0.000370645              -0.000721747              -0.002885715               0.000838351              -0.002047364               0.000000000               0.000000000               0.000000000               0.000000000              -0.005401236               0.000927185               0.000713890              -0.002141359               0.001022841              -0.001118518               0.000000000               0.000000000               0.000000000               0.000000000              -0.003799450               0.002131611               0.001989363              -0.001691243               0.001274275              -0.000416967               0.000000000               0.000000000               0.000000000               0.000000000              -0.002915690               0.003145025               0.002298142              -0.001486509               0.001543833               0.000057324               0.000000000               0.000000000               0.000000000               0.000000000              -0.002323331               0.003907780               0.002254430              -0.001359719               0.001755819               0.000396100               0.000000000               0.000000000               0.000000000               0.000000000              -0.001870582               0.004459248               0.002096340              -0.001258872               0.001906024               0.000647152               0.000000000               0.000000000               0.000000000               0.000000000              -0.001496085               0.004834384               0.001917127              -0.001165328               0.001999887               0.000834559               0.000000000               0.000000000               0.000000000               0.000000000              -0.001157238               0.005079002               0.001741617              -0.001068838               0.002049262               0.000980425               0.000000000               0.000000000               0.000000000               0.000000000              -0.000828654               0.005237343               0.001573337              -0.000965411               0.002067567               0.001102155               0.000000000               0.000000000               0.000000000               0.000000000              -0.000503620               0.005332002               0.001415881              -0.000855357               0.002062435               0.001207078               0.000000000               0.000000000               0.000000000               0.000000000              -0.000183683               0.005376202               0.001269075              -0.000740905               0.002039017               0.001298112               0.000000000               0.000000000               0.000000000               0.000000000               0.000130446               0.005382800               0.001125833              -0.000623932               0.002002226               0.001378294               0.000000000               0.000000000               0.000000000               0.000000000               0.000437061               0.005353214               0.000973878              -0.000505253               0.001952804               0.001447551               0.000000000               0.000000000               0.000000000               0.000000000               0.000733195               0.005293508               0.000797441              -0.000386740               0.001893398               0.001506658               0.000000000               0.000000000               0.000000000               0.000000000               0.001004778               0.005209579               0.000581038              -0.000274405               0.001827977               0.001553572               0.000000000               0.000000000               0.000000000               0.000000000               0.001230539               0.005109619               0.000314751              -0.000177250               0.001762273               0.001585023               0.000000000               0.000000000               0.000000000               0.000000000               0.001356563               0.005067673               0.000173699              -0.000124748               0.001730790               0.001606042               0.000000000               0.000000000               0.000000000               0.000000000              -0.009305915              -0.000759160              -0.000724623              -0.003394821               0.000878547              -0.002516273               0.000000000               0.000000000               0.000000000               0.000000000              -0.006184475               0.000158749               0.000406730              -0.002339020               0.000832584              -0.001506436               0.000000000               0.000000000               0.000000000               0.000000000              -0.003910832               0.000958492               0.001446635              -0.001586372               0.000848282              -0.000738090               0.000000000               0.000000000               0.000000000               0.000000000              -0.002735491               0.001891104               0.001750774              -0.001262195               0.001051092              -0.000211104               0.000000000               0.000000000               0.000000000               0.000000000              -0.002025980               0.002710574               0.001764117              -0.001098562               0.001269702               0.000171140               0.000000000               0.000000000               0.000000000               0.000000000              -0.001531356               0.003376257               0.001668885              -0.000996289               0.001457503               0.000461214               0.000000000               0.000000000               0.000000000               0.000000000              -0.001153768               0.003885269               0.001544400              -0.000918320               0.001601183               0.000682863               0.000000000               0.000000000               0.000000000               0.000000000              -0.000831957               0.004261596               0.001418930              -0.000844682               0.001702078               0.000857396               0.000000000               0.000000000               0.000000000               0.000000000              -0.000520598               0.004549898               0.001295884              -0.000763960               0.001771271               0.001007310               0.000000000               0.000000000               0.000000000               0.000000000              -0.000207528               0.004768049               0.001177634              -0.000673828               0.001813943               0.001140115               0.000000000               0.000000000               0.000000000               0.000000000               0.000109685               0.004923529               0.001065747              -0.000574308               0.001832596               0.001258288               0.000000000               0.000000000               0.000000000               0.000000000               0.000437702               0.005031535               0.000957268              -0.000464803               0.001832096               0.001367293               0.000000000               0.000000000               0.000000000               0.000000000               0.000781692               0.005100857               0.000843290              -0.000344472               0.001815093               0.001470621               0.000000000               0.000000000               0.000000000               0.000000000               0.001144410               0.005134266               0.000705846              -0.000212629               0.001782281               0.001569652               0.000000000               0.000000000               0.000000000               0.000000000               0.001527131               0.005128155               0.000527097              -0.000068345               0.001732150               0.001663804               0.000000000               0.000000000               0.000000000               0.000000000               0.001924483               0.005079122               0.000291761               0.000086790               0.001664094               0.001750884               0.000000000               0.000000000               0.000000000               0.000000000               0.002207194               0.005073315               0.000168657               0.000193531               0.001626578               0.001820109               0.000000000               0.000000000               0.000000000               0.000000000              -0.010295783              -0.000930421              -0.000443905              -0.003744614               0.000938058              -0.002806556               0.000000000               0.000000000               0.000000000               0.000000000              -0.006720982              -0.000296955               0.000175730              -0.002483247               0.000728759              -0.001754488               0.000000000               0.000000000               0.000000000               0.000000000              -0.003994109               0.000195612               0.000756982              -0.001522241               0.000572613              -0.000949628               0.000000000               0.000000000               0.000000000               0.000000000              -0.002607391               0.001039261               0.000944590              -0.001107678               0.000715641              -0.000392037               0.000000000               0.000000000               0.000000000               0.000000000              -0.001807946               0.001871864               0.000969737              -0.000911961               0.000927935               0.000015974               0.000000000               0.000000000               0.000000000               0.000000000              -0.001280014               0.002594160               0.000927838              -0.000804273               0.001132802               0.000328529               0.000000000               0.000000000               0.000000000               0.000000000              -0.000888870               0.003184375               0.000864600              -0.000731372               0.001305238               0.000573866               0.000000000               0.000000000               0.000000000               0.000000000              -0.000570057               0.003648137               0.000802056              -0.000669787               0.001439296               0.000769509               0.000000000               0.000000000               0.000000000               0.000000000              -0.000275768               0.004022343               0.000739119              -0.000606205               0.001542836               0.000936631               0.000000000               0.000000000               0.000000000               0.000000000               0.000022266               0.004326501               0.000674313              -0.000532462               0.001619640               0.001087178               0.000000000               0.000000000               0.000000000               0.000000000               0.000335270               0.004562775               0.000612752              -0.000444620               0.001669116               0.001224497               0.000000000               0.000000000               0.000000000               0.000000000               0.000675284               0.004747673               0.000554807              -0.000340227               0.001695951               0.001355724               0.000000000               0.000000000               0.000000000               0.000000000               0.001050196               0.004892292               0.000493031              -0.000217713               0.001703319               0.001485606               0.000000000               0.000000000               0.000000000               0.000000000               0.001468765               0.004993465               0.000417336              -0.000073396               0.001688937               0.001615541               0.000000000               0.000000000               0.000000000               0.000000000               0.001947008               0.005047099               0.000315331               0.000099240               0.001649270               0.001748509               0.000000000               0.000000000               0.000000000               0.000000000               0.002500806               0.005043156               0.000174991               0.000307405               0.001578567               0.001885972               0.000000000               0.000000000               0.000000000               0.000000000               0.002931724               0.005071356               0.000102931               0.000465472               0.001535278               0.002000750               0.000000000               0.000000000               0.000000000               0.000000000              -0.010642764              -0.000979478               0.000000000              -0.003868600               0.000963034              -0.002905565               0.000000000               0.000000000               0.000000000               0.000000000              -0.006910703              -0.000451064               0.000000000              -0.002535129               0.000694684              -0.001840445               0.000000000               0.000000000               0.000000000               0.000000000              -0.004024584              -0.000070109              -0.000000000              -0.001500454               0.000476778              -0.001023676               0.000000000               0.000000000               0.000000000               0.000000000              -0.002562126               0.000739518               0.000000000              -0.001053236               0.000597580              -0.000455655               0.000000000               0.000000000               0.000000000               0.000000000              -0.001729466               0.001571949              -0.000000000              -0.000845042               0.000805658              -0.000039384               0.000000000               0.000000000               0.000000000               0.000000000              -0.001191007               0.002308516               0.000000000              -0.000735190               0.001014561               0.000279370               0.000000000               0.000000000               0.000000000               0.000000000              -0.000790216               0.002924676               0.000000000              -0.000661914               0.001195520               0.000533606               0.000000000               0.000000000               0.000000000               0.000000000              -0.000468283               0.003418531              -0.000000000              -0.000602921               0.001340473               0.000737551               0.000000000               0.000000000               0.000000000               0.000000000              -0.000182274               0.003825116               0.000000000              -0.000546491               0.001457190               0.000910699               0.000000000               0.000000000               0.000000000               0.000000000               0.000106937               0.004159071               0.000000000              -0.000479781               0.001546270               0.001066489               0.000000000               0.000000000               0.000000000               0.000000000               0.000419126               0.004422591              -0.000000000              -0.000395651               0.001606066               0.001210415               0.000000000               0.000000000               0.000000000               0.000000000               0.000763618               0.004635806              -0.000000000              -0.000293118               0.001642959               0.001349841               0.000000000               0.000000000               0.000000000               0.000000000               0.001149775               0.004805819              -0.000000000              -0.000169562               0.001658444               0.001488883               0.000000000               0.000000000               0.000000000               0.000000000               0.001591474               0.004931718              -0.000000000              -0.000019662               0.001650444               0.001630781               0.000000000               0.000000000               0.000000000               0.000000000               0.002108444               0.005009236              -0.000000000               0.000164510               0.001614892               0.001779402               0.000000000               0.000000000               0.000000000               0.000000000               0.002727297               0.005024912              -0.000000000               0.000394618               0.001543415               0.001938033               0.000000000               0.000000000               0.000000000               0.000000000               0.003220290               0.005068714              -0.000000000               0.000574014               0.001498216               0.002072230               0.000000000               0.000000000               0.000000000               0.000000000               0.002122448               0.023001065              -0.000000000              -0.002079210               0.008360015               0.006280805               0.000000000               0.000000000               0.000000000               0.000000000               0.002113653               0.018002857              -0.000000000              -0.001457734               0.006486803               0.005029070               0.000000000               0.000000000               0.000000000               0.000000000               0.002786369               0.013949479               0.000000000              -0.000698795               0.004882712               0.004183917               0.000000000               0.000000000               0.000000000               0.000000000               0.002686455               0.011687027               0.000000000              -0.000453457               0.004046789               0.003593332               0.000000000               0.000000000               0.000000000               0.000000000               0.002351326               0.010283296               0.000000000              -0.000403664               0.003562286               0.003158622               0.000000000               0.000000000               0.000000000               0.000000000               0.001967789               0.009329876              -0.000000000              -0.000428312               0.003252698               0.002824386               0.000000000               0.000000000               0.000000000               0.000000000               0.001604235               0.008623706              -0.000000000              -0.000476374               0.003033331               0.002556957               0.000000000               0.000000000               0.000000000               0.000000000               0.001286748               0.008059047              -0.000000000              -0.000524849               0.002861272               0.002336423               0.000000000               0.000000000               0.000000000               0.000000000               0.001021914               0.007574054              -0.000000000              -0.000563537               0.002712505               0.002148968               0.000000000               0.000000000               0.000000000               0.000000000               0.000798015               0.007128050               0.000000000              -0.000591749               0.002573243               0.001981493               0.000000000               0.000000000               0.000000000               0.000000000               0.000599009               0.006701116               0.000000000              -0.000613010               0.002438020               0.001825010               0.000000000               0.000000000               0.000000000               0.000000000               0.000419352               0.006281100              -0.000000000              -0.000627879               0.002302972               0.001675093               0.000000000               0.000000000               0.000000000               0.000000000               0.000265171               0.005852075               0.000000000              -0.000632069               0.002161362               0.001529293               0.000000000               0.000000000               0.000000000               0.000000000               0.000143555               0.005397951              -0.000000000              -0.000620909               0.002006269               0.001385359               0.000000000               0.000000000               0.000000000               0.000000000               0.000056027               0.004895650              -0.000000000              -0.000590945               0.001828849               0.001237904               0.000000000               0.000000000               0.000000000               0.000000000               0.000015337               0.004328334              -0.000000000              -0.000535289               0.001621193               0.001085904               0.000000000               0.000000000               0.000000000               0.000000000              -0.000038205               0.003891742              -0.000000000              -0.000500793               0.001464166               0.000963372               0.000000000               0.000000000               0.000000000               0.000000000               0.002205335               0.022543354              -0.001575282              -0.001990914               0.008178014               0.006187100               0.000000000               0.000000000               0.000000000               0.000000000               0.002080903               0.017707955              -0.000788746              -0.001433152               0.006380310               0.004947158               0.000000000               0.000000000               0.000000000               0.000000000               0.002631482               0.013835262              -0.000002659              -0.000742600               0.004859241               0.004116641               0.000000000               0.000000000               0.000000000               0.000000000               0.002481919               0.011665220               0.000330288              -0.000527432               0.004064178               0.003536747               0.000000000               0.000000000               0.000000000               0.000000000               0.002135508               0.010308750               0.000465664              -0.000487777               0.003598808               0.003111031               0.000000000               0.000000000               0.000000000               0.000000000               0.001761468               0.009377417               0.000512173              -0.000511625               0.003296316               0.002784691               0.000000000               0.000000000               0.000000000               0.000000000               0.001414977               0.008680838               0.000516425              -0.000554487               0.003078413               0.002523926               0.000000000               0.000000000               0.000000000               0.000000000               0.001112932               0.008117334               0.000500170              -0.000597316               0.002904856               0.002307540               0.000000000               0.000000000               0.000000000               0.000000000               0.000863037               0.007629415               0.000472324              -0.000630036               0.002753125               0.002123089               0.000000000               0.000000000               0.000000000               0.000000000               0.000654435               0.007181472               0.000441403              -0.000652269               0.002611223               0.001958954               0.000000000               0.000000000               0.000000000               0.000000000               0.000473642               0.006753761               0.000413253              -0.000666603               0.002473432               0.001806829               0.000000000               0.000000000               0.000000000               0.000000000               0.000320787               0.006334940               0.000383705              -0.000671571               0.002335482               0.001663912               0.000000000               0.000000000               0.000000000               0.000000000               0.000194651               0.005912382               0.000347881              -0.000666052               0.002192791               0.001526740               0.000000000               0.000000000               0.000000000               0.000000000               0.000097189               0.005471991               0.000297981              -0.000647551               0.002039829               0.001392278               0.000000000               0.000000000               0.000000000               0.000000000               0.000031091               0.004996281               0.000229335              -0.000612875               0.001869702               0.001256827               0.000000000               0.000000000               0.000000000               0.000000000               0.000002599               0.004471324               0.000132140              -0.000557940               0.001676406               0.001118467               0.000000000               0.000000000               0.000000000               0.000000000              -0.000042262               0.004079053               0.000082022              -0.000525728               0.001534913               0.001009185               0.000000000               0.000000000               0.000000000               0.000000000               0.002400910               0.021223778              -0.002925770              -0.001752628               0.007658731               0.005906103               0.000000000               0.000000000               0.000000000               0.000000000               0.001956692               0.016863966              -0.001463745              -0.001374233               0.006079343               0.004705110               0.000000000               0.000000000               0.000000000               0.000000000               0.002166794               0.013494611              -0.000019028              -0.000874277               0.004789584               0.003915308               0.000000000               0.000000000               0.000000000               0.000000000               0.001894354               0.011579509               0.000570500              -0.000737054               0.004105482               0.003368428               0.000000000               0.000000000               0.000000000               0.000000000               0.001530506               0.010351378               0.000798633              -0.000719981               0.003690418               0.002970437               0.000000000               0.000000000               0.000000000               0.000000000               0.001183619               0.009477034               0.000868978              -0.000740770               0.003405903               0.002665133               0.000000000               0.000000000               0.000000000               0.000000000               0.000886090               0.008801972               0.000867706              -0.000767961               0.003189948               0.002421987               0.000000000               0.000000000               0.000000000               0.000000000               0.000641754               0.008243225               0.000832281              -0.000789744               0.003010962               0.002221219               0.000000000               0.000000000               0.000000000               0.000000000               0.000445126               0.007749637               0.000781783              -0.000801781               0.002850447               0.002048666               0.000000000               0.000000000               0.000000000               0.000000000               0.000290960               0.007299031               0.000728453              -0.000803267               0.002700741               0.001897475               0.000000000               0.000000000               0.000000000               0.000000000               0.000167139               0.006871551               0.000677639              -0.000796265               0.002555916               0.001759651               0.000000000               0.000000000               0.000000000               0.000000000               0.000069710               0.006456672               0.000624972              -0.000780941               0.002412516               0.001631575               0.000000000               0.000000000               0.000000000               0.000000000               0.000001153               0.006050465               0.000561568              -0.000755874               0.002268759               0.001512885               0.000000000               0.000000000               0.000000000               0.000000000              -0.000039577               0.005643616               0.000473757              -0.000720292               0.002121284               0.001400992               0.000000000               0.000000000               0.000000000               0.000000000              -0.000052887               0.005227980               0.000353912              -0.000673329               0.001967085               0.001293757               0.000000000               0.000000000               0.000000000               0.000000000              -0.000035488               0.004805222               0.000196223              -0.000613959               0.001806378               0.001192418               0.000000000               0.000000000               0.000000000               0.000000000              -0.000049468               0.004513982               0.000118706              -0.000582797               0.001698911               0.001116114               0.000000000               0.000000000               0.000000000               0.000000000               0.002598268               0.019203251              -0.003902965              -0.001426055               0.006876371               0.005450316               0.000000000               0.000000000               0.000000000               0.000000000               0.001705533               0.015585828              -0.001960607              -0.001308651               0.005631441               0.004322790               0.000000000               0.000000000               0.000000000               0.000000000               0.001441912               0.012962194              -0.000069974              -0.001079554               0.004680539               0.003600985               0.000000000               0.000000000               0.000000000               0.000000000               0.001025269               0.011402105               0.000658770              -0.001040785               0.004147592               0.003106807               0.000000000               0.000000000               0.000000000               0.000000000               0.000659783               0.010341627               0.000922562              -0.001045282               0.003795602               0.002750320               0.000000000               0.000000000               0.000000000               0.000000000               0.000375785               0.009541580               0.000993722              -0.001051776               0.003531087               0.002479311               0.000000000               0.000000000               0.000000000               0.000000000               0.000164025               0.008892257               0.000984374              -0.001050020               0.003314063               0.002264042               0.000000000               0.000000000               0.000000000               0.000000000               0.000013346               0.008333913               0.000936502              -0.001036732               0.003123520               0.002086788               0.000000000               0.000000000               0.000000000               0.000000000              -0.000091511               0.007835646               0.000872552              -0.001013770               0.002949779               0.001936009               0.000000000               0.000000000               0.000000000               0.000000000              -0.000163905               0.007377349               0.000806976              -0.000983631               0.002786969               0.001803338               0.000000000               0.000000000               0.000000000               0.000000000              -0.000208658               0.006947947               0.000744229              -0.000946738               0.002631539               0.001684801               0.000000000               0.000000000               0.000000000               0.000000000              -0.000224293               0.006543337               0.000681939              -0.000902025               0.002481765               0.001579740               0.000000000               0.000000000               0.000000000               0.000000000              -0.000213895               0.006160001               0.000607562              -0.000850209               0.002336716               0.001486507               0.000000000               0.000000000               0.000000000               0.000000000              -0.000182842               0.005792148               0.000503469              -0.000792582               0.002194891               0.001402309               0.000000000               0.000000000               0.000000000               0.000000000              -0.000132155               0.005446287               0.000365738              -0.000730342               0.002058858               0.001328516               0.000000000               0.000000000               0.000000000               0.000000000              -0.000067313               0.005138805               0.000197532              -0.000667592               0.001935448               0.001267857               0.000000000               0.000000000               0.000000000               0.000000000              -0.000053232               0.004951419               0.000116910              -0.000638888               0.001863419               0.001224531               0.000000000               0.000000000               0.000000000               0.000000000               0.002671116               0.016721415              -0.004414006              -0.001088509               0.005936585               0.004848076               0.000000000               0.000000000               0.000000000               0.000000000               0.001301826               0.014038517              -0.002249853              -0.001266628               0.005101668               0.003835040               0.000000000               0.000000000               0.000000000               0.000000000               0.000537038               0.012303020              -0.000181291              -0.001336485               0.004546461               0.003209976               0.000000000               0.000000000               0.000000000               0.000000000               0.000022574               0.011128571               0.000565124              -0.001382603               0.004170354               0.002787751               0.000000000               0.000000000               0.000000000               0.000000000              -0.000294218               0.010234977               0.000819683              -0.001389701               0.003874858               0.002485158               0.000000000               0.000000000               0.000000000               0.000000000              -0.000474844               0.009504080               0.000880649              -0.001366073               0.003623353               0.002257280               0.000000000               0.000000000               0.000000000               0.000000000              -0.000569035               0.008873418               0.000865587              -0.001322562               0.003398631               0.002076068               0.000000000               0.000000000               0.000000000               0.000000000              -0.000608237               0.008308748               0.000819096              -0.001266679               0.003191781               0.001925102               0.000000000               0.000000000               0.000000000               0.000000000              -0.000610742               0.007800055               0.000760432              -0.001204032               0.003001336               0.001797304               0.000000000               0.000000000               0.000000000               0.000000000              -0.000583143               0.007338814               0.000700588              -0.001136028               0.002824923               0.001688895               0.000000000               0.000000000               0.000000000               0.000000000              -0.000531521               0.006916303               0.000644129              -0.001063856               0.002660030               0.001596174               0.000000000               0.000000000               0.000000000               0.000000000              -0.000459276               0.006525573               0.000586828              -0.000987923               0.002504477               0.001516554               0.000000000               0.000000000               0.000000000               0.000000000              -0.000367926               0.006162974               0.000515055              -0.000908342               0.002357085               0.001448743               0.000000000               0.000000000               0.000000000               0.000000000              -0.000266140               0.005833103               0.000415265              -0.000828938               0.002220661               0.001391723               0.000000000               0.000000000               0.000000000               0.000000000              -0.000164143               0.005552043               0.000291358              -0.000755557               0.002102515               0.001346958               0.000000000               0.000000000               0.000000000               0.000000000              -0.000075873               0.005337514               0.000151230              -0.000695640               0.002011034               0.001315394               0.000000000               0.000000000               0.000000000               0.000000000              -0.000048552               0.005228635               0.000084959              -0.000671785               0.001966789               0.001295004               0.000000000               0.000000000               0.000000000               0.000000000               0.002486274               0.014027001              -0.004460458              -0.000821024               0.004949294               0.004128270               0.000000000               0.000000000               0.000000000               0.000000000               0.000737988               0.012391742              -0.002359827              -0.001272221               0.004554613               0.003282392               0.000000000               0.000000000               0.000000000               0.000000000              -0.000440272               0.011577310              -0.000375090              -0.001612262               0.004396485               0.002784224               0.000000000               0.000000000               0.000000000               0.000000000              -0.000961559               0.010759615               0.000300593              -0.001705532               0.004155013               0.002449481               0.000000000               0.000000000               0.000000000               0.000000000              -0.001168643               0.010006896               0.000523128              -0.001689099               0.003898632               0.002209533               0.000000000               0.000000000               0.000000000               0.000000000              -0.001214460               0.009328267               0.000578312              -0.001621452               0.003649875               0.002028423               0.000000000               0.000000000               0.000000000               0.000000000              -0.001173017               0.008709489               0.000572641              -0.001528564               0.003412655               0.001884091               0.000000000               0.000000000               0.000000000               0.000000000              -0.001086857               0.008146349               0.000546463              -0.001425861               0.003190710               0.001764848               0.000000000               0.000000000               0.000000000               0.000000000              -0.000977802               0.007638539               0.000516393              -0.001321490               0.002986651               0.001665161               0.000000000               0.000000000               0.000000000               0.000000000              -0.000852373               0.007186965               0.000483907              -0.001218008               0.002801634               0.001583626               0.000000000               0.000000000               0.000000000               0.000000000              -0.000716270               0.006780893               0.000446804              -0.001116210               0.002632345               0.001516135               0.000000000               0.000000000               0.000000000               0.000000000              -0.000573091               0.006407207               0.000402631              -0.001015807               0.002474317               0.001458509               0.000000000               0.000000000               0.000000000               0.000000000              -0.000422865               0.006065174               0.000345188              -0.000916719               0.002327277               0.001410559               0.000000000               0.000000000               0.000000000               0.000000000              -0.000276480               0.005771192               0.000268406              -0.000825077               0.002198737               0.001373660               0.000000000               0.000000000               0.000000000               0.000000000              -0.000152924               0.005541545               0.000177635              -0.000750038               0.002097176               0.001347138               0.000000000               0.000000000               0.000000000               0.000000000              -0.000063819               0.005385977               0.000086997              -0.000697177               0.002027700               0.001330523               0.000000000               0.000000000               0.000000000               0.000000000              -0.000035494               0.005317527               0.000048045              -0.000677999               0.001998491               0.001320492               0.000000000               0.000000000               0.000000000               0.000000000               0.001978543               0.011344196              -0.004120971              -0.000676073               0.004006717               0.003330644               0.000000000               0.000000000               0.000000000               0.000000000               0.000047852               0.010777244              -0.002342618              -0.001329210               0.004035448               0.002706239               0.000000000               0.000000000               0.000000000               0.000000000              -0.001378394               0.010808129              -0.000656402              -0.001867909               0.004225310               0.002357401               0.000000000               0.000000000               0.000000000               0.000000000              -0.001805545               0.010281471              -0.000097321              -0.001962258               0.004081209               0.002118950               0.000000000               0.000000000               0.000000000               0.000000000              -0.001853672               0.009643078               0.000101384              -0.001900507               0.003847830               0.001947323               0.000000000               0.000000000               0.000000000               0.000000000              -0.001745775               0.009010312               0.000172933              -0.001780950               0.003597058               0.001816107               0.000000000               0.000000000               0.000000000               0.000000000              -0.001568769               0.008417709               0.000198249              -0.001640498               0.003352708               0.001712210               0.000000000               0.000000000               0.000000000               0.000000000              -0.001362951               0.007874621               0.000211203              -0.001495431               0.003123324               0.001627894               0.000000000               0.000000000               0.000000000               0.000000000              -0.001153249               0.007385683               0.000221723              -0.001355675               0.002913761               0.001558086               0.000000000               0.000000000               0.000000000               0.000000000              -0.000945596               0.006950328               0.000227221              -0.001223386               0.002724548               0.001501162               0.000000000               0.000000000               0.000000000               0.000000000              -0.000741796               0.006559619               0.000218879              -0.001098123               0.002552559               0.001454436               0.000000000               0.000000000               0.000000000               0.000000000              -0.000550079               0.006200664               0.000195574              -0.000981360               0.002393987               0.001412627               0.000000000               0.000000000               0.000000000               0.000000000              -0.000373759               0.005883565               0.000161817              -0.000875603               0.002253036               0.001377433               0.000000000               0.000000000               0.000000000               0.000000000              -0.000223931               0.005626947               0.000118347              -0.000787340               0.002138077               0.001350737               0.000000000               0.000000000               0.000000000               0.000000000              -0.000112950               0.005439176               0.000070454              -0.000722252               0.002053791               0.001331540               0.000000000               0.000000000               0.000000000               0.000000000              -0.000042520               0.005316647               0.000030175              -0.000680524               0.001999039               0.001318515               0.000000000               0.000000000               0.000000000               0.000000000              -0.000023921               0.005260633               0.000017279              -0.000666548               0.001975709               0.001309162               0.000000000               0.000000000               0.000000000               0.000000000               0.001180265               0.008850959              -0.003490489              -0.000663772               0.003171547               0.002507774               0.000000000               0.000000000               0.000000000               0.000000000              -0.000728315               0.009282359              -0.002244822              -0.001433411               0.003571892               0.002138481               0.000000000               0.000000000               0.000000000               0.000000000              -0.002185281               0.010001186              -0.001019630              -0.002069624               0.004023570               0.001953946               0.000000000               0.000000000               0.000000000               0.000000000              -0.002423147               0.009702365              -0.000568755              -0.002121470               0.003941246               0.001819776               0.000000000               0.000000000               0.000000000               0.000000000              -0.002288400               0.009162639              -0.000362907              -0.002003475               0.003722008               0.001718533               0.000000000               0.000000000               0.000000000               0.000000000              -0.002030205               0.008586698              -0.000249064              -0.001834660               0.003473757               0.001639098               0.000000000               0.000000000               0.000000000               0.000000000              -0.001734637               0.008038715              -0.000173817              -0.001655324               0.003231320               0.001575996               0.000000000               0.000000000               0.000000000               0.000000000              -0.001435567               0.007532120              -0.000115613              -0.001479849               0.003003965               0.001524116               0.000000000               0.000000000               0.000000000               0.000000000              -0.001151312               0.007069296              -0.000061432              -0.001315401               0.002794875               0.001479475               0.000000000               0.000000000               0.000000000               0.000000000              -0.000886571               0.006648305              -0.000014385              -0.001163499               0.002603913               0.001440413               0.000000000               0.000000000               0.000000000               0.000000000              -0.000642967               0.006265172               0.000012739              -0.001024257               0.002429788               0.001405532               0.000000000               0.000000000               0.000000000               0.000000000              -0.000431251               0.005925664               0.000018938              -0.000902425               0.002276010               0.001373585               0.000000000               0.000000000               0.000000000               0.000000000              -0.000261458               0.005645514               0.000016110              -0.000803734               0.002149731               0.001345997               0.000000000               0.000000000               0.000000000               0.000000000              -0.000137864               0.005432334               0.000009478              -0.000730739               0.002054340               0.001323601               0.000000000               0.000000000               0.000000000               0.000000000              -0.000059543               0.005282715               0.000000179              -0.000682666               0.001988443               0.001305777               0.000000000               0.000000000               0.000000000               0.000000000              -0.000020308               0.005183007              -0.000003749              -0.000655490               0.001946148               0.001290659               0.000000000               0.000000000               0.000000000               0.000000000              -0.000015656               0.005133889               0.000000806              -0.000647605               0.001927148               0.001279542               0.000000000               0.000000000               0.000000000               0.000000000               0.000203731               0.006727844              -0.002690053              -0.000764582               0.002497452               0.001732870               0.000000000               0.000000000               0.000000000               0.000000000              -0.001481689               0.007933702              -0.002120554              -0.001547343               0.003160321               0.001612978               0.000000000               0.000000000               0.000000000               0.000000000              -0.002802763               0.009201352              -0.001451111              -0.002201200               0.003800820               0.001599620               0.000000000               0.000000000               0.000000000               0.000000000              -0.002838089               0.009142132              -0.001068677              -0.002207044               0.003783028               0.001575984               0.000000000               0.000000000               0.000000000               0.000000000              -0.002551828               0.008731952              -0.000829741              -0.002048425               0.003593430               0.001545005               0.000000000               0.000000000               0.000000000               0.000000000              -0.002172938               0.008245537              -0.000659134              -0.001845539               0.003363665               0.001518125               0.000000000               0.000000000               0.000000000               0.000000000              -0.001786370               0.007757512              -0.000528413              -0.001639574               0.003132336               0.001492762               0.000000000               0.000000000               0.000000000               0.000000000              -0.001418811               0.007294079              -0.000426683              -0.001443811               0.002912605               0.001468795               0.000000000               0.000000000               0.000000000               0.000000000              -0.001081045               0.006862128              -0.000334911              -0.001263155               0.002708405               0.001445250               0.000000000               0.000000000               0.000000000               0.000000000              -0.000779384               0.006460475              -0.000250661              -0.001099826               0.002520079               0.001420253               0.000000000               0.000000000               0.000000000               0.000000000              -0.000518451               0.006086013              -0.000181469              -0.000955168               0.002347040               0.001391872               0.000000000               0.000000000               0.000000000               0.000000000              -0.000308591               0.005760357              -0.000132013              -0.000835764               0.002198688               0.001362924               0.000000000               0.000000000               0.000000000               0.000000000              -0.000156188               0.005502467              -0.000094681              -0.000746377               0.002082930               0.001336552               0.000000000               0.000000000               0.000000000               0.000000000              -0.000064771               0.005310961              -0.000062642              -0.000688157               0.001999688               0.001311531               0.000000000               0.000000000               0.000000000               0.000000000              -0.000026009               0.005175457              -0.000038363              -0.000656684               0.001944030               0.001287346               0.000000000               0.000000000               0.000000000               0.000000000              -0.000021183               0.005087584              -0.000019310              -0.000643890               0.001910474               0.001266584               0.000000000               0.000000000               0.000000000               0.000000000              -0.000028615               0.005046810              -0.000007338              -0.000641580               0.001896113               0.001254533               0.000000000               0.000000000               0.000000000               0.000000000              -0.000959235               0.004733311              -0.001837083              -0.000951376               0.001894879               0.000943503               0.000000000               0.000000000               0.000000000               0.000000000              -0.002097195               0.006370073              -0.001978421              -0.001582704               0.002650904               0.001068200               0.000000000               0.000000000               0.000000000               0.000000000              -0.003142633               0.008036855              -0.001909544              -0.002183089               0.003406621               0.001223532               0.000000000               0.000000000               0.000000000               0.000000000              -0.003073334               0.008341413              -0.001604580              -0.002195172               0.003512167               0.001316995               0.000000000               0.000000000               0.000000000               0.000000000              -0.002731883               0.008186597              -0.001330062              -0.002047776               0.003411430               0.001363654               0.000000000               0.000000000               0.000000000               0.000000000              -0.002321834               0.007880694              -0.001105488              -0.001855770               0.003245462               0.001389692               0.000000000               0.000000000               0.000000000               0.000000000              -0.001904774               0.007526459              -0.000925133              -0.001655093               0.003060492               0.001405399               0.000000000               0.000000000               0.000000000               0.000000000              -0.001511612               0.007156605              -0.000779751              -0.001461427               0.002872653               0.001411227               0.000000000               0.000000000               0.000000000               0.000000000              -0.001153829               0.006793676              -0.000649742              -0.001281892               0.002691833               0.001409941               0.000000000               0.000000000               0.000000000               0.000000000              -0.000837831               0.006449449              -0.000527860              -0.001120365               0.002523250               0.001402885               0.000000000               0.000000000               0.000000000               0.000000000              -0.000566208               0.006121275              -0.000415681              -0.000977485               0.002366233               0.001388748               0.000000000               0.000000000               0.000000000               0.000000000              -0.000344773               0.005817174              -0.000317181              -0.000856435               0.002224517               0.001368082               0.000000000               0.000000000               0.000000000               0.000000000              -0.000181385               0.005555267              -0.000229217              -0.000762426               0.002105879               0.001343453               0.000000000               0.000000000               0.000000000               0.000000000              -0.000079841               0.005343033              -0.000150557              -0.000697818               0.002013599               0.001315782               0.000000000               0.000000000               0.000000000               0.000000000              -0.000037456               0.005183723              -0.000085310              -0.000662010               0.001948560               0.001286551               0.000000000               0.000000000               0.000000000               0.000000000              -0.000041161               0.005074135              -0.000034283              -0.000649700               0.001907928               0.001258228               0.000000000               0.000000000               0.000000000               0.000000000              -0.000057966               0.005023590              -0.000010459              -0.000649684               0.001891075               0.001241390               0.000000000               0.000000000               0.000000000               0.000000000              -0.002458242               0.002920240              -0.000985328              -0.001286868               0.001402359               0.000115491               0.000000000               0.000000000               0.000000000               0.000000000              -0.002788020               0.004800018              -0.001761915              -0.001645506               0.002148492               0.000502985               0.000000000               0.000000000               0.000000000               0.000000000              -0.003375706               0.006684650              -0.002272092              -0.002101466               0.002928682               0.000827216               0.000000000               0.000000000               0.000000000               0.000000000              -0.003215708               0.007341794              -0.002114256              -0.002123610               0.003155110               0.001031500               0.000000000               0.000000000               0.000000000               0.000000000              -0.002847429               0.007485110              -0.001841888              -0.002003420               0.003162818               0.001159398               0.000000000               0.000000000               0.000000000               0.000000000              -0.002434232               0.007398965              -0.001584540              -0.001837704               0.003078865               0.001241161               0.000000000               0.000000000               0.000000000               0.000000000              -0.002015354               0.007212518              -0.001366083              -0.001657319               0.002956588               0.001299269               0.000000000               0.000000000               0.000000000               0.000000000              -0.001617485               0.006972552              -0.001180696              -0.001478123               0.002816868               0.001338745               0.000000000               0.000000000               0.000000000               0.000000000              -0.001249650               0.006706902              -0.001015357              -0.001306979               0.002671271               0.001364292               0.000000000               0.000000000               0.000000000               0.000000000              -0.000917417               0.006438142              -0.000861267              -0.001148797               0.002528958               0.001380161               0.000000000               0.000000000               0.000000000               0.000000000              -0.000625250               0.006171539              -0.000716526              -0.001005909               0.002392462               0.001386553               0.000000000               0.000000000               0.000000000               0.000000000              -0.000377708               0.005906983              -0.000577821              -0.000880011               0.002262312               0.001382300               0.000000000               0.000000000               0.000000000               0.000000000              -0.000184474               0.005657378              -0.000443788              -0.000776348               0.002144557               0.001368209               0.000000000               0.000000000               0.000000000               0.000000000              -0.000051698               0.005433640              -0.000314119              -0.000698590               0.002044059               0.001345469               0.000000000               0.000000000               0.000000000               0.000000000               0.000012134               0.005250003              -0.000191565              -0.000651699               0.001967216               0.001315518               0.000000000               0.000000000               0.000000000               0.000000000               0.000007256               0.005107820              -0.000084639              -0.000635755               0.001914508               0.001278753               0.000000000               0.000000000               0.000000000               0.000000000              -0.000023268               0.005038806              -0.000032478              -0.000638575               0.001892443               0.001253869               0.000000000               0.000000000               0.000000000               0.000000000              -0.004193219               0.001433489              -0.000203502              -0.001751641               0.001061703              -0.000689938               0.000000000               0.000000000               0.000000000               0.000000000              -0.003609270               0.003315946              -0.001447762              -0.001767966               0.001694625              -0.000073341               0.000000000               0.000000000               0.000000000               0.000000000              -0.003546422               0.005160089              -0.002421819              -0.001974915               0.002378317               0.000403401               0.000000000               0.000000000               0.000000000               0.000000000              -0.003214088               0.006063945              -0.002451713              -0.001963272               0.002675718               0.000712446               0.000000000               0.000000000               0.000000000               0.000000000              -0.002804982               0.006478286              -0.002234200              -0.001861650               0.002779957               0.000918306               0.000000000               0.000000000               0.000000000               0.000000000              -0.002393163               0.006628884              -0.001980519              -0.001726043               0.002784953               0.001058910               0.000000000               0.000000000               0.000000000               0.000000000              -0.001989628               0.006634535              -0.001747106              -0.001575424               0.002736630               0.001161206               0.000000000               0.000000000               0.000000000               0.000000000              -0.001603645               0.006553227              -0.001539110              -0.001420517               0.002657893               0.001237375               0.000000000               0.000000000               0.000000000               0.000000000              -0.001241126               0.006414294              -0.001350918              -0.001267206               0.002560478               0.001293272               0.000000000               0.000000000               0.000000000               0.000000000              -0.000903918               0.006248165              -0.001177510              -0.001119988               0.002456030               0.001336042               0.000000000               0.000000000               0.000000000               0.000000000              -0.000596078               0.006066984              -0.001015007              -0.000981900               0.002349608               0.001367708               0.000000000               0.000000000               0.000000000               0.000000000              -0.000323266               0.005871218              -0.000855735              -0.000855125               0.002242095               0.001386970               0.000000000               0.000000000               0.000000000               0.000000000              -0.000092720               0.005669197              -0.000693387              -0.000743418               0.002137519               0.001394101               0.000000000               0.000000000               0.000000000               0.000000000               0.000080600               0.005470054              -0.000522165              -0.000653530               0.002041177               0.001387646               0.000000000               0.000000000               0.000000000               0.000000000               0.000183529               0.005287676              -0.000342287              -0.000592135               0.001959919               0.001367784               0.000000000               0.000000000               0.000000000               0.000000000               0.000202913               0.005131522              -0.000165262              -0.000565347               0.001898939               0.001333593               0.000000000               0.000000000               0.000000000               0.000000000               0.000173534               0.005052087              -0.000074498              -0.000566434               0.001872823               0.001306389               0.000000000               0.000000000               0.000000000               0.000000000              -0.006041566               0.000341218               0.000397808              -0.002308238               0.000883146              -0.001425092               0.000000000               0.000000000               0.000000000               0.000000000              -0.004505794               0.001999346              -0.001078439              -0.001939588               0.001312969              -0.000626619               0.000000000               0.000000000               0.000000000               0.000000000              -0.003681329               0.003587850              -0.002327185              -0.001828976               0.001805595              -0.000023381               0.000000000               0.000000000               0.000000000               0.000000000              -0.003096075               0.004604192              -0.002530911              -0.001736549               0.002113564               0.000377015               0.000000000               0.000000000               0.000000000               0.000000000              -0.002611273               0.005233582              -0.002399128              -0.001633422               0.002288983               0.000655561               0.000000000               0.000000000               0.000000000               0.000000000              -0.002188396               0.005608903              -0.002182968              -0.001521759               0.002376868               0.000855109               0.000000000               0.000000000               0.000000000               0.000000000              -0.001804473               0.005808390              -0.001964835              -0.001402723               0.002403685               0.001000961               0.000000000               0.000000000               0.000000000               0.000000000              -0.001440575               0.005893995              -0.001760323              -0.001276963               0.002390299               0.001113337               0.000000000               0.000000000               0.000000000               0.000000000              -0.001092452               0.005904381              -0.001568949              -0.001147715               0.002350679               0.001202964               0.000000000               0.000000000               0.000000000               0.000000000              -0.000759237               0.005864188              -0.001392744              -0.001017735               0.002293955               0.001276219               0.000000000               0.000000000               0.000000000               0.000000000              -0.000443931               0.005788615              -0.001228468              -0.000890049               0.002226202               0.001336152               0.000000000               0.000000000               0.000000000               0.000000000              -0.000148021               0.005688232              -0.001068168              -0.000766536               0.002151570               0.001385034               0.000000000               0.000000000               0.000000000               0.000000000               0.000120732               0.005561253              -0.000899899              -0.000649881               0.002070359               0.001420478               0.000000000               0.000000000               0.000000000               0.000000000               0.000350448               0.005416323              -0.000711149              -0.000545621               0.001987296               0.001441675               0.000000000               0.000000000               0.000000000               0.000000000               0.000524708               0.005269558              -0.000496627              -0.000461928               0.001910478               0.001448550               0.000000000               0.000000000               0.000000000               0.000000000               0.000619844               0.005131655              -0.000257578              -0.000409014               0.001846873               0.001437858               0.000000000               0.000000000               0.000000000               0.000000000               0.000637638               0.005062589              -0.000131011              -0.000393709               0.001818749               0.001425040               0.000000000               0.000000000               0.000000000               0.000000000              -0.007818794              -0.000370645               0.000721747              -0.002885715               0.000838351              -0.002047364               0.000000000               0.000000000               0.000000000               0.000000000              -0.005401236               0.000927185              -0.000713890              -0.002141359               0.001022841              -0.001118518               0.000000000               0.000000000               0.000000000               0.000000000              -0.003799450               0.002131611              -0.001989363              -0.001691243               0.001274275              -0.000416967               0.000000000               0.000000000               0.000000000               0.000000000              -0.002915690               0.003145025              -0.002298142              -0.001486509               0.001543833               0.000057324               0.000000000               0.000000000               0.000000000               0.000000000              -0.002323331               0.003907780              -0.002254430              -0.001359719               0.001755819               0.000396100               0.000000000               0.000000000               0.000000000               0.000000000              -0.001870582               0.004459248              -0.002096340              -0.001258872               0.001906024               0.000647152               0.000000000               0.000000000               0.000000000               0.000000000              -0.001496085               0.004834384              -0.001917127              -0.001165328               0.001999887               0.000834559               0.000000000               0.000000000               0.000000000               0.000000000              -0.001157238               0.005079002              -0.001741617              -0.001068838               0.002049262               0.000980425               0.000000000               0.000000000               0.000000000               0.000000000              -0.000828654               0.005237343              -0.001573337              -0.000965411               0.002067567               0.001102155               0.000000000               0.000000000               0.000000000               0.000000000              -0.000503620               0.005332002              -0.001415881              -0.000855357               0.002062435               0.001207078               0.000000000               0.000000000               0.000000000               0.000000000              -0.000183683               0.005376202              -0.001269075              -0.000740905               0.002039017               0.001298112               0.000000000               0.000000000               0.000000000               0.000000000               0.000130446               0.005382800              -0.001125833              -0.000623932               0.002002226               0.001378294               0.000000000               0.000000000               0.000000000               0.000000000               0.000437061               0.005353214              -0.000973878              -0.000505253               0.001952804               0.001447551               0.000000000               0.000000000               0.000000000               0.000000000               0.000733195               0.005293508              -0.000797441              -0.000386740               0.001893398               0.001506658               0.000000000               0.000000000               0.000000000               0.000000000               0.001004778               0.005209579              -0.000581038              -0.000274405               0.001827977               0.001553572               0.000000000               0.000000000               0.000000000               0.000000000               0.001230539               0.005109619              -0.000314751              -0.000177250               0.001762273               0.001585023               0.000000000               0.000000000               0.000000000               0.000000000               0.001356563               0.005067673              -0.000173699              -0.000124748               0.001730790               0.001606042               0.000000000               0.000000000               0.000000000               0.000000000              -0.009305915              -0.000759160               0.000724623              -0.003394821               0.000878547              -0.002516273               0.000000000               0.000000000               0.000000000               0.000000000              -0.006184475               0.000158749              -0.000406730              -0.002339020               0.000832584              -0.001506436               0.000000000               0.000000000               0.000000000               0.000000000              -0.003910832               0.000958492              -0.001446635              -0.001586372               0.000848282              -0.000738090               0.000000000               0.000000000               0.000000000               0.000000000              -0.002735491               0.001891104              -0.001750774              -0.001262195               0.001051092              -0.000211104               0.000000000               0.000000000               0.000000000               0.000000000              -0.002025980               0.002710574              -0.001764117              -0.001098562               0.001269702               0.000171140               0.000000000               0.000000000               0.000000000               0.000000000              -0.001531356               0.003376257              -0.001668885              -0.000996289               0.001457503               0.000461214               0.000000000               0.000000000               0.000000000               0.000000000              -0.001153768               0.003885269              -0.001544400              -0.000918320               0.001601183               0.000682863               0.000000000               0.000000000               0.000000000               0.000000000              -0.000831957               0.004261596              -0.001418930              -0.000844682               0.001702078               0.000857396               0.000000000               0.000000000               0.000000000               0.000000000              -0.000520598               0.004549898              -0.001295884              -0.000763960               0.001771271               0.001007310               0.000000000               0.000000000               0.000000000               0.000000000              -0.000207528               0.004768049              -0.001177634              -0.000673828               0.001813943               0.001140115               0.000000000               0.000000000               0.000000000               0.000000000               0.000109685               0.004923529              -0.001065747              -0.000574308               0.001832596               0.001258288               0.000000000               0.000000000               0.000000000               0.000000000               0.000437702               0.005031535              -0.000957268              -0.000464803               0.001832096               0.001367293               0.000000000               0.000000000               0.000000000               0.000000000               0.000781692               0.005100857              -0.000843290              -0.000344472               0.001815093               0.001470621               0.000000000               0.000000000               0.000000000               0.000000000               0.001144410               0.005134266              -0.000705846              -0.000212629               0.001782281               0.001569652               0.000000000               0.000000000               0.000000000               0.000000000               0.001527131               0.005128155              -0.000527097              -0.000068345               0.001732150               0.001663804               0.000000000               0.000000000               0.000000000               0.000000000               0.001924483               0.005079122              -0.000291761               0.000086790               0.001664094               0.001750884               0.000000000               0.000000000               0.000000000               0.000000000               0.002207194               0.005073315              -0.000168657               0.000193531               0.001626578               0.001820109               0.000000000               0.000000000               0.000000000               0.000000000              -0.010295783              -0.000930421               0.000443905              -0.003744614               0.000938058              -0.002806556               0.000000000               0.000000000               0.000000000               0.000000000              -0.006720982              -0.000296955              -0.000175730              -0.002483247               0.000728759              -0.001754488               0.000000000               0.000000000               0.000000000               0.000000000              -0.003994109               0.000195612              -0.000756982              -0.001522241               0.000572613              -0.000949628               0.000000000               0.000000000               0.000000000               0.000000000              -0.002607391               0.001039261              -0.000944590              -0.001107678               0.000715641              -0.000392037               0.000000000               0.000000000               0.000000000               0.000000000              -0.001807946               0.001871864              -0.000969737              -0.000911961               0.000927935               0.000015974               0.000000000               0.000000000               0.000000000               0.000000000              -0.001280014               0.002594160              -0.000927838              -0.000804273               0.001132802               0.000328529               0.000000000               0.000000000               0.000000000               0.000000000              -0.000888870               0.003184375              -0.000864600              -0.000731372               0.001305238               0.000573866               0.000000000               0.000000000               0.000000000               0.000000000              -0.000570057               0.003648137              -0.000802056              -0.000669787               0.001439296               0.000769509               0.000000000               0.000000000               0.000000000               0.000000000              -0.000275768               0.004022343              -0.000739119              -0.000606205               0.001542836               0.000936631               0.000000000               0.000000000               0.000000000               0.000000000               0.000022266               0.004326501              -0.000674313              -0.000532462               0.001619640               0.001087178               0.000000000               0.000000000               0.000000000               0.000000000               0.000335270               0.004562775              -0.000612752              -0.000444620               0.001669116               0.001224497               0.000000000               0.000000000               0.000000000               0.000000000               0.000675284               0.004747673              -0.000554807              -0.000340227               0.001695951               0.001355724               0.000000000               0.000000000               0.000000000               0.000000000               0.001050196               0.004892292              -0.000493031              -0.000217713               0.001703319               0.001485606               0.000000000               0.000000000               0.000000000               0.000000000               0.001468765               0.004993465              -0.000417336              -0.000073396               0.001688937               0.001615541               0.000000000               0.000000000               0.000000000               0.000000000               0.001947008               0.005047099              -0.000315331               0.000099240               0.001649270               0.001748509               0.000000000               0.000000000               0.000000000               0.000000000               0.002500806               0.005043156              -0.000174991               0.000307405               0.001578567               0.001885972               0.000000000               0.000000000               0.000000000               0.000000000               0.002931724               0.005071356              -0.000102931               0.000465472               0.001535278               0.002000750               0.000000000               0.000000000               0.000000000               0.000000000               0.000000000               0.000000000               0.000000000               0.000000000               0.000000000               0.000000000               0.000000000               0.000000000               0.000000000               0.000000000               0.000000000               0.000000000               0.000000000               0.000000000               0.000000000               0.000000000               0.000000000               0.000000000               0.000000000               0.000000000               0.000000000               0.000000000               0.000000000               0.000000000               0.000000000               0.000000000               0.000000000               0.000000000               0.000000000               0.000000000               0.000000000               0.000000000               0.000000000               0.000000000               0.000000000               0.000000000               0.000000000               0.000000000               0.000000000               0.000000000               0.000000000               0.000000000               0.000000000               0.000000000               0.000000000               0.000000000               0.000000000               0.000000000               0.000000000               0.000000000               0.000000000               0.000000000               0.000000000               0.000000000               0.000000000               0.000000000               0.000000000               0.000000000               0.000000000               0.000000000               0.000000000               0.000000000               0.000000000               0.000000000               0.000000000               0.000000000               0.000000000               0.000000000               0.000000000               0.000000000               0.000000000               0.000000000               0.000000000               0.000000000               0.000000000               0.000000000               0.000000000               0.000000000               0.000000000               0.000000000               0.000000000               0.000000000               0.000000000               0.000000000               0.000000000               0.000000000               0.000000000               0.000000000               0.000000000               0.000000000               0.000000000               0.000000000               0.000000000               0.000000000               0.000000000               0.000000000               0.000000000               0.000000000               0.000000000               0.000000000               0.000000000               0.000000000               0.000000000               0.000000000               0.000000000               0.000000000               0.000000000               0.000000000               0.000000000               0.000000000               0.000000000               0.000000000               0.000000000               0.000000000               0.000000000               0.000000000               0.000000000               0.000000000               0.000000000               0.000000000               0.000000000               0.000000000               0.000000000               0.000000000               0.000000000               0.000000000               0.000000000               0.000000000               0.000000000               0.000000000               0.000000000               0.000000000               0.000000000               0.000000000               0.000000000               0.000000000               0.000000000               0.000000000               0.000000000               0.000000000               0.000000000               0.000000000               0.000000000               0.000000000               0.000000000               0.000000000               0.000000000               0.000000000               0.000000000               0.000000000               0.000000000               0.000000000               0.000000000               0.000000000               0.000000000               0.000000000               0.000000000               0.000000000               0.000000000               0.000000000               0.000000000               0.000000000               0.000000000               0.000000000               0.000000000               0.000000000               0.000000000               0.000000000               0.000000000               0.000000000               0.000000000               0.000000000               0.000000000               0.000000000               0.000000000               0.000000000               0.000000000               0.000000000               0.000000000               0.000000000               0.000000000               0.000000000               0.000000000               0.000000000               0.000000000               0.000000000               0.000000000               0.000000000               0.000000000               0.000000000               0.000000000               0.000000000               0.000000000               0.000000000               0.000000000               0.000000000               0.000000000               0.000000000               0.000000000               0.000000000               0.000000000               0.000000000               0.000000000               0.000000000               0.000000000               0.000000000               0.000000000               0.000000000               0.000000000               0.000000000               0.000000000               0.000000000               0.000000000               0.000000000               0.000000000               0.000000000               0.000000000               0.000000000               0.000000000               0.000000000               0.000000000               0.000000000               0.000000000               0.000000000               0.000000000               0.000000000               0.000000000               0.000000000               0.000000000               0.000000000               0.000000000               0.000000000               0.000000000               0.000000000               0.000000000               0.000000000               0.000000000               0.000000000               0.000000000               0.000000000               0.000000000               0.000000000               0.000000000               0.000000000               0.000000000               0.000000000               0.000000000               0.000000000               0.000000000               0.000000000               0.000000000               0.000000000               0.000000000               0.000000000               0.000000000               0.000000000               0.000000000               0.000000000               0.000000000               0.000000000               0.000000000               0.000000000               0.000000000               0.000000000               0.000000000               0.000000000               0.000000000               0.000000000               0.000000000               0.000000000               0.000000000               0.000000000               0.000000000               0.000000000               0.000000000               0.000000000               0.000000000               0.000000000               0.000000000               0.000000000               0.000000000               0.000000000               0.000000000               0.000000000               0.000000000               0.000000000               0.000000000               0.000000000               0.000000000               0.000000000               0.000000000               0.000000000               0.000000000               0.000000000               0.000000000               0.000000000               0.000000000               0.000000000               0.000000000               0.000000000               0.000000000               0.000000000               0.000000000               0.000000000               0.000000000               0.000000000               0.000000000               0.000000000               0.000000000               0.000000000               0.000000000               0.000000000               0.000000000               0.000000000               0.000000000               0.000000000               0.000000000               0.000000000               0.000000000               0.000000000               0.000000000               0.000000000               0.000000000               0.000000000               0.000000000               0.000000000               0.000000000               0.000000000               0.000000000               0.000000000               0.000000000               0.000000000               0.000000000               0.000000000               0.000000000               0.000000000               0.000000000               0.000000000               0.000000000               0.000000000               0.002205335               0.022543354               0.001575282              -0.001990914               0.008178014               0.006187100               0.000000000               0.000000000               0.000000000               0.000000000               0.002080903               0.017707955               0.000788746              -0.001433152               0.006380310               0.004947158               0.000000000               0.000000000               0.000000000               0.000000000               0.002631482               0.013835262               0.000002659              -0.000742600               0.004859241               0.004116641               0.000000000               0.000000000               0.000000000               0.000000000               0.002481919               0.011665220              -0.000330288              -0.000527432               0.004064178               0.003536747               0.000000000               0.000000000               0.000000000               0.000000000               0.002135508               0.010308750              -0.000465664              -0.000487777               0.003598808               0.003111031               0.000000000               0.000000000               0.000000000               0.000000000               0.001761468               0.009377417              -0.000512173              -0.000511625               0.003296316               0.002784691               0.000000000               0.000000000               0.000000000               0.000000000               0.001414977               0.008680838              -0.000516425              -0.000554487               0.003078413               0.002523926               0.000000000               0.000000000               0.000000000               0.000000000               0.001112932               0.008117334              -0.000500170              -0.000597316               0.002904856               0.002307540               0.000000000               0.000000000               0.000000000               0.000000000               0.000863037               0.007629415              -0.000472324              -0.000630036               0.002753125               0.002123089               0.000000000               0.000000000               0.000000000               0.000000000               0.000654435               0.007181472              -0.000441403              -0.000652269               0.002611223               0.001958954               0.000000000               0.000000000               0.000000000               0.000000000               0.000473642               0.006753761              -0.000413253              -0.000666603               0.002473432               0.001806829               0.000000000               0.000000000               0.000000000               0.000000000               0.000320787               0.006334940              -0.000383705              -0.000671571               0.002335482               0.001663912               0.000000000               0.000000000               0.000000000               0.000000000               0.000194651               0.005912382              -0.000347881              -0.000666052               0.002192791               0.001526740               0.000000000               0.000000000               0.000000000               0.000000000               0.000097189               0.005471991              -0.000297981              -0.000647551               0.002039829               0.001392278               0.000000000               0.000000000               0.000000000               0.000000000               0.000031091               0.004996281              -0.000229335              -0.000612875               0.001869702               0.001256827               0.000000000               0.000000000               0.000000000               0.000000000               0.000002599               0.004471324              -0.000132140              -0.000557940               0.001676406               0.001118467               0.000000000               0.000000000               0.000000000               0.000000000              -0.000042262               0.004079053              -0.000082022              -0.000525728               0.001534913               0.001009185               0.000000000               0.000000000               0.000000000               0.000000000               0.002400910               0.021223778               0.002925770              -0.001752628               0.007658731               0.005906103               0.000000000               0.000000000               0.000000000               0.000000000               0.001956692               0.016863966               0.001463745              -0.001374233               0.006079343               0.004705110               0.000000000               0.000000000               0.000000000               0.000000000               0.002166794               0.013494611               0.000019028              -0.000874277               0.004789584               0.003915308               0.000000000               0.000000000               0.000000000               0.000000000               0.001894354               0.011579509              -0.000570500              -0.000737054               0.004105482               0.003368428               0.000000000               0.000000000               0.000000000               0.000000000               0.001530506               0.010351378              -0.000798633              -0.000719981               0.003690418               0.002970437               0.000000000               0.000000000               0.000000000               0.000000000               0.001183619               0.009477034              -0.000868978              -0.000740770               0.003405903               0.002665133               0.000000000               0.000000000               0.000000000               0.000000000               0.000886090               0.008801972              -0.000867706              -0.000767961               0.003189948               0.002421987               0.000000000               0.000000000               0.000000000               0.000000000               0.000641754               0.008243225              -0.000832281              -0.000789744               0.003010962               0.002221219               0.000000000               0.000000000               0.000000000               0.000000000               0.000445126               0.007749637              -0.000781783              -0.000801781               0.002850447               0.002048666               0.000000000               0.000000000               0.000000000               0.000000000               0.000290960               0.007299031              -0.000728453              -0.000803267               0.002700741               0.001897475               0.000000000               0.000000000               0.000000000               0.000000000               0.000167139               0.006871551              -0.000677639              -0.000796265               0.002555916               0.001759651               0.000000000               0.000000000               0.000000000               0.000000000               0.000069710               0.006456672              -0.000624972              -0.000780941               0.002412516               0.001631575               0.000000000               0.000000000               0.000000000               0.000000000               0.000001153               0.006050465              -0.000561568              -0.000755874               0.002268759               0.001512885               0.000000000               0.000000000               0.000000000               0.000000000              -0.000039577               0.005643616              -0.000473757              -0.000720292               0.002121284               0.001400992               0.000000000               0.000000000               0.000000000               0.000000000              -0.000052887               0.005227980              -0.000353912              -0.000673329               0.001967085               0.001293757               0.000000000               0.000000000               0.000000000               0.000000000              -0.000035488               0.004805222              -0.000196223              -0.000613959               0.001806378               0.001192418               0.000000000               0.000000000               0.000000000               0.000000000              -0.000049468               0.004513982              -0.000118706              -0.000582797               0.001698911               0.001116114               0.000000000               0.000000000               0.000000000               0.000000000               0.002598268               0.019203251               0.003902965              -0.001426055               0.006876371               0.005450316               0.000000000               0.000000000               0.000000000               0.000000000               0.001705533               0.015585828               0.001960607              -0.001308651               0.005631441               0.004322790               0.000000000               0.000000000               0.000000000               0.000000000               0.001441912               0.012962194               0.000069974              -0.001079554               0.004680539               0.003600985               0.000000000               0.000000000               0.000000000               0.000000000               0.001025269               0.011402105              -0.000658770              -0.001040785               0.004147592               0.003106807               0.000000000               0.000000000               0.000000000               0.000000000               0.000659783               0.010341627              -0.000922562              -0.001045282               0.003795602               0.002750320               0.000000000               0.000000000               0.000000000               0.000000000               0.000375785               0.009541580              -0.000993722              -0.001051776               0.003531087               0.002479311               0.000000000               0.000000000               0.000000000               0.000000000               0.000164025               0.008892257              -0.000984374              -0.001050020               0.003314063               0.002264042               0.000000000               0.000000000               0.000000000               0.000000000               0.000013346               0.008333913              -0.000936502              -0.001036732               0.003123520               0.002086788               0.000000000               0.000000000               0.000000000               0.000000000              -0.000091511               0.007835646              -0.000872552              -0.001013770               0.002949779               0.001936009               0.000000000               0.000000000               0.000000000               0.000000000              -0.000163905               0.007377349              -0.000806976              -0.000983631               0.002786969               0.001803338               0.000000000               0.000000000               0.000000000               0.000000000              -0.000208658               0.006947947              -0.000744229              -0.000946738               0.002631539               0.001684801               0.000000000               0.000000000               0.000000000               0.000000000              -0.000224293               0.006543337              -0.000681939              -0.000902025               0.002481765               0.001579740               0.000000000               0.000000000               0.000000000               0.000000000              -0.000213895               0.006160001              -0.000607562              -0.000850209               0.002336716               0.001486507               0.000000000               0.000000000               0.000000000               0.000000000              -0.000182842               0.005792148              -0.000503469              -0.000792582               0.002194891               0.001402309               0.000000000               0.000000000               0.000000000               0.000000000              -0.000132155               0.005446287              -0.000365738              -0.000730342               0.002058858               0.001328516               0.000000000               0.000000000               0.000000000               0.000000000              -0.000067313               0.005138805              -0.000197532              -0.000667592               0.001935448               0.001267857               0.000000000               0.000000000               0.000000000               0.000000000              -0.000053232               0.004951419              -0.000116910              -0.000638888               0.001863419               0.001224531               0.000000000               0.000000000               0.000000000               0.000000000               0.002671116               0.016721415               0.004414006              -0.001088509               0.005936585               0.004848076               0.000000000               0.000000000               0.000000000               0.000000000               0.001301826               0.014038517               0.002249853              -0.001266628               0.005101668               0.003835040               0.000000000               0.000000000               0.000000000               0.000000000               0.000537038               0.012303020               0.000181291              -0.001336485               0.004546461               0.003209976               0.000000000               0.000000000               0.000000000               0.000000000               0.000022574               0.011128571              -0.000565124              -0.001382603               0.004170354               0.002787751               0.000000000               0.000000000               0.000000000               0.000000000              -0.000294218               0.010234977              -0.000819683              -0.001389701               0.003874858               0.002485158               0.000000000               0.000000000               0.000000000               0.000000000              -0.000474844               0.009504080              -0.000880649              -0.001366073               0.003623353               0.002257280               0.000000000               0.000000000               0.000000000               0.000000000              -0.000569035               0.008873418              -0.000865587              -0.001322562               0.003398631               0.002076068               0.000000000               0.000000000               0.000000000               0.000000000              -0.000608237               0.008308748              -0.000819096              -0.001266679               0.003191781               0.001925102               0.000000000               0.000000000               0.000000000               0.000000000              -0.000610742               0.007800055              -0.000760432              -0.001204032               0.003001336               0.001797304               0.000000000               0.000000000               0.000000000               0.000000000              -0.000583143               0.007338814              -0.000700588              -0.001136028               0.002824923               0.001688895               0.000000000               0.000000000               0.000000000               0.000000000              -0.000531521               0.006916303              -0.000644129              -0.001063856               0.002660030               0.001596174               0.000000000               0.000000000               0.000000000               0.000000000              -0.000459276               0.006525573              -0.000586828              -0.000987923               0.002504477               0.001516554               0.000000000               0.000000000               0.000000000               0.000000000              -0.000367926               0.006162974              -0.000515055              -0.000908342               0.002357085               0.001448743               0.000000000               0.000000000               0.000000000               0.000000000              -0.000266140               0.005833103              -0.000415265              -0.000828938               0.002220661               0.001391723               0.000000000               0.000000000               0.000000000               0.000000000              -0.000164143               0.005552043              -0.000291358              -0.000755557               0.002102515               0.001346958               0.000000000               0.000000000               0.000000000               0.000000000              -0.000075873               0.005337514              -0.000151230              -0.000695640               0.002011034               0.001315394               0.000000000               0.000000000               0.000000000               0.000000000              -0.000048552               0.005228635              -0.000084959              -0.000671785               0.001966789               0.001295004               0.000000000               0.000000000               0.000000000               0.000000000               0.002486274               0.014027001               0.004460458              -0.000821024               0.004949294               0.004128270               0.000000000               0.000000000               0.000000000               0.000000000               0.000737988               0.012391742               0.002359827              -0.001272221               0.004554613               0.003282392               0.000000000               0.000000000               0.000000000               0.000000000              -0.000440272               0.011577310               0.000375090              -0.001612262               0.004396485               0.002784224               0.000000000               0.000000000               0.000000000               0.000000000              -0.000961559               0.010759615              -0.000300593              -0.001705532               0.004155013               0.002449481               0.000000000               0.000000000               0.000000000               0.000000000              -0.001168643               0.010006896              -0.000523128              -0.001689099               0.003898632               0.002209533               0.000000000               0.000000000               0.000000000               0.000000000              -0.001214460               0.009328267              -0.000578312              -0.001621452               0.003649875               0.002028423               0.000000000               0.000000000               0.000000000               0.000000000              -0.001173017               0.008709489              -0.000572641              -0.001528564               0.003412655               0.001884091               0.000000000               0.000000000               0.000000000               0.000000000              -0.001086857               0.008146349              -0.000546463              -0.001425861               0.003190710               0.001764848               0.000000000               0.000000000               0.000000000               0.000000000              -0.000977802               0.007638539              -0.000516393              -0.001321490               0.002986651               0.001665161               0.000000000               0.000000000               0.000000000               0.000000000              -0.000852373               0.007186965              -0.000483907              -0.001218008               0.002801634               0.001583626               0.000000000               0.000000000               0.000000000               0.000000000              -0.000716270               0.006780893              -0.000446804              -0.001116210               0.002632345               0.001516135               0.000000000               0.000000000               0.000000000               0.000000000              -0.000573091               0.006407207              -0.000402631              -0.001015807               0.002474317               0.001458509               0.000000000               0.000000000               0.000000000               0.000000000              -0.000422865               0.006065174              -0.000345188              -0.000916719               0.002327277               0.001410559               0.000000000               0.000000000               0.000000000               0.000000000              -0.000276480               0.005771192              -0.000268406              -0.000825077               0.002198737               0.001373660               0.000000000               0.000000000               0.000000000               0.000000000              -0.000152924               0.005541545              -0.000177635              -0.000750038               0.002097176               0.001347138               0.000000000               0.000000000               0.000000000               0.000000000              -0.000063819               0.005385977              -0.000086997              -0.000697177               0.002027700               0.001330523               0.000000000               0.000000000               0.000000000               0.000000000              -0.000035494               0.005317527              -0.000048045              -0.000677999               0.001998491               0.001320492               0.000000000               0.000000000               0.000000000               0.000000000               0.001978543               0.011344196               0.004120971              -0.000676073               0.004006717               0.003330644               0.000000000               0.000000000               0.000000000               0.000000000               0.000047852               0.010777244               0.002342618              -0.001329210               0.004035448               0.002706239               0.000000000               0.000000000               0.000000000               0.000000000              -0.001378394               0.010808129               0.000656402              -0.001867909               0.004225310               0.002357401               0.000000000               0.000000000               0.000000000               0.000000000              -0.001805545               0.010281471               0.000097321              -0.001962258               0.004081209               0.002118950               0.000000000               0.000000000               0.000000000               0.000000000              -0.001853672               0.009643078              -0.000101384              -0.001900507               0.003847830               0.001947323               0.000000000               0.000000000               0.000000000               0.000000000              -0.001745775               0.009010312              -0.000172933              -0.001780950               0.003597058               0.001816107               0.000000000               0.000000000               0.000000000               0.000000000              -0.001568769               0.008417709              -0.000198249              -0.001640498               0.003352708               0.001712210               0.000000000               0.000000000               0.000000000               0.000000000              -0.001362951               0.007874621              -0.000211203              -0.001495431               0.003123324               0.001627894               0.000000000               0.000000000               0.000000000               0.000000000              -0.001153249               0.007385683              -0.000221723              -0.001355675               0.002913761               0.001558086               0.000000000               0.000000000               0.000000000               0.000000000              -0.000945596               0.006950328              -0.000227221              -0.001223386               0.002724548               0.001501162               0.000000000               0.000000000               0.000000000               0.000000000              -0.000741796               0.006559619              -0.000218879              -0.001098123               0.002552559               0.001454436               0.000000000               0.000000000               0.000000000               0.000000000              -0.000550079               0.006200664              -0.000195574              -0.000981360               0.002393987               0.001412627               0.000000000               0.000000000               0.000000000               0.000000000              -0.000373759               0.005883565              -0.000161817              -0.000875603               0.002253036               0.001377433               0.000000000               0.000000000               0.000000000               0.000000000              -0.000223931               0.005626947              -0.000118347              -0.000787340               0.002138077               0.001350737               0.000000000               0.000000000               0.000000000               0.000000000              -0.000112950               0.005439176              -0.000070454              -0.000722252               0.002053791               0.001331540               0.000000000               0.000000000               0.000000000               0.000000000              -0.000042520               0.005316647              -0.000030175              -0.000680524               0.001999039               0.001318515               0.000000000               0.000000000               0.000000000               0.000000000              -0.000023921               0.005260633              -0.000017279              -0.000666548               0.001975709               0.001309162               0.000000000               0.000000000               0.000000000               0.000000000               0.001180265               0.008850959               0.003490489              -0.000663772               0.003171547               0.002507774               0.000000000               0.000000000               0.000000000               0.000000000              -0.000728315               0.009282359               0.002244822              -0.001433411               0.003571892               0.002138481               0.000000000               0.000000000               0.000000000               0.000000000              -0.002185281               0.010001186               0.001019630              -0.002069624               0.004023570               0.001953946               0.000000000               0.000000000               0.000000000               0.000000000              -0.002423147               0.009702365               0.000568755              -0.002121470               0.003941246               0.001819776               0.000000000               0.000000000               0.000000000               0.000000000              -0.002288400               0.009162639               0.000362907              -0.002003475               0.003722008               0.001718533               0.000000000               0.000000000               0.000000000               0.000000000              -0.002030205               0.008586698               0.000249064              -0.001834660               0.003473757               0.001639098               0.000000000               0.000000000               0.000000000               0.000000000              -0.001734637               0.008038715               0.000173817              -0.001655324               0.003231320               0.001575996               0.000000000               0.000000000               0.000000000               0.000000000              -0.001435567               0.007532120               0.000115613              -0.001479849               0.003003965               0.001524116               0.000000000               0.000000000               0.000000000               0.000000000              -0.001151312               0.007069296               0.000061432              -0.001315401               0.002794875               0.001479475               0.000000000               0.000000000               0.000000000               0.000000000              -0.000886571               0.006648305               0.000014385              -0.001163499               0.002603913               0.001440413               0.000000000               0.000000000               0.000000000               0.000000000              -0.000642967               0.006265172              -0.000012739              -0.001024257               0.002429788               0.001405532               0.000000000               0.000000000               0.000000000               0.000000000              -0.000431251               0.005925664              -0.000018938              -0.000902425               0.002276010               0.001373585               0.000000000               0.000000000               0.000000000               0.000000000              -0.000261458               0.005645514              -0.000016110              -0.000803734               0.002149731               0.001345997               0.000000000               0.000000000               0.000000000               0.000000000              -0.000137864               0.005432334              -0.000009478              -0.000730739               0.002054340               0.001323601               0.000000000               0.000000000               0.000000000               0.000000000              -0.000059543               0.005282715              -0.000000179              -0.000682666               0.001988443               0.001305777               0.000000000               0.000000000               0.000000000               0.000000000              -0.000020308               0.005183007               0.000003749              -0.000655490               0.001946148               0.001290659               0.000000000               0.000000000               0.000000000               0.000000000              -0.000015656               0.005133889              -0.000000806              -0.000647605               0.001927148               0.001279542               0.000000000               0.000000000               0.000000000               0.000000000               0.000203731               0.006727844               0.002690053              -0.000764582               0.002497452               0.001732870               0.000000000               0.000000000               0.000000000               0.000000000              -0.001481689               0.007933702               0.002120554              -0.001547343               0.003160321               0.001612978               0.000000000               0.000000000               0.000000000               0.000000000              -0.002802763               0.009201352               0.001451111              -0.002201200               0.003800820               0.001599620               0.000000000               0.000000000               0.000000000               0.000000000              -0.002838089               0.009142132               0.001068677              -0.002207044               0.003783028               0.001575984               0.000000000               0.000000000               0.000000000               0.000000000              -0.002551828               0.008731952               0.000829741              -0.002048425               0.003593430               0.001545005               0.000000000               0.000000000               0.000000000               0.000000000              -0.002172938               0.008245537               0.000659134              -0.001845539               0.003363665               0.001518125               0.000000000               0.000000000               0.000000000               0.000000000              -0.001786370               0.007757512               0.000528413              -0.001639574               0.003132336               0.001492762               0.000000000               0.000000000               0.000000000               0.000000000              -0.001418811               0.007294079               0.000426683              -0.001443811               0.002912605               0.001468795               0.000000000               0.000000000               0.000000000               0.000000000              -0.001081045               0.006862128               0.000334911              -0.001263155               0.002708405               0.001445250               0.000000000               0.000000000               0.000000000               0.000000000              -0.000779384               0.006460475               0.000250661              -0.001099826               0.002520079               0.001420253               0.000000000               0.000000000               0.000000000               0.000000000              -0.000518451               0.006086013               0.000181469              -0.000955168               0.002347040               0.001391872               0.000000000               0.000000000               0.000000000               0.000000000              -0.000308591               0.005760357               0.000132013              -0.000835764               0.002198688               0.001362924               0.000000000               0.000000000               0.000000000               0.000000000              -0.000156188               0.005502467               0.000094681              -0.000746377               0.002082930               0.001336552               0.000000000               0.000000000               0.000000000               0.000000000              -0.000064771               0.005310961               0.000062642              -0.000688157               0.001999688               0.001311531               0.000000000               0.000000000               0.000000000               0.000000000              -0.000026009               0.005175457               0.000038363              -0.000656684               0.001944030               0.001287346               0.000000000               0.000000000               0.000000000               0.000000000              -0.000021183               0.005087584               0.000019310              -0.000643890               0.001910474               0.001266584               0.000000000               0.000000000               0.000000000               0.000000000              -0.000028615               0.005046810               0.000007338              -0.000641580               0.001896113               0.001254533               0.000000000               0.000000000               0.000000000               0.000000000              -0.000959235               0.004733311               0.001837083              -0.000951376               0.001894879               0.000943503               0.000000000               0.000000000               0.000000000               0.000000000              -0.002097195               0.006370073               0.001978421              -0.001582704               0.002650904               0.001068200               0.000000000               0.000000000               0.000000000               0.000000000              -0.003142633               0.008036855               0.001909544              -0.002183089               0.003406621               0.001223532               0.000000000               0.000000000               0.000000000               0.000000000              -0.003073334               0.008341413               0.001604580              -0.002195172               0.003512167               0.001316995               0.000000000               0.000000000               0.000000000               0.000000000              -0.002731883               0.008186597               0.001330062              -0.002047776               0.003411430               0.001363654               0.000000000               0.000000000               0.000000000               0.000000000              -0.002321834               0.007880694               0.001105488              -0.001855770               0.003245462               0.001389692               0.000000000               0.000000000               0.000000000               0.000000000              -0.001904774               0.007526459               0.000925133              -0.001655093               0.003060492               0.001405399               0.000000000               0.000000000               0.000000000               0.000000000              -0.001511612               0.007156605               0.000779751              -0.001461427               0.002872653               0.001411227               0.000000000               0.000000000               0.000000000               0.000000000              -0.001153829               0.006793676               0.000649742              -0.001281892               0.002691833               0.001409941               0.000000000               0.000000000               0.000000000               0.000000000              -0.000837831               0.006449449               0.000527860              -0.001120365               0.002523250               0.001402885               0.000000000               0.000000000               0.000000000               0.000000000              -0.000566208               0.006121275               0.000415681              -0.000977485               0.002366233               0.001388748               0.000000000               0.000000000               0.000000000               0.000000000              -0.000344773               0.005817174               0.000317181              -0.000856435               0.002224517               0.001368082               0.000000000               0.000000000               0.000000000               0.000000000              -0.000181385               0.005555267               0.000229217              -0.000762426               0.002105879               0.001343453               0.000000000               0.000000000               0.000000000               0.000000000              -0.000079841               0.005343033               0.000150557              -0.000697818               0.002013599               0.001315782               0.000000000               0.000000000               0.000000000               0.000000000              -0.000037456               0.005183723               0.000085310              -0.000662010               0.001948560               0.001286551               0.000000000               0.000000000               0.000000000               0.000000000              -0.000041161               0.005074135               0.000034283              -0.000649700               0.001907928               0.001258228               0.000000000               0.000000000               0.000000000               0.000000000              -0.000057966               0.005023590               0.000010459              -0.000649684               0.001891075               0.001241390               0.000000000               0.000000000               0.000000000               0.000000000              -0.002458242               0.002920240               0.000985328              -0.001286868               0.001402359               0.000115491               0.000000000               0.000000000               0.000000000               0.000000000              -0.002788020               0.004800018               0.001761915              -0.001645506               0.002148492               0.000502985               0.000000000               0.000000000               0.000000000               0.000000000              -0.003375706               0.006684650               0.002272092              -0.002101466               0.002928682               0.000827216               0.000000000               0.000000000               0.000000000               0.000000000              -0.003215708               0.007341794               0.002114256              -0.002123610               0.003155110               0.001031500               0.000000000               0.000000000               0.000000000               0.000000000              -0.002847429               0.007485110               0.001841888              -0.002003420               0.003162818               0.001159398               0.000000000               0.000000000               0.000000000               0.000000000              -0.002434232               0.007398965               0.001584540              -0.001837704               0.003078865               0.001241161               0.000000000               0.000000000               0.000000000               0.000000000              -0.002015354               0.007212518               0.001366083              -0.001657319               0.002956588               0.001299269               0.000000000               0.000000000               0.000000000               0.000000000              -0.001617485               0.006972552               0.001180696              -0.001478123               0.002816868               0.001338745               0.000000000               0.000000000               0.000000000               0.000000000              -0.001249650               0.006706902               0.001015357              -0.001306979               0.002671271               0.001364292               0.000000000               0.000000000               0.000000000               0.000000000              -0.000917417               0.006438142               0.000861267              -0.001148797               0.002528958               0.001380161               0.000000000               0.000000000               0.000000000               0.000000000              -0.000625250               0.006171539               0.000716526              -0.001005909               0.002392462               0.001386553               0.000000000               0.000000000               0.000000000               0.000000000              -0.000377708               0.005906983               0.000577821              -0.000880011               0.002262312               0.001382300               0.000000000               0.000000000               0.000000000               0.000000000              -0.000184474               0.005657378               0.000443788              -0.000776348               0.002144557               0.001368209               0.000000000               0.000000000               0.000000000               0.000000000              -0.000051698               0.005433640               0.000314119              -0.000698590               0.002044059               0.001345469               0.000000000               0.000000000               0.000000000               0.000000000               0.000012134               0.005250003               0.000191565              -0.000651699               0.001967216               0.001315518               0.000000000               0.000000000               0.000000000               0.000000000               0.000007256               0.005107820               0.000084639              -0.000635755               0.001914508               0.001278753               0.000000000               0.000000000               0.000000000               0.000000000              -0.000023268               0.005038806               0.000032478              -0.000638575               0.001892443               0.001253869               0.000000000               0.000000000               0.000000000               0.000000000              -0.004193219               0.001433489               0.000203502              -0.001751641               0.001061703              -0.000689938               0.000000000               0.000000000               0.000000000               0.000000000              -0.003609270               0.003315946               0.001447762              -0.001767966               0.001694625              -0.000073341               0.000000000               0.000000000               0.000000000               0.000000000              -0.003546422               0.005160089               0.002421819              -0.001974915               0.002378317               0.000403401               0.000000000               0.000000000               0.000000000               0.000000000              -0.003214088               0.006063945               0.002451713              -0.001963272               0.002675718               0.000712446               0.000000000               0.000000000               0.000000000               0.000000000              -0.002804982               0.006478286               0.002234200              -0.001861650               0.002779957               0.000918306               0.000000000               0.000000000               0.000000000               0.000000000              -0.002393163               0.006628884               0.001980519              -0.001726043               0.002784953               0.001058910               0.000000000               0.000000000               0.000000000               0.000000000              -0.001989628               0.006634535               0.001747106              -0.001575424               0.002736630               0.001161206               0.000000000               0.000000000               0.000000000               0.000000000              -0.001603645               0.006553227               0.001539110              -0.001420517               0.002657893               0.001237375               0.000000000               0.000000000               0.000000000               0.000000000              -0.001241126               0.006414294               0.001350918              -0.001267206               0.002560478               0.001293272               0.000000000               0.000000000               0.000000000               0.000000000              -0.000903918               0.006248165               0.001177510              -0.001119988               0.002456030               0.001336042               0.000000000               0.000000000               0.000000000               0.000000000              -0.000596078               0.006066984               0.001015007              -0.000981900               0.002349608               0.001367708               0.000000000               0.000000000               0.000000000               0.000000000              -0.000323266               0.005871218               0.000855735              -0.000855125               0.002242095               0.001386970               0.000000000               0.000000000               0.000000000               0.000000000              -0.000092720               0.005669197               0.000693387              -0.000743418               0.002137519               0.001394101               0.000000000               0.000000000               0.000000000               0.000000000               0.000080600               0.005470054               0.000522165              -0.000653530               0.002041177               0.001387646               0.000000000               0.000000000               0.000000000               0.000000000               0.000183529               0.005287676               0.000342287              -0.000592135               0.001959919               0.001367784               0.000000000               0.000000000               0.000000000               0.000000000               0.000202913               0.005131522               0.000165262              -0.000565347               0.001898939               0.001333593               0.000000000               0.000000000               0.000000000               0.000000000               0.000173534               0.005052087               0.000074498              -0.000566434               0.001872823               0.001306389               0.000000000               0.000000000               0.000000000               0.000000000              -0.006041566               0.000341218              -0.000397808              -0.002308238               0.000883146              -0.001425092               0.000000000               0.000000000               0.000000000               0.000000000              -0.004505794               0.001999346               0.001078439              -0.001939588               0.001312969              -0.000626619               0.000000000               0.000000000               0.000000000               0.000000000              -0.003681329               0.003587850               0.002327185              -0.001828976               0.001805595              -0.000023381               0.000000000               0.000000000               0.000000000               0.000000000              -0.003096075               0.004604192               0.002530911              -0.001736549               0.002113564               0.000377015               0.000000000               0.000000000               0.000000000               0.000000000              -0.002611273               0.005233582               0.002399128              -0.001633422               0.002288983               0.000655561               0.000000000               0.000000000               0.000000000               0.000000000              -0.002188396               0.005608903               0.002182968              -0.001521759               0.002376868               0.000855109               0.000000000               0.000000000               0.000000000               0.000000000              -0.001804473               0.005808390               0.001964835              -0.001402723               0.002403685               0.001000961               0.000000000               0.000000000               0.000000000               0.000000000              -0.001440575               0.005893995               0.001760323              -0.001276963               0.002390299               0.001113337               0.000000000               0.000000000               0.000000000               0.000000000              -0.001092452               0.005904381               0.001568949              -0.001147715               0.002350679               0.001202964               0.000000000               0.000000000               0.000000000               0.000000000              -0.000759237               0.005864188               0.001392744              -0.001017735               0.002293955               0.001276219               0.000000000               0.000000000               0.000000000               0.000000000              -0.000443931               0.005788615               0.001228468              -0.000890049               0.002226202               0.001336152               0.000000000               0.000000000               0.000000000               0.000000000              -0.000148021               0.005688232               0.001068168              -0.000766536               0.002151570               0.001385034               0.000000000               0.000000000               0.000000000               0.000000000               0.000120732               0.005561253               0.000899899              -0.000649881               0.002070359               0.001420478               0.000000000               0.000000000               0.000000000               0.000000000               0.000350448               0.005416323               0.000711149              -0.000545621               0.001987296               0.001441675               0.000000000               0.000000000               0.000000000               0.000000000               0.000524708               0.005269558               0.000496627              -0.000461928               0.001910478               0.001448550               0.000000000               0.000000000               0.000000000               0.000000000               0.000619844               0.005131655               0.000257578              -0.000409014               0.001846873               0.001437858               0.000000000               0.000000000               0.000000000               0.000000000               0.000637638               0.005062589               0.000131011              -0.000393709               0.001818749               0.001425040               0.000000000               0.000000000               0.000000000               0.000000000              -0.007818794              -0.000370645              -0.000721747              -0.002885715               0.000838351              -0.002047364               0.000000000               0.000000000               0.000000000               0.000000000              -0.005401236               0.000927185               0.000713890              -0.002141359               0.001022841              -0.001118518               0.000000000               0.000000000               0.000000000               0.000000000              -0.003799450               0.002131611               0.001989363              -0.001691243               0.001274275              -0.000416967               0.000000000               0.000000000               0.000000000               0.000000000              -0.002915690               0.003145025               0.002298142              -0.001486509               0.001543833               0.000057324               0.000000000               0.000000000               0.000000000               0.000000000              -0.002323331               0.003907780               0.002254430              -0.001359719               0.001755819               0.000396100               0.000000000               0.000000000               0.000000000               0.000000000              -0.001870582               0.004459248               0.002096340              -0.001258872               0.001906024               0.000647152               0.000000000               0.000000000               0.000000000               0.000000000              -0.001496085               0.004834384               0.001917127              -0.001165328               0.001999887               0.000834559               0.000000000               0.000000000               0.000000000               0.000000000              -0.001157238               0.005079002               0.001741617              -0.001068838               0.002049262               0.000980425               0.000000000               0.000000000               0.000000000               0.000000000              -0.000828654               0.005237343               0.001573337              -0.000965411               0.002067567               0.001102155               0.000000000               0.000000000               0.000000000               0.000000000              -0.000503620               0.005332002               0.001415881              -0.000855357               0.002062435               0.001207078               0.000000000               0.000000000               0.000000000               0.000000000              -0.000183683               0.005376202               0.001269075              -0.000740905               0.002039017               0.001298112               0.000000000               0.000000000               0.000000000               0.000000000               0.000130446               0.005382800               0.001125833              -0.000623932               0.002002226               0.001378294               0.000000000               0.000000000               0.000000000               0.000000000               0.000437061               0.005353214               0.000973878              -0.000505253               0.001952804               0.001447551               0.000000000               0.000000000               0.000000000               0.000000000               0.000733195               0.005293508               0.000797441              -0.000386740               0.001893398               0.001506658               0.000000000               0.000000000               0.000000000               0.000000000               0.001004778               0.005209579               0.000581038              -0.000274405               0.001827977               0.001553572               0.000000000               0.000000000               0.000000000               0.000000000               0.001230539               0.005109619               0.000314751              -0.000177250               0.001762273               0.001585023               0.000000000               0.000000000               0.000000000               0.000000000               0.001356563               0.005067673               0.000173699              -0.000124748               0.001730790               0.001606042               0.000000000               0.000000000               0.000000000               0.000000000              -0.009305915              -0.000759160              -0.000724623              -0.003394821               0.000878547              -0.002516273               0.000000000               0.000000000               0.000000000               0.000000000              -0.006184475               0.000158749               0.000406730              -0.002339020               0.000832584              -0.001506436               0.000000000               0.000000000               0.000000000               0.000000000              -0.003910832               0.000958492               0.001446635              -0.001586372               0.000848282              -0.000738090               0.000000000               0.000000000               0.000000000               0.000000000              -0.002735491               0.001891104               0.001750774              -0.001262195               0.001051092              -0.000211104               0.000000000               0.000000000               0.000000000               0.000000000              -0.002025980               0.002710574               0.001764117              -0.001098562               0.001269702               0.000171140               0.000000000               0.000000000               0.000000000               0.000000000              -0.001531356               0.003376257               0.001668885              -0.000996289               0.001457503               0.000461214               0.000000000               0.000000000               0.000000000               0.000000000              -0.001153768               0.003885269               0.001544400              -0.000918320               0.001601183               0.000682863               0.000000000               0.000000000               0.000000000               0.000000000              -0.000831957               0.004261596               0.001418930              -0.000844682               0.001702078               0.000857396               0.000000000               0.000000000               0.000000000               0.000000000              -0.000520598               0.004549898               0.001295884              -0.000763960               0.001771271               0.001007310               0.000000000               0.000000000               0.000000000               0.000000000              -0.000207528               0.004768049               0.001177634              -0.000673828               0.001813943               0.001140115               0.000000000               0.000000000               0.000000000               0.000000000               0.000109685               0.004923529               0.001065747              -0.000574308               0.001832596               0.001258288               0.000000000               0.000000000               0.000000000               0.000000000               0.000437702               0.005031535               0.000957268              -0.000464803               0.001832096               0.001367293               0.000000000               0.000000000               0.000000000               0.000000000               0.000781692               0.005100857               0.000843290              -0.000344472               0.001815093               0.001470621               0.000000000               0.000000000               0.000000000               0.000000000               0.001144410               0.005134266               0.000705846              -0.000212629               0.001782281               0.001569652               0.000000000               0.000000000               0.000000000               0.000000000               0.001527131               0.005128155               0.000527097              -0.000068345               0.001732150               0.001663804               0.000000000               0.000000000               0.000000000               0.000000000               0.001924483               0.005079122               0.000291761               0.000086790               0.001664094               0.001750884               0.000000000               0.000000000               0.000000000               0.000000000               0.002207194               0.005073315               0.000168657               0.000193531               0.001626578               0.001820109               0.000000000               0.000000000               0.000000000               0.000000000              -0.010295783              -0.000930421              -0.000443905              -0.003744614               0.000938058              -0.002806556               0.000000000               0.000000000               0.000000000               0.000000000              -0.006720982              -0.000296955               0.000175730              -0.002483247               0.000728759              -0.001754488               0.000000000               0.000000000               0.000000000               0.000000000              -0.003994109               0.000195612               0.000756982              -0.001522241               0.000572613              -0.000949628               0.000000000               0.000000000               0.000000000               0.000000000              -0.002607391               0.001039261               0.000944590              -0.001107678               0.000715641              -0.000392037               0.000000000               0.000000000               0.000000000               0.000000000              -0.001807946               0.001871864               0.000969737              -0.000911961               0.000927935               0.000015974               0.000000000               0.000000000               0.000000000               0.000000000              -0.001280014               0.002594160               0.000927838              -0.000804273               0.001132802               0.000328529               0.000000000               0.000000000               0.000000000               0.000000000              -0.000888870               0.003184375               0.000864600              -0.000731372               0.001305238               0.000573866               0.000000000               0.000000000               0.000000000               0.000000000              -0.000570057               0.003648137               0.000802056              -0.000669787               0.001439296               0.000769509               0.000000000               0.000000000               0.000000000               0.000000000              -0.000275768               0.004022343               0.000739119              -0.000606205               0.001542836               0.000936631               0.000000000               0.000000000               0.000000000               0.000000000               0.000022266               0.004326501               0.000674313              -0.000532462               0.001619640               0.001087178               0.000000000               0.000000000               0.000000000               0.000000000               0.000335270               0.004562775               0.000612752              -0.000444620               0.001669116               0.001224497               0.000000000               0.000000000               0.000000000               0.000000000               0.000675284               0.004747673               0.000554807              -0.000340227               0.001695951               0.001355724               0.000000000               0.000000000               0.000000000               0.000000000               0.001050196               0.004892292               0.000493031              -0.000217713               0.001703319               0.001485606               0.000000000               0.000000000               0.000000000               0.000000000               0.001468765               0.004993465               0.000417336              -0.000073396               0.001688937               0.001615541               0.000000000               0.000000000               0.000000000               0.000000000               0.001947008               0.005047099               0.000315331               0.000099240               0.001649270               0.001748509               0.000000000               0.000000000               0.000000000               0.000000000               0.002500806               0.005043156               0.000174991               0.000307405               0.001578567               0.001885972               0.000000000               0.000000000               0.000000000               0.000000000               0.002931724               0.005071356               0.000102931               0.000465472               0.001535278               0.002000750               0.000000000               0.000000000               0.000000000               0.000000000               0.000000000               0.000000000               0.000000000               0.000000000               0.000000000               0.000000000               0.000000000               0.000000000               0.000000000               0.000000000               0.000000000               0.000000000               0.000000000               0.000000000               0.000000000               0.000000000               0.000000000               0.000000000               0.000000000               0.000000000               0.000000000               0.000000000               0.000000000               0.000000000               0.000000000               0.000000000               0.000000000               0.000000000               0.000000000               0.000000000               0.000000000               0.000000000               0.000000000               0.000000000               0.000000000               0.000000000               0.000000000               0.000000000               0.000000000               0.000000000               0.000000000               0.000000000               0.000000000               0.000000000               0.000000000               0.000000000               0.000000000               0.000000000               0.000000000               0.000000000               0.000000000               0.000000000               0.000000000               0.000000000               0.000000000               0.000000000               0.000000000               0.000000000               0.000000000               0.000000000               0.000000000               0.000000000               0.000000000               0.000000000               0.000000000               0.000000000               0.000000000               0.000000000               0.000000000               0.000000000               0.000000000               0.000000000               0.000000000               0.000000000               0.000000000               0.000000000               0.000000000               0.000000000               0.000000000               0.000000000               0.000000000               0.000000000               0.000000000               0.000000000               0.000000000               0.000000000               0.000000000               0.000000000               0.000000000               0.000000000               0.000000000               0.000000000               0.000000000               0.000000000               0.000000000               0.000000000               0.000000000               0.000000000               0.000000000               0.000000000               0.000000000               0.000000000               0.000000000               0.000000000               0.000000000               0.000000000               0.000000000               0.000000000               0.000000000               0.000000000               0.000000000               0.000000000               0.000000000               0.000000000               0.000000000               0.000000000               0.000000000               0.000000000               0.000000000               0.000000000               0.000000000               0.000000000               0.000000000               0.000000000               0.000000000               0.000000000               0.000000000               0.000000000               0.000000000               0.000000000               0.000000000               0.000000000               0.000000000               0.000000000               0.000000000               0.000000000               0.000000000               0.000000000               0.000000000               0.000000000               0.000000000               0.000000000               0.000000000               0.000000000               0.000000000               0.000000000               0.000000000               0.000000000               0.000000000               0.000000000               0.000000000               0.000000000               0.000000000               0.000000000               0.000000000               0.000000000               0.000000000               0.000000000               0.000000000               0.000000000               0.000000000               0.000000000               0.000000000               0.000000000               0.000000000               0.000000000               0.000000000               0.000000000               0.000000000               0.000000000 </DataArray>
</PointData>
</Piece>
</UnstructuredGrid> </VTKFile>
