<?xml version="1.0"?>
<VTKFile type="UnstructuredGrid" version="0.1">
<UnstructuredGrid>
<Piece NumberOfPoints="      1156" NumberOfCells="      1024">
<Points>
<DataArray type="Float64"                                    Name="coordinates"                                                      NumberOfComponents=" 3" format="ascii">
              0.133000000               0.000000000               0.000000000               0.155937500               0.000000000               0.000000000               0.178875000               0.000000000               0.000000000               0.201812500               0.000000000               0.000000000               0.224750000               0.000000000               0.000000000               0.247687500               0.000000000               0.000000000               0.270625000               0.000000000               0.000000000               0.293562500               0.000000000               0.000000000               0.316500000               0.000000000               0.000000000               0.339437500               0.000000000               0.000000000               0.362375000               0.000000000               0.000000000               0.385312500               0.000000000               0.000000000               0.408250000               0.000000000               0.000000000               0.431187500               0.000000000               0.000000000               0.454125000               0.000000000               0.000000000               0.477062500               0.000000000               0.000000000               0.500000000               0.000000000               0.000000000               0.132359569               0.013036280               0.000000000               0.155337096               0.016127762               0.000000000               0.178314623               0.019219245               0.000000000               0.201292150               0.022310727               0.000000000               0.224269676               0.025402210               0.000000000               0.247247203               0.028493692               0.000000000               0.270224730               0.031585175               0.000000000               0.293202257               0.034676657               0.000000000               0.316179784               0.037768140               0.000000000               0.339157311               0.040859622               0.000000000               0.362134838               0.043951105               0.000000000               0.385112365               0.047042587               0.000000000               0.408089892               0.050134070               0.000000000               0.431067419               0.053225552               0.000000000               0.454044946               0.056317035               0.000000000               0.477022473               0.059408517               0.000000000               0.500000000               0.062500000               0.000000000               0.130444442               0.025947013               0.000000000               0.153541665               0.032137825               0.000000000               0.176638887               0.038328636               0.000000000               0.199736109               0.044519448               0.000000000               0.222833332               0.050710260               0.000000000               0.245930554               0.056901071               0.000000000               0.269027776               0.063091883               0.000000000               0.292124999               0.069282695               0.000000000               0.315222221               0.075473506               0.000000000               0.338319444               0.081664318               0.000000000               0.361416666               0.087855130               0.000000000               0.384513888               0.094045942               0.000000000               0.407611111               0.100236753               0.000000000               0.430708333               0.106427565               0.000000000               0.453805555               0.112618377               0.000000000               0.476902778               0.118809188               0.000000000               0.500000000               0.125000000               0.000000000               0.127273065               0.038607862               0.000000000               0.150568498               0.047913621               0.000000000               0.173863932               0.057219379               0.000000000               0.197159365               0.066525138               0.000000000               0.220454798               0.075830897               0.000000000               0.243750232               0.085136655               0.000000000               0.267045665               0.094442414               0.000000000               0.290341099               0.103748172               0.000000000               0.313636532               0.113053931               0.000000000               0.336931966               0.122359690               0.000000000               0.360227399               0.131665448               0.000000000               0.383522833               0.140971207               0.000000000               0.406818266               0.150276966               0.000000000               0.430113700               0.159582724               0.000000000               0.453409133               0.168888483               0.000000000               0.476704567               0.178194241               0.000000000               0.500000000               0.187500000               0.000000000               0.122875978               0.050896897               0.000000000               0.146446229               0.063340840               0.000000000               0.170016481               0.075784784               0.000000000               0.193586732               0.088228728               0.000000000               0.217156983               0.100672672               0.000000000               0.240727235               0.113116616               0.000000000               0.264297486               0.125560560               0.000000000               0.287867738               0.138004504               0.000000000               0.311437989               0.150448448               0.000000000               0.335008240               0.162892392               0.000000000               0.358578492               0.175336336               0.000000000               0.382148743               0.187780280               0.000000000               0.405718994               0.200224224               0.000000000               0.429289246               0.212668168               0.000000000               0.452859497               0.225112112               0.000000000               0.476429749               0.237556056               0.000000000               0.500000000               0.250000000               0.000000000               0.117295528               0.062695766               0.000000000               0.141214558               0.078308531               0.000000000               0.165133587               0.093921295               0.000000000               0.189052617               0.109534060               0.000000000               0.212971646               0.125146824               0.000000000               0.236890676               0.140759589               0.000000000               0.260809705               0.156372354               0.000000000               0.284728735               0.171985118               0.000000000               0.308647764               0.187597883               0.000000000               0.332566794               0.203210648               0.000000000               0.356485823               0.218823412               0.000000000               0.380404853               0.234436177               0.000000000               0.404323882               0.250048941               0.000000000               0.428242912               0.265661706               0.000000000               0.452161941               0.281274471               0.000000000               0.476080971               0.296887235               0.000000000               0.500000000               0.312500000               0.000000000               0.110585458               0.073890841               0.000000000               0.134923867               0.092710163               0.000000000               0.159262276               0.111529486               0.000000000               0.183600685               0.130348808               0.000000000               0.207939094               0.149168131               0.000000000               0.232277503               0.167987453               0.000000000               0.256615912               0.186806776               0.000000000               0.280954320               0.205626098               0.000000000               0.305292729               0.224445420               0.000000000               0.329631138               0.243264743               0.000000000               0.353969547               0.262084065               0.000000000               0.378307956               0.280903388               0.000000000               0.402646365               0.299722710               0.000000000               0.426984773               0.318542033               0.000000000               0.451323182               0.337361355               0.000000000               0.475661591               0.356180678               0.000000000               0.500000000               0.375000000               0.000000000               0.102810390               0.084374307               0.000000000               0.127634741               0.106444663               0.000000000               0.152459092               0.128515018               0.000000000               0.177283442               0.150585374               0.000000000               0.202107793               0.172655730               0.000000000               0.226932143               0.194726086               0.000000000               0.251756494               0.216796442               0.000000000               0.276580845               0.238866798               0.000000000               0.301405195               0.260937153               0.000000000               0.326229546               0.283007509               0.000000000               0.351053896               0.305077865               0.000000000               0.375878247               0.327148221               0.000000000               0.400702598               0.349218577               0.000000000               0.425526948               0.371288933               0.000000000               0.450351299               0.393359288               0.000000000               0.475175649               0.415429644               0.000000000               0.500000000               0.437500000               0.000000000               0.094045202               0.094045202               0.000000000               0.119417377               0.119417377               0.000000000               0.144789552               0.144789552               0.000000000               0.170161727               0.170161727               0.000000000               0.195533901               0.195533901               0.000000000               0.220906076               0.220906076               0.000000000               0.246278251               0.246278251               0.000000000               0.271650426               0.271650426               0.000000000               0.297022601               0.297022601               0.000000000               0.322394776               0.322394776               0.000000000               0.347766951               0.347766951               0.000000000               0.373139126               0.373139126               0.000000000               0.398511300               0.398511300               0.000000000               0.423883475               0.423883475               0.000000000               0.449255650               0.449255650               0.000000000               0.474627825               0.474627825               0.000000000               0.500000000               0.500000000               0.000000000               0.084374307               0.102810390               0.000000000               0.106444663               0.127634741               0.000000000               0.128515018               0.152459092               0.000000000               0.150585374               0.177283442               0.000000000               0.172655730               0.202107793               0.000000000               0.194726086               0.226932143               0.000000000               0.216796442               0.251756494               0.000000000               0.238866798               0.276580845               0.000000000               0.260937153               0.301405195               0.000000000               0.283007509               0.326229546               0.000000000               0.305077865               0.351053896               0.000000000               0.327148221               0.375878247               0.000000000               0.349218577               0.400702598               0.000000000               0.371288933               0.425526948               0.000000000               0.393359288               0.450351299               0.000000000               0.415429644               0.475175649               0.000000000               0.437500000               0.500000000               0.000000000               0.073890841               0.110585458               0.000000000               0.092710163               0.134923867               0.000000000               0.111529486               0.159262276               0.000000000               0.130348808               0.183600685               0.000000000               0.149168131               0.207939094               0.000000000               0.167987453               0.232277503               0.000000000               0.186806776               0.256615912               0.000000000               0.205626098               0.280954320               0.000000000               0.224445420               0.305292729               0.000000000               0.243264743               0.329631138               0.000000000               0.262084065               0.353969547               0.000000000               0.280903388               0.378307956               0.000000000               0.299722710               0.402646365               0.000000000               0.318542033               0.426984773               0.000000000               0.337361355               0.451323182               0.000000000               0.356180678               0.475661591               0.000000000               0.375000000               0.500000000               0.000000000               0.062695766               0.117295528               0.000000000               0.078308531               0.141214558               0.000000000               0.093921295               0.165133587               0.000000000               0.109534060               0.189052617               0.000000000               0.125146824               0.212971646               0.000000000               0.140759589               0.236890676               0.000000000               0.156372354               0.260809705               0.000000000               0.171985118               0.284728735               0.000000000               0.187597883               0.308647764               0.000000000               0.203210648               0.332566794               0.000000000               0.218823412               0.356485823               0.000000000               0.234436177               0.380404853               0.000000000               0.250048941               0.404323882               0.000000000               0.265661706               0.428242912               0.000000000               0.281274471               0.452161941               0.000000000               0.296887235               0.476080971               0.000000000               0.312500000               0.500000000               0.000000000               0.050896897               0.122875978               0.000000000               0.063340840               0.146446229               0.000000000               0.075784784               0.170016481               0.000000000               0.088228728               0.193586732               0.000000000               0.100672672               0.217156983               0.000000000               0.113116616               0.240727235               0.000000000               0.125560560               0.264297486               0.000000000               0.138004504               0.287867738               0.000000000               0.150448448               0.311437989               0.000000000               0.162892392               0.335008240               0.000000000               0.175336336               0.358578492               0.000000000               0.187780280               0.382148743               0.000000000               0.200224224               0.405718994               0.000000000               0.212668168               0.429289246               0.000000000               0.225112112               0.452859497               0.000000000               0.237556056               0.476429749               0.000000000               0.250000000               0.500000000               0.000000000               0.038607862               0.127273065               0.000000000               0.047913621               0.150568498               0.000000000               0.057219379               0.173863932               0.000000000               0.066525138               0.197159365               0.000000000               0.075830897               0.220454798               0.000000000               0.085136655               0.243750232               0.000000000               0.094442414               0.267045665               0.000000000               0.103748172               0.290341099               0.000000000               0.113053931               0.313636532               0.000000000               0.122359690               0.336931966               0.000000000               0.131665448               0.360227399               0.000000000               0.140971207               0.383522833               0.000000000               0.150276966               0.406818266               0.000000000               0.159582724               0.430113700               0.000000000               0.168888483               0.453409133               0.000000000               0.178194241               0.476704567               0.000000000               0.187500000               0.500000000               0.000000000               0.025947013               0.130444442               0.000000000               0.032137825               0.153541665               0.000000000               0.038328636               0.176638887               0.000000000               0.044519448               0.199736109               0.000000000               0.050710260               0.222833332               0.000000000               0.056901071               0.245930554               0.000000000               0.063091883               0.269027776               0.000000000               0.069282695               0.292124999               0.000000000               0.075473506               0.315222221               0.000000000               0.081664318               0.338319444               0.000000000               0.087855130               0.361416666               0.000000000               0.094045942               0.384513888               0.000000000               0.100236753               0.407611111               0.000000000               0.106427565               0.430708333               0.000000000               0.112618377               0.453805555               0.000000000               0.118809188               0.476902778               0.000000000               0.125000000               0.500000000               0.000000000               0.013036280               0.132359569               0.000000000               0.016127762               0.155337096               0.000000000               0.019219245               0.178314623               0.000000000               0.022310727               0.201292150               0.000000000               0.025402210               0.224269676               0.000000000               0.028493692               0.247247203               0.000000000               0.031585175               0.270224730               0.000000000               0.034676657               0.293202257               0.000000000               0.037768140               0.316179784               0.000000000               0.040859622               0.339157311               0.000000000               0.043951105               0.362134838               0.000000000               0.047042587               0.385112365               0.000000000               0.050134070               0.408089892               0.000000000               0.053225552               0.431067419               0.000000000               0.056317035               0.454044946               0.000000000               0.059408517               0.477022473               0.000000000               0.062500000               0.500000000               0.000000000               0.000000000               0.133000000               0.000000000               0.000000000               0.155937500               0.000000000               0.000000000               0.178875000               0.000000000               0.000000000               0.201812500               0.000000000               0.000000000               0.224750000               0.000000000               0.000000000               0.247687500               0.000000000               0.000000000               0.270625000               0.000000000               0.000000000               0.293562500               0.000000000               0.000000000               0.316500000               0.000000000               0.000000000               0.339437500               0.000000000               0.000000000               0.362375000               0.000000000               0.000000000               0.385312500               0.000000000               0.000000000               0.408250000               0.000000000               0.000000000               0.431187500               0.000000000               0.000000000               0.454125000               0.000000000               0.000000000               0.477062500               0.000000000               0.000000000               0.500000000               0.000000000               0.133000000               0.000000000               0.000000000               0.155937500               0.000000000               0.000000000               0.178875000               0.000000000               0.000000000               0.201812500               0.000000000               0.000000000               0.224750000               0.000000000               0.000000000               0.247687500               0.000000000               0.000000000               0.270625000               0.000000000               0.000000000               0.293562500               0.000000000               0.000000000               0.316500000               0.000000000               0.000000000               0.339437500               0.000000000               0.000000000               0.362375000               0.000000000               0.000000000               0.385312500               0.000000000               0.000000000               0.408250000               0.000000000               0.000000000               0.431187500               0.000000000               0.000000000               0.454125000               0.000000000               0.000000000               0.477062500               0.000000000               0.000000000               0.500000000               0.000000000               0.000000000               0.132359569              -0.013036280               0.000000000               0.155337096              -0.016127762               0.000000000               0.178314623              -0.019219245               0.000000000               0.201292150              -0.022310727               0.000000000               0.224269676              -0.025402210               0.000000000               0.247247203              -0.028493692               0.000000000               0.270224730              -0.031585175               0.000000000               0.293202257              -0.034676657               0.000000000               0.316179784              -0.037768140               0.000000000               0.339157311              -0.040859622               0.000000000               0.362134838              -0.043951105               0.000000000               0.385112365              -0.047042587               0.000000000               0.408089892              -0.050134070               0.000000000               0.431067419              -0.053225552               0.000000000               0.454044946              -0.056317035               0.000000000               0.477022473              -0.059408517               0.000000000               0.500000000              -0.062500000               0.000000000               0.130444442              -0.025947013               0.000000000               0.153541665              -0.032137825               0.000000000               0.176638887              -0.038328636               0.000000000               0.199736109              -0.044519448               0.000000000               0.222833332              -0.050710260               0.000000000               0.245930554              -0.056901071               0.000000000               0.269027776              -0.063091883               0.000000000               0.292124999              -0.069282695               0.000000000               0.315222221              -0.075473506               0.000000000               0.338319444              -0.081664318               0.000000000               0.361416666              -0.087855130               0.000000000               0.384513888              -0.094045942               0.000000000               0.407611111              -0.100236753               0.000000000               0.430708333              -0.106427565               0.000000000               0.453805555              -0.112618377               0.000000000               0.476902778              -0.118809188               0.000000000               0.500000000              -0.125000000               0.000000000               0.127273065              -0.038607862               0.000000000               0.150568498              -0.047913621               0.000000000               0.173863932              -0.057219379               0.000000000               0.197159365              -0.066525138               0.000000000               0.220454798              -0.075830897               0.000000000               0.243750232              -0.085136655               0.000000000               0.267045665              -0.094442414               0.000000000               0.290341099              -0.103748172               0.000000000               0.313636532              -0.113053931               0.000000000               0.336931966              -0.122359690               0.000000000               0.360227399              -0.131665448               0.000000000               0.383522833              -0.140971207               0.000000000               0.406818266              -0.150276966               0.000000000               0.430113700              -0.159582724               0.000000000               0.453409133              -0.168888483               0.000000000               0.476704567              -0.178194241               0.000000000               0.500000000              -0.187500000               0.000000000               0.122875978              -0.050896897               0.000000000               0.146446229              -0.063340840               0.000000000               0.170016481              -0.075784784               0.000000000               0.193586732              -0.088228728               0.000000000               0.217156983              -0.100672672               0.000000000               0.240727235              -0.113116616               0.000000000               0.264297486              -0.125560560               0.000000000               0.287867738              -0.138004504               0.000000000               0.311437989              -0.150448448               0.000000000               0.335008240              -0.162892392               0.000000000               0.358578492              -0.175336336               0.000000000               0.382148743              -0.187780280               0.000000000               0.405718994              -0.200224224               0.000000000               0.429289246              -0.212668168               0.000000000               0.452859497              -0.225112112               0.000000000               0.476429749              -0.237556056               0.000000000               0.500000000              -0.250000000               0.000000000               0.117295528              -0.062695766               0.000000000               0.141214558              -0.078308531               0.000000000               0.165133587              -0.093921295               0.000000000               0.189052617              -0.109534060               0.000000000               0.212971646              -0.125146824               0.000000000               0.236890676              -0.140759589               0.000000000               0.260809705              -0.156372354               0.000000000               0.284728735              -0.171985118               0.000000000               0.308647764              -0.187597883               0.000000000               0.332566794              -0.203210648               0.000000000               0.356485823              -0.218823412               0.000000000               0.380404853              -0.234436177               0.000000000               0.404323882              -0.250048941               0.000000000               0.428242912              -0.265661706               0.000000000               0.452161941              -0.281274471               0.000000000               0.476080971              -0.296887235               0.000000000               0.500000000              -0.312500000               0.000000000               0.110585458              -0.073890841               0.000000000               0.134923867              -0.092710163               0.000000000               0.159262276              -0.111529486               0.000000000               0.183600685              -0.130348808               0.000000000               0.207939094              -0.149168131               0.000000000               0.232277503              -0.167987453               0.000000000               0.256615912              -0.186806776               0.000000000               0.280954320              -0.205626098               0.000000000               0.305292729              -0.224445420               0.000000000               0.329631138              -0.243264743               0.000000000               0.353969547              -0.262084065               0.000000000               0.378307956              -0.280903388               0.000000000               0.402646365              -0.299722710               0.000000000               0.426984773              -0.318542033               0.000000000               0.451323182              -0.337361355               0.000000000               0.475661591              -0.356180678               0.000000000               0.500000000              -0.375000000               0.000000000               0.102810390              -0.084374307               0.000000000               0.127634741              -0.106444663               0.000000000               0.152459092              -0.128515018               0.000000000               0.177283442              -0.150585374               0.000000000               0.202107793              -0.172655730               0.000000000               0.226932143              -0.194726086               0.000000000               0.251756494              -0.216796442               0.000000000               0.276580845              -0.238866798               0.000000000               0.301405195              -0.260937153               0.000000000               0.326229546              -0.283007509               0.000000000               0.351053896              -0.305077865               0.000000000               0.375878247              -0.327148221               0.000000000               0.400702598              -0.349218577               0.000000000               0.425526948              -0.371288933               0.000000000               0.450351299              -0.393359288               0.000000000               0.475175649              -0.415429644               0.000000000               0.500000000              -0.437500000               0.000000000               0.094045202              -0.094045202               0.000000000               0.119417377              -0.119417377               0.000000000               0.144789552              -0.144789552               0.000000000               0.170161727              -0.170161727               0.000000000               0.195533901              -0.195533901               0.000000000               0.220906076              -0.220906076               0.000000000               0.246278251              -0.246278251               0.000000000               0.271650426              -0.271650426               0.000000000               0.297022601              -0.297022601               0.000000000               0.322394776              -0.322394776               0.000000000               0.347766951              -0.347766951               0.000000000               0.373139126              -0.373139126               0.000000000               0.398511300              -0.398511300               0.000000000               0.423883475              -0.423883475               0.000000000               0.449255650              -0.449255650               0.000000000               0.474627825              -0.474627825               0.000000000               0.500000000              -0.500000000               0.000000000               0.084374307              -0.102810390               0.000000000               0.106444663              -0.127634741               0.000000000               0.128515018              -0.152459092               0.000000000               0.150585374              -0.177283442               0.000000000               0.172655730              -0.202107793               0.000000000               0.194726086              -0.226932143               0.000000000               0.216796442              -0.251756494               0.000000000               0.238866798              -0.276580845               0.000000000               0.260937153              -0.301405195               0.000000000               0.283007509              -0.326229546               0.000000000               0.305077865              -0.351053896               0.000000000               0.327148221              -0.375878247               0.000000000               0.349218577              -0.400702598               0.000000000               0.371288933              -0.425526948               0.000000000               0.393359288              -0.450351299               0.000000000               0.415429644              -0.475175649               0.000000000               0.437500000              -0.500000000               0.000000000               0.073890841              -0.110585458               0.000000000               0.092710163              -0.134923867               0.000000000               0.111529486              -0.159262276               0.000000000               0.130348808              -0.183600685               0.000000000               0.149168131              -0.207939094               0.000000000               0.167987453              -0.232277503               0.000000000               0.186806776              -0.256615912               0.000000000               0.205626098              -0.280954320               0.000000000               0.224445420              -0.305292729               0.000000000               0.243264743              -0.329631138               0.000000000               0.262084065              -0.353969547               0.000000000               0.280903388              -0.378307956               0.000000000               0.299722710              -0.402646365               0.000000000               0.318542033              -0.426984773               0.000000000               0.337361355              -0.451323182               0.000000000               0.356180678              -0.475661591               0.000000000               0.375000000              -0.500000000               0.000000000               0.062695766              -0.117295528               0.000000000               0.078308531              -0.141214558               0.000000000               0.093921295              -0.165133587               0.000000000               0.109534060              -0.189052617               0.000000000               0.125146824              -0.212971646               0.000000000               0.140759589              -0.236890676               0.000000000               0.156372354              -0.260809705               0.000000000               0.171985118              -0.284728735               0.000000000               0.187597883              -0.308647764               0.000000000               0.203210648              -0.332566794               0.000000000               0.218823412              -0.356485823               0.000000000               0.234436177              -0.380404853               0.000000000               0.250048941              -0.404323882               0.000000000               0.265661706              -0.428242912               0.000000000               0.281274471              -0.452161941               0.000000000               0.296887235              -0.476080971               0.000000000               0.312500000              -0.500000000               0.000000000               0.050896897              -0.122875978               0.000000000               0.063340840              -0.146446229               0.000000000               0.075784784              -0.170016481               0.000000000               0.088228728              -0.193586732               0.000000000               0.100672672              -0.217156983               0.000000000               0.113116616              -0.240727235               0.000000000               0.125560560              -0.264297486               0.000000000               0.138004504              -0.287867738               0.000000000               0.150448448              -0.311437989               0.000000000               0.162892392              -0.335008240               0.000000000               0.175336336              -0.358578492               0.000000000               0.187780280              -0.382148743               0.000000000               0.200224224              -0.405718994               0.000000000               0.212668168              -0.429289246               0.000000000               0.225112112              -0.452859497               0.000000000               0.237556056              -0.476429749               0.000000000               0.250000000              -0.500000000               0.000000000               0.038607862              -0.127273065               0.000000000               0.047913621              -0.150568498               0.000000000               0.057219379              -0.173863932               0.000000000               0.066525138              -0.197159365               0.000000000               0.075830897              -0.220454798               0.000000000               0.085136655              -0.243750232               0.000000000               0.094442414              -0.267045665               0.000000000               0.103748172              -0.290341099               0.000000000               0.113053931              -0.313636532               0.000000000               0.122359690              -0.336931966               0.000000000               0.131665448              -0.360227399               0.000000000               0.140971207              -0.383522833               0.000000000               0.150276966              -0.406818266               0.000000000               0.159582724              -0.430113700               0.000000000               0.168888483              -0.453409133               0.000000000               0.178194241              -0.476704567               0.000000000               0.187500000              -0.500000000               0.000000000               0.025947013              -0.130444442               0.000000000               0.032137825              -0.153541665               0.000000000               0.038328636              -0.176638887               0.000000000               0.044519448              -0.199736109               0.000000000               0.050710260              -0.222833332               0.000000000               0.056901071              -0.245930554               0.000000000               0.063091883              -0.269027776               0.000000000               0.069282695              -0.292124999               0.000000000               0.075473506              -0.315222221               0.000000000               0.081664318              -0.338319444               0.000000000               0.087855130              -0.361416666               0.000000000               0.094045942              -0.384513888               0.000000000               0.100236753              -0.407611111               0.000000000               0.106427565              -0.430708333               0.000000000               0.112618377              -0.453805555               0.000000000               0.118809188              -0.476902778               0.000000000               0.125000000              -0.500000000               0.000000000               0.013036280              -0.132359569               0.000000000               0.016127762              -0.155337096               0.000000000               0.019219245              -0.178314623               0.000000000               0.022310727              -0.201292150               0.000000000               0.025402210              -0.224269676               0.000000000               0.028493692              -0.247247203               0.000000000               0.031585175              -0.270224730               0.000000000               0.034676657              -0.293202257               0.000000000               0.037768140              -0.316179784               0.000000000               0.040859622              -0.339157311               0.000000000               0.043951105              -0.362134838               0.000000000               0.047042587              -0.385112365               0.000000000               0.050134070              -0.408089892               0.000000000               0.053225552              -0.431067419               0.000000000               0.056317035              -0.454044946               0.000000000               0.059408517              -0.477022473               0.000000000               0.062500000              -0.500000000               0.000000000               0.000000000              -0.133000000               0.000000000               0.000000000              -0.155937500               0.000000000               0.000000000              -0.178875000               0.000000000               0.000000000              -0.201812500               0.000000000               0.000000000              -0.224750000               0.000000000               0.000000000              -0.247687500               0.000000000               0.000000000              -0.270625000               0.000000000               0.000000000              -0.293562500               0.000000000               0.000000000              -0.316500000               0.000000000               0.000000000              -0.339437500               0.000000000               0.000000000              -0.362375000               0.000000000               0.000000000              -0.385312500               0.000000000               0.000000000              -0.408250000               0.000000000               0.000000000              -0.431187500               0.000000000               0.000000000              -0.454125000               0.000000000               0.000000000              -0.477062500               0.000000000               0.000000000              -0.500000000               0.000000000              -0.133000000               0.000000000               0.000000000              -0.155937500               0.000000000               0.000000000              -0.178875000               0.000000000               0.000000000              -0.201812500               0.000000000               0.000000000              -0.224750000               0.000000000               0.000000000              -0.247687500               0.000000000               0.000000000              -0.270625000               0.000000000               0.000000000              -0.293562500               0.000000000               0.000000000              -0.316500000               0.000000000               0.000000000              -0.339437500               0.000000000               0.000000000              -0.362375000               0.000000000               0.000000000              -0.385312500               0.000000000               0.000000000              -0.408250000               0.000000000               0.000000000              -0.431187500               0.000000000               0.000000000              -0.454125000               0.000000000               0.000000000              -0.477062500               0.000000000               0.000000000              -0.500000000               0.000000000               0.000000000              -0.132359569              -0.013036280               0.000000000              -0.155337096              -0.016127762               0.000000000              -0.178314623              -0.019219245               0.000000000              -0.201292150              -0.022310727               0.000000000              -0.224269676              -0.025402210               0.000000000              -0.247247203              -0.028493692               0.000000000              -0.270224730              -0.031585175               0.000000000              -0.293202257              -0.034676657               0.000000000              -0.316179784              -0.037768140               0.000000000              -0.339157311              -0.040859622               0.000000000              -0.362134838              -0.043951105               0.000000000              -0.385112365              -0.047042587               0.000000000              -0.408089892              -0.050134070               0.000000000              -0.431067419              -0.053225552               0.000000000              -0.454044946              -0.056317035               0.000000000              -0.477022473              -0.059408517               0.000000000              -0.500000000              -0.062500000               0.000000000              -0.130444442              -0.025947013               0.000000000              -0.153541665              -0.032137825               0.000000000              -0.176638887              -0.038328636               0.000000000              -0.199736109              -0.044519448               0.000000000              -0.222833332              -0.050710260               0.000000000              -0.245930554              -0.056901071               0.000000000              -0.269027776              -0.063091883               0.000000000              -0.292124999              -0.069282695               0.000000000              -0.315222221              -0.075473506               0.000000000              -0.338319444              -0.081664318               0.000000000              -0.361416666              -0.087855130               0.000000000              -0.384513888              -0.094045942               0.000000000              -0.407611111              -0.100236753               0.000000000              -0.430708333              -0.106427565               0.000000000              -0.453805555              -0.112618377               0.000000000              -0.476902778              -0.118809188               0.000000000              -0.500000000              -0.125000000               0.000000000              -0.127273065              -0.038607862               0.000000000              -0.150568498              -0.047913621               0.000000000              -0.173863932              -0.057219379               0.000000000              -0.197159365              -0.066525138               0.000000000              -0.220454798              -0.075830897               0.000000000              -0.243750232              -0.085136655               0.000000000              -0.267045665              -0.094442414               0.000000000              -0.290341099              -0.103748172               0.000000000              -0.313636532              -0.113053931               0.000000000              -0.336931966              -0.122359690               0.000000000              -0.360227399              -0.131665448               0.000000000              -0.383522833              -0.140971207               0.000000000              -0.406818266              -0.150276966               0.000000000              -0.430113700              -0.159582724               0.000000000              -0.453409133              -0.168888483               0.000000000              -0.476704567              -0.178194241               0.000000000              -0.500000000              -0.187500000               0.000000000              -0.122875978              -0.050896897               0.000000000              -0.146446229              -0.063340840               0.000000000              -0.170016481              -0.075784784               0.000000000              -0.193586732              -0.088228728               0.000000000              -0.217156983              -0.100672672               0.000000000              -0.240727235              -0.113116616               0.000000000              -0.264297486              -0.125560560               0.000000000              -0.287867738              -0.138004504               0.000000000              -0.311437989              -0.150448448               0.000000000              -0.335008240              -0.162892392               0.000000000              -0.358578492              -0.175336336               0.000000000              -0.382148743              -0.187780280               0.000000000              -0.405718994              -0.200224224               0.000000000              -0.429289246              -0.212668168               0.000000000              -0.452859497              -0.225112112               0.000000000              -0.476429749              -0.237556056               0.000000000              -0.500000000              -0.250000000               0.000000000              -0.117295528              -0.062695766               0.000000000              -0.141214558              -0.078308531               0.000000000              -0.165133587              -0.093921295               0.000000000              -0.189052617              -0.109534060               0.000000000              -0.212971646              -0.125146824               0.000000000              -0.236890676              -0.140759589               0.000000000              -0.260809705              -0.156372354               0.000000000              -0.284728735              -0.171985118               0.000000000              -0.308647764              -0.187597883               0.000000000              -0.332566794              -0.203210648               0.000000000              -0.356485823              -0.218823412               0.000000000              -0.380404853              -0.234436177               0.000000000              -0.404323882              -0.250048941               0.000000000              -0.428242912              -0.265661706               0.000000000              -0.452161941              -0.281274471               0.000000000              -0.476080971              -0.296887235               0.000000000              -0.500000000              -0.312500000               0.000000000              -0.110585458              -0.073890841               0.000000000              -0.134923867              -0.092710163               0.000000000              -0.159262276              -0.111529486               0.000000000              -0.183600685              -0.130348808               0.000000000              -0.207939094              -0.149168131               0.000000000              -0.232277503              -0.167987453               0.000000000              -0.256615912              -0.186806776               0.000000000              -0.280954320              -0.205626098               0.000000000              -0.305292729              -0.224445420               0.000000000              -0.329631138              -0.243264743               0.000000000              -0.353969547              -0.262084065               0.000000000              -0.378307956              -0.280903388               0.000000000              -0.402646365              -0.299722710               0.000000000              -0.426984773              -0.318542033               0.000000000              -0.451323182              -0.337361355               0.000000000              -0.475661591              -0.356180678               0.000000000              -0.500000000              -0.375000000               0.000000000              -0.102810390              -0.084374307               0.000000000              -0.127634741              -0.106444663               0.000000000              -0.152459092              -0.128515018               0.000000000              -0.177283442              -0.150585374               0.000000000              -0.202107793              -0.172655730               0.000000000              -0.226932143              -0.194726086               0.000000000              -0.251756494              -0.216796442               0.000000000              -0.276580845              -0.238866798               0.000000000              -0.301405195              -0.260937153               0.000000000              -0.326229546              -0.283007509               0.000000000              -0.351053896              -0.305077865               0.000000000              -0.375878247              -0.327148221               0.000000000              -0.400702598              -0.349218577               0.000000000              -0.425526948              -0.371288933               0.000000000              -0.450351299              -0.393359288               0.000000000              -0.475175649              -0.415429644               0.000000000              -0.500000000              -0.437500000               0.000000000              -0.094045202              -0.094045202               0.000000000              -0.119417377              -0.119417377               0.000000000              -0.144789552              -0.144789552               0.000000000              -0.170161727              -0.170161727               0.000000000              -0.195533901              -0.195533901               0.000000000              -0.220906076              -0.220906076               0.000000000              -0.246278251              -0.246278251               0.000000000              -0.271650426              -0.271650426               0.000000000              -0.297022601              -0.297022601               0.000000000              -0.322394776              -0.322394776               0.000000000              -0.347766951              -0.347766951               0.000000000              -0.373139126              -0.373139126               0.000000000              -0.398511300              -0.398511300               0.000000000              -0.423883475              -0.423883475               0.000000000              -0.449255650              -0.449255650               0.000000000              -0.474627825              -0.474627825               0.000000000              -0.500000000              -0.500000000               0.000000000              -0.084374307              -0.102810390               0.000000000              -0.106444663              -0.127634741               0.000000000              -0.128515018              -0.152459092               0.000000000              -0.150585374              -0.177283442               0.000000000              -0.172655730              -0.202107793               0.000000000              -0.194726086              -0.226932143               0.000000000              -0.216796442              -0.251756494               0.000000000              -0.238866798              -0.276580845               0.000000000              -0.260937153              -0.301405195               0.000000000              -0.283007509              -0.326229546               0.000000000              -0.305077865              -0.351053896               0.000000000              -0.327148221              -0.375878247               0.000000000              -0.349218577              -0.400702598               0.000000000              -0.371288933              -0.425526948               0.000000000              -0.393359288              -0.450351299               0.000000000              -0.415429644              -0.475175649               0.000000000              -0.437500000              -0.500000000               0.000000000              -0.073890841              -0.110585458               0.000000000              -0.092710163              -0.134923867               0.000000000              -0.111529486              -0.159262276               0.000000000              -0.130348808              -0.183600685               0.000000000              -0.149168131              -0.207939094               0.000000000              -0.167987453              -0.232277503               0.000000000              -0.186806776              -0.256615912               0.000000000              -0.205626098              -0.280954320               0.000000000              -0.224445420              -0.305292729               0.000000000              -0.243264743              -0.329631138               0.000000000              -0.262084065              -0.353969547               0.000000000              -0.280903388              -0.378307956               0.000000000              -0.299722710              -0.402646365               0.000000000              -0.318542033              -0.426984773               0.000000000              -0.337361355              -0.451323182               0.000000000              -0.356180678              -0.475661591               0.000000000              -0.375000000              -0.500000000               0.000000000              -0.062695766              -0.117295528               0.000000000              -0.078308531              -0.141214558               0.000000000              -0.093921295              -0.165133587               0.000000000              -0.109534060              -0.189052617               0.000000000              -0.125146824              -0.212971646               0.000000000              -0.140759589              -0.236890676               0.000000000              -0.156372354              -0.260809705               0.000000000              -0.171985118              -0.284728735               0.000000000              -0.187597883              -0.308647764               0.000000000              -0.203210648              -0.332566794               0.000000000              -0.218823412              -0.356485823               0.000000000              -0.234436177              -0.380404853               0.000000000              -0.250048941              -0.404323882               0.000000000              -0.265661706              -0.428242912               0.000000000              -0.281274471              -0.452161941               0.000000000              -0.296887235              -0.476080971               0.000000000              -0.312500000              -0.500000000               0.000000000              -0.050896897              -0.122875978               0.000000000              -0.063340840              -0.146446229               0.000000000              -0.075784784              -0.170016481               0.000000000              -0.088228728              -0.193586732               0.000000000              -0.100672672              -0.217156983               0.000000000              -0.113116616              -0.240727235               0.000000000              -0.125560560              -0.264297486               0.000000000              -0.138004504              -0.287867738               0.000000000              -0.150448448              -0.311437989               0.000000000              -0.162892392              -0.335008240               0.000000000              -0.175336336              -0.358578492               0.000000000              -0.187780280              -0.382148743               0.000000000              -0.200224224              -0.405718994               0.000000000              -0.212668168              -0.429289246               0.000000000              -0.225112112              -0.452859497               0.000000000              -0.237556056              -0.476429749               0.000000000              -0.250000000              -0.500000000               0.000000000              -0.038607862              -0.127273065               0.000000000              -0.047913621              -0.150568498               0.000000000              -0.057219379              -0.173863932               0.000000000              -0.066525138              -0.197159365               0.000000000              -0.075830897              -0.220454798               0.000000000              -0.085136655              -0.243750232               0.000000000              -0.094442414              -0.267045665               0.000000000              -0.103748172              -0.290341099               0.000000000              -0.113053931              -0.313636532               0.000000000              -0.122359690              -0.336931966               0.000000000              -0.131665448              -0.360227399               0.000000000              -0.140971207              -0.383522833               0.000000000              -0.150276966              -0.406818266               0.000000000              -0.159582724              -0.430113700               0.000000000              -0.168888483              -0.453409133               0.000000000              -0.178194241              -0.476704567               0.000000000              -0.187500000              -0.500000000               0.000000000              -0.025947013              -0.130444442               0.000000000              -0.032137825              -0.153541665               0.000000000              -0.038328636              -0.176638887               0.000000000              -0.044519448              -0.199736109               0.000000000              -0.050710260              -0.222833332               0.000000000              -0.056901071              -0.245930554               0.000000000              -0.063091883              -0.269027776               0.000000000              -0.069282695              -0.292124999               0.000000000              -0.075473506              -0.315222221               0.000000000              -0.081664318              -0.338319444               0.000000000              -0.087855130              -0.361416666               0.000000000              -0.094045942              -0.384513888               0.000000000              -0.100236753              -0.407611111               0.000000000              -0.106427565              -0.430708333               0.000000000              -0.112618377              -0.453805555               0.000000000              -0.118809188              -0.476902778               0.000000000              -0.125000000              -0.500000000               0.000000000              -0.013036280              -0.132359569               0.000000000              -0.016127762              -0.155337096               0.000000000              -0.019219245              -0.178314623               0.000000000              -0.022310727              -0.201292150               0.000000000              -0.025402210              -0.224269676               0.000000000              -0.028493692              -0.247247203               0.000000000              -0.031585175              -0.270224730               0.000000000              -0.034676657              -0.293202257               0.000000000              -0.037768140              -0.316179784               0.000000000              -0.040859622              -0.339157311               0.000000000              -0.043951105              -0.362134838               0.000000000              -0.047042587              -0.385112365               0.000000000              -0.050134070              -0.408089892               0.000000000              -0.053225552              -0.431067419               0.000000000              -0.056317035              -0.454044946               0.000000000              -0.059408517              -0.477022473               0.000000000              -0.062500000              -0.500000000               0.000000000               0.000000000              -0.133000000               0.000000000               0.000000000              -0.155937500               0.000000000               0.000000000              -0.178875000               0.000000000               0.000000000              -0.201812500               0.000000000               0.000000000              -0.224750000               0.000000000               0.000000000              -0.247687500               0.000000000               0.000000000              -0.270625000               0.000000000               0.000000000              -0.293562500               0.000000000               0.000000000              -0.316500000               0.000000000               0.000000000              -0.339437500               0.000000000               0.000000000              -0.362375000               0.000000000               0.000000000              -0.385312500               0.000000000               0.000000000              -0.408250000               0.000000000               0.000000000              -0.431187500               0.000000000               0.000000000              -0.454125000               0.000000000               0.000000000              -0.477062500               0.000000000               0.000000000              -0.500000000               0.000000000              -0.133000000               0.000000000               0.000000000              -0.155937500               0.000000000               0.000000000              -0.178875000               0.000000000               0.000000000              -0.201812500               0.000000000               0.000000000              -0.224750000               0.000000000               0.000000000              -0.247687500               0.000000000               0.000000000              -0.270625000               0.000000000               0.000000000              -0.293562500               0.000000000               0.000000000              -0.316500000               0.000000000               0.000000000              -0.339437500               0.000000000               0.000000000              -0.362375000               0.000000000               0.000000000              -0.385312500               0.000000000               0.000000000              -0.408250000               0.000000000               0.000000000              -0.431187500               0.000000000               0.000000000              -0.454125000               0.000000000               0.000000000              -0.477062500               0.000000000               0.000000000              -0.500000000               0.000000000               0.000000000              -0.132359569               0.013036280               0.000000000              -0.155337096               0.016127762               0.000000000              -0.178314623               0.019219245               0.000000000              -0.201292150               0.022310727               0.000000000              -0.224269676               0.025402210               0.000000000              -0.247247203               0.028493692               0.000000000              -0.270224730               0.031585175               0.000000000              -0.293202257               0.034676657               0.000000000              -0.316179784               0.037768140               0.000000000              -0.339157311               0.040859622               0.000000000              -0.362134838               0.043951105               0.000000000              -0.385112365               0.047042587               0.000000000              -0.408089892               0.050134070               0.000000000              -0.431067419               0.053225552               0.000000000              -0.454044946               0.056317035               0.000000000              -0.477022473               0.059408517               0.000000000              -0.500000000               0.062500000               0.000000000              -0.130444442               0.025947013               0.000000000              -0.153541665               0.032137825               0.000000000              -0.176638887               0.038328636               0.000000000              -0.199736109               0.044519448               0.000000000              -0.222833332               0.050710260               0.000000000              -0.245930554               0.056901071               0.000000000              -0.269027776               0.063091883               0.000000000              -0.292124999               0.069282695               0.000000000              -0.315222221               0.075473506               0.000000000              -0.338319444               0.081664318               0.000000000              -0.361416666               0.087855130               0.000000000              -0.384513888               0.094045942               0.000000000              -0.407611111               0.100236753               0.000000000              -0.430708333               0.106427565               0.000000000              -0.453805555               0.112618377               0.000000000              -0.476902778               0.118809188               0.000000000              -0.500000000               0.125000000               0.000000000              -0.127273065               0.038607862               0.000000000              -0.150568498               0.047913621               0.000000000              -0.173863932               0.057219379               0.000000000              -0.197159365               0.066525138               0.000000000              -0.220454798               0.075830897               0.000000000              -0.243750232               0.085136655               0.000000000              -0.267045665               0.094442414               0.000000000              -0.290341099               0.103748172               0.000000000              -0.313636532               0.113053931               0.000000000              -0.336931966               0.122359690               0.000000000              -0.360227399               0.131665448               0.000000000              -0.383522833               0.140971207               0.000000000              -0.406818266               0.150276966               0.000000000              -0.430113700               0.159582724               0.000000000              -0.453409133               0.168888483               0.000000000              -0.476704567               0.178194241               0.000000000              -0.500000000               0.187500000               0.000000000              -0.122875978               0.050896897               0.000000000              -0.146446229               0.063340840               0.000000000              -0.170016481               0.075784784               0.000000000              -0.193586732               0.088228728               0.000000000              -0.217156983               0.100672672               0.000000000              -0.240727235               0.113116616               0.000000000              -0.264297486               0.125560560               0.000000000              -0.287867738               0.138004504               0.000000000              -0.311437989               0.150448448               0.000000000              -0.335008240               0.162892392               0.000000000              -0.358578492               0.175336336               0.000000000              -0.382148743               0.187780280               0.000000000              -0.405718994               0.200224224               0.000000000              -0.429289246               0.212668168               0.000000000              -0.452859497               0.225112112               0.000000000              -0.476429749               0.237556056               0.000000000              -0.500000000               0.250000000               0.000000000              -0.117295528               0.062695766               0.000000000              -0.141214558               0.078308531               0.000000000              -0.165133587               0.093921295               0.000000000              -0.189052617               0.109534060               0.000000000              -0.212971646               0.125146824               0.000000000              -0.236890676               0.140759589               0.000000000              -0.260809705               0.156372354               0.000000000              -0.284728735               0.171985118               0.000000000              -0.308647764               0.187597883               0.000000000              -0.332566794               0.203210648               0.000000000              -0.356485823               0.218823412               0.000000000              -0.380404853               0.234436177               0.000000000              -0.404323882               0.250048941               0.000000000              -0.428242912               0.265661706               0.000000000              -0.452161941               0.281274471               0.000000000              -0.476080971               0.296887235               0.000000000              -0.500000000               0.312500000               0.000000000              -0.110585458               0.073890841               0.000000000              -0.134923867               0.092710163               0.000000000              -0.159262276               0.111529486               0.000000000              -0.183600685               0.130348808               0.000000000              -0.207939094               0.149168131               0.000000000              -0.232277503               0.167987453               0.000000000              -0.256615912               0.186806776               0.000000000              -0.280954320               0.205626098               0.000000000              -0.305292729               0.224445420               0.000000000              -0.329631138               0.243264743               0.000000000              -0.353969547               0.262084065               0.000000000              -0.378307956               0.280903388               0.000000000              -0.402646365               0.299722710               0.000000000              -0.426984773               0.318542033               0.000000000              -0.451323182               0.337361355               0.000000000              -0.475661591               0.356180678               0.000000000              -0.500000000               0.375000000               0.000000000              -0.102810390               0.084374307               0.000000000              -0.127634741               0.106444663               0.000000000              -0.152459092               0.128515018               0.000000000              -0.177283442               0.150585374               0.000000000              -0.202107793               0.172655730               0.000000000              -0.226932143               0.194726086               0.000000000              -0.251756494               0.216796442               0.000000000              -0.276580845               0.238866798               0.000000000              -0.301405195               0.260937153               0.000000000              -0.326229546               0.283007509               0.000000000              -0.351053896               0.305077865               0.000000000              -0.375878247               0.327148221               0.000000000              -0.400702598               0.349218577               0.000000000              -0.425526948               0.371288933               0.000000000              -0.450351299               0.393359288               0.000000000              -0.475175649               0.415429644               0.000000000              -0.500000000               0.437500000               0.000000000              -0.094045202               0.094045202               0.000000000              -0.119417377               0.119417377               0.000000000              -0.144789552               0.144789552               0.000000000              -0.170161727               0.170161727               0.000000000              -0.195533901               0.195533901               0.000000000              -0.220906076               0.220906076               0.000000000              -0.246278251               0.246278251               0.000000000              -0.271650426               0.271650426               0.000000000              -0.297022601               0.297022601               0.000000000              -0.322394776               0.322394776               0.000000000              -0.347766951               0.347766951               0.000000000              -0.373139126               0.373139126               0.000000000              -0.398511300               0.398511300               0.000000000              -0.423883475               0.423883475               0.000000000              -0.449255650               0.449255650               0.000000000              -0.474627825               0.474627825               0.000000000              -0.500000000               0.500000000               0.000000000              -0.084374307               0.102810390               0.000000000              -0.106444663               0.127634741               0.000000000              -0.128515018               0.152459092               0.000000000              -0.150585374               0.177283442               0.000000000              -0.172655730               0.202107793               0.000000000              -0.194726086               0.226932143               0.000000000              -0.216796442               0.251756494               0.000000000              -0.238866798               0.276580845               0.000000000              -0.260937153               0.301405195               0.000000000              -0.283007509               0.326229546               0.000000000              -0.305077865               0.351053896               0.000000000              -0.327148221               0.375878247               0.000000000              -0.349218577               0.400702598               0.000000000              -0.371288933               0.425526948               0.000000000              -0.393359288               0.450351299               0.000000000              -0.415429644               0.475175649               0.000000000              -0.437500000               0.500000000               0.000000000              -0.073890841               0.110585458               0.000000000              -0.092710163               0.134923867               0.000000000              -0.111529486               0.159262276               0.000000000              -0.130348808               0.183600685               0.000000000              -0.149168131               0.207939094               0.000000000              -0.167987453               0.232277503               0.000000000              -0.186806776               0.256615912               0.000000000              -0.205626098               0.280954320               0.000000000              -0.224445420               0.305292729               0.000000000              -0.243264743               0.329631138               0.000000000              -0.262084065               0.353969547               0.000000000              -0.280903388               0.378307956               0.000000000              -0.299722710               0.402646365               0.000000000              -0.318542033               0.426984773               0.000000000              -0.337361355               0.451323182               0.000000000              -0.356180678               0.475661591               0.000000000              -0.375000000               0.500000000               0.000000000              -0.062695766               0.117295528               0.000000000              -0.078308531               0.141214558               0.000000000              -0.093921295               0.165133587               0.000000000              -0.109534060               0.189052617               0.000000000              -0.125146824               0.212971646               0.000000000              -0.140759589               0.236890676               0.000000000              -0.156372354               0.260809705               0.000000000              -0.171985118               0.284728735               0.000000000              -0.187597883               0.308647764               0.000000000              -0.203210648               0.332566794               0.000000000              -0.218823412               0.356485823               0.000000000              -0.234436177               0.380404853               0.000000000              -0.250048941               0.404323882               0.000000000              -0.265661706               0.428242912               0.000000000              -0.281274471               0.452161941               0.000000000              -0.296887235               0.476080971               0.000000000              -0.312500000               0.500000000               0.000000000              -0.050896897               0.122875978               0.000000000              -0.063340840               0.146446229               0.000000000              -0.075784784               0.170016481               0.000000000              -0.088228728               0.193586732               0.000000000              -0.100672672               0.217156983               0.000000000              -0.113116616               0.240727235               0.000000000              -0.125560560               0.264297486               0.000000000              -0.138004504               0.287867738               0.000000000              -0.150448448               0.311437989               0.000000000              -0.162892392               0.335008240               0.000000000              -0.175336336               0.358578492               0.000000000              -0.187780280               0.382148743               0.000000000              -0.200224224               0.405718994               0.000000000              -0.212668168               0.429289246               0.000000000              -0.225112112               0.452859497               0.000000000              -0.237556056               0.476429749               0.000000000              -0.250000000               0.500000000               0.000000000              -0.038607862               0.127273065               0.000000000              -0.047913621               0.150568498               0.000000000              -0.057219379               0.173863932               0.000000000              -0.066525138               0.197159365               0.000000000              -0.075830897               0.220454798               0.000000000              -0.085136655               0.243750232               0.000000000              -0.094442414               0.267045665               0.000000000              -0.103748172               0.290341099               0.000000000              -0.113053931               0.313636532               0.000000000              -0.122359690               0.336931966               0.000000000              -0.131665448               0.360227399               0.000000000              -0.140971207               0.383522833               0.000000000              -0.150276966               0.406818266               0.000000000              -0.159582724               0.430113700               0.000000000              -0.168888483               0.453409133               0.000000000              -0.178194241               0.476704567               0.000000000              -0.187500000               0.500000000               0.000000000              -0.025947013               0.130444442               0.000000000              -0.032137825               0.153541665               0.000000000              -0.038328636               0.176638887               0.000000000              -0.044519448               0.199736109               0.000000000              -0.050710260               0.222833332               0.000000000              -0.056901071               0.245930554               0.000000000              -0.063091883               0.269027776               0.000000000              -0.069282695               0.292124999               0.000000000              -0.075473506               0.315222221               0.000000000              -0.081664318               0.338319444               0.000000000              -0.087855130               0.361416666               0.000000000              -0.094045942               0.384513888               0.000000000              -0.100236753               0.407611111               0.000000000              -0.106427565               0.430708333               0.000000000              -0.112618377               0.453805555               0.000000000              -0.118809188               0.476902778               0.000000000              -0.125000000               0.500000000               0.000000000              -0.013036280               0.132359569               0.000000000              -0.016127762               0.155337096               0.000000000              -0.019219245               0.178314623               0.000000000              -0.022310727               0.201292150               0.000000000              -0.025402210               0.224269676               0.000000000              -0.028493692               0.247247203               0.000000000              -0.031585175               0.270224730               0.000000000              -0.034676657               0.293202257               0.000000000              -0.037768140               0.316179784               0.000000000              -0.040859622               0.339157311               0.000000000              -0.043951105               0.362134838               0.000000000              -0.047042587               0.385112365               0.000000000              -0.050134070               0.408089892               0.000000000              -0.053225552               0.431067419               0.000000000              -0.056317035               0.454044946               0.000000000              -0.059408517               0.477022473               0.000000000              -0.062500000               0.500000000               0.000000000               0.000000000               0.133000000               0.000000000               0.000000000               0.155937500               0.000000000               0.000000000               0.178875000               0.000000000               0.000000000               0.201812500               0.000000000               0.000000000               0.224750000               0.000000000               0.000000000               0.247687500               0.000000000               0.000000000               0.270625000               0.000000000               0.000000000               0.293562500               0.000000000               0.000000000               0.316500000               0.000000000               0.000000000               0.339437500               0.000000000               0.000000000               0.362375000               0.000000000               0.000000000               0.385312500               0.000000000               0.000000000               0.408250000               0.000000000               0.000000000               0.431187500               0.000000000               0.000000000               0.454125000               0.000000000               0.000000000               0.477062500               0.000000000               0.000000000               0.500000000               0.000000000 </DataArray>
</Points>
<Cells>
<DataArray type="Int32"                                    Name="connectivity"                                                      NumberOfComponents=" 1" format="ascii">
         0          1         18         17          1          2         19         18          2          3         20         19          3          4         21         20          4          5         22         21          5          6         23         22          6          7         24         23          7          8         25         24          8          9         26         25          9         10         27         26         10         11         28         27         11         12         29         28         12         13         30         29         13         14         31         30         14         15         32         31         15         16         33         32         17         18         35         34         18         19         36         35         19         20         37         36         20         21         38         37         21         22         39         38         22         23         40         39         23         24         41         40         24         25         42         41         25         26         43         42         26         27         44         43         27         28         45         44         28         29         46         45         29         30         47         46         30         31         48         47         31         32         49         48         32         33         50         49         34         35         52         51         35         36         53         52         36         37         54         53         37         38         55         54         38         39         56         55         39         40         57         56         40         41         58         57         41         42         59         58         42         43         60         59         43         44         61         60         44         45         62         61         45         46         63         62         46         47         64         63         47         48         65         64         48         49         66         65         49         50         67         66         51         52         69         68         52         53         70         69         53         54         71         70         54         55         72         71         55         56         73         72         56         57         74         73         57         58         75         74         58         59         76         75         59         60         77         76         60         61         78         77         61         62         79         78         62         63         80         79         63         64         81         80         64         65         82         81         65         66         83         82         66         67         84         83         68         69         86         85         69         70         87         86         70         71         88         87         71         72         89         88         72         73         90         89         73         74         91         90         74         75         92         91         75         76         93         92         76         77         94         93         77         78         95         94         78         79         96         95         79         80         97         96         80         81         98         97         81         82         99         98         82         83        100         99         83         84        101        100         85         86        103        102         86         87        104        103         87         88        105        104         88         89        106        105         89         90        107        106         90         91        108        107         91         92        109        108         92         93        110        109         93         94        111        110         94         95        112        111         95         96        113        112         96         97        114        113         97         98        115        114         98         99        116        115         99        100        117        116        100        101        118        117        102        103        120        119        103        104        121        120        104        105        122        121        105        106        123        122        106        107        124        123        107        108        125        124        108        109        126        125        109        110        127        126        110        111        128        127        111        112        129        128        112        113        130        129        113        114        131        130        114        115        132        131        115        116        133        132        116        117        134        133        117        118        135        134        119        120        137        136        120        121        138        137        121        122        139        138        122        123        140        139        123        124        141        140        124        125        142        141        125        126        143        142        126        127        144        143        127        128        145        144        128        129        146        145        129        130        147        146        130        131        148        147        131        132        149        148        132        133        150        149        133        134        151        150        134        135        152        151        136        137        154        153        137        138        155        154        138        139        156        155        139        140        157        156        140        141        158        157        141        142        159        158        142        143        160        159        143        144        161        160        144        145        162        161        145        146        163        162        146        147        164        163        147        148        165        164        148        149        166        165        149        150        167        166        150        151        168        167        151        152        169        168        153        154        171        170        154        155        172        171        155        156        173        172        156        157        174        173        157        158        175        174        158        159        176        175        159        160        177        176        160        161        178        177        161        162        179        178        162        163        180        179        163        164        181        180        164        165        182        181        165        166        183        182        166        167        184        183        167        168        185        184        168        169        186        185        170        171        188        187        171        172        189        188        172        173        190        189        173        174        191        190        174        175        192        191        175        176        193        192        176        177        194        193        177        178        195        194        178        179        196        195        179        180        197        196        180        181        198        197        181        182        199        198        182        183        200        199        183        184        201        200        184        185        202        201        185        186        203        202        187        188        205        204        188        189        206        205        189        190        207        206        190        191        208        207        191        192        209        208        192        193        210        209        193        194        211        210        194        195        212        211        195        196        213        212        196        197        214        213        197        198        215        214        198        199        216        215        199        200        217        216        200        201        218        217        201        202        219        218        202        203        220        219        204        205        222        221        205        206        223        222        206        207        224        223        207        208        225        224        208        209        226        225        209        210        227        226        210        211        228        227        211        212        229        228        212        213        230        229        213        214        231        230        214        215        232        231        215        216        233        232        216        217        234        233        217        218        235        234        218        219        236        235        219        220        237        236        221        222        239        238        222        223        240        239        223        224        241        240        224        225        242        241        225        226        243        242        226        227        244        243        227        228        245        244        228        229        246        245        229        230        247        246        230        231        248        247        231        232        249        248        232        233        250        249        233        234        251        250        234        235        252        251        235        236        253        252        236        237        254        253        238        239        256        255        239        240        257        256        240        241        258        257        241        242        259        258        242        243        260        259        243        244        261        260        244        245        262        261        245        246        263        262        246        247        264        263        247        248        265        264        248        249        266        265        249        250        267        266        250        251        268        267        251        252        269        268        252        253        270        269        253        254        271        270        255        256        273        272        256        257        274        273        257        258        275        274        258        259        276        275        259        260        277        276        260        261        278        277        261        262        279        278        262        263        280        279        263        264        281        280        264        265        282        281        265        266        283        282        266        267        284        283        267        268        285        284        268        269        286        285        269        270        287        286        270        271        288        287        306        307          1          0        307        308          2          1        308        309          3          2        309        310          4          3        310        311          5          4        311        312          6          5        312        313          7          6        313        314          8          7        314        315          9          8        315        316         10          9        316        317         11         10        317        318         12         11        318        319         13         12        319        320         14         13        320        321         15         14        321        322         16         15        323        324        307        306        324        325        308        307        325        326        309        308        326        327        310        309        327        328        311        310        328        329        312        311        329        330        313        312        330        331        314        313        331        332        315        314        332        333        316        315        333        334        317        316        334        335        318        317        335        336        319        318        336        337        320        319        337        338        321        320        338        339        322        321        340        341        324        323        341        342        325        324        342        343        326        325        343        344        327        326        344        345        328        327        345        346        329        328        346        347        330        329        347        348        331        330        348        349        332        331        349        350        333        332        350        351        334        333        351        352        335        334        352        353        336        335        353        354        337        336        354        355        338        337        355        356        339        338        357        358        341        340        358        359        342        341        359        360        343        342        360        361        344        343        361        362        345        344        362        363        346        345        363        364        347        346        364        365        348        347        365        366        349        348        366        367        350        349        367        368        351        350        368        369        352        351        369        370        353        352        370        371        354        353        371        372        355        354        372        373        356        355        374        375        358        357        375        376        359        358        376        377        360        359        377        378        361        360        378        379        362        361        379        380        363        362        380        381        364        363        381        382        365        364        382        383        366        365        383        384        367        366        384        385        368        367        385        386        369        368        386        387        370        369        387        388        371        370        388        389        372        371        389        390        373        372        391        392        375        374        392        393        376        375        393        394        377        376        394        395        378        377        395        396        379        378        396        397        380        379        397        398        381        380        398        399        382        381        399        400        383        382        400        401        384        383        401        402        385        384        402        403        386        385        403        404        387        386        404        405        388        387        405        406        389        388        406        407        390        389        408        409        392        391        409        410        393        392        410        411        394        393        411        412        395        394        412        413        396        395        413        414        397        396        414        415        398        397        415        416        399        398        416        417        400        399        417        418        401        400        418        419        402        401        419        420        403        402        420        421        404        403        421        422        405        404        422        423        406        405        423        424        407        406        425        426        409        408        426        427        410        409        427        428        411        410        428        429        412        411        429        430        413        412        430        431        414        413        431        432        415        414        432        433        416        415        433        434        417        416        434        435        418        417        435        436        419        418        436        437        420        419        437        438        421        420        438        439        422        421        439        440        423        422        440        441        424        423        442        443        426        425        443        444        427        426        444        445        428        427        445        446        429        428        446        447        430        429        447        448        431        430        448        449        432        431        449        450        433        432        450        451        434        433        451        452        435        434        452        453        436        435        453        454        437        436        454        455        438        437        455        456        439        438        456        457        440        439        457        458        441        440        459        460        443        442        460        461        444        443        461        462        445        444        462        463        446        445        463        464        447        446        464        465        448        447        465        466        449        448        466        467        450        449        467        468        451        450        468        469        452        451        469        470        453        452        470        471        454        453        471        472        455        454        472        473        456        455        473        474        457        456        474        475        458        457        476        477        460        459        477        478        461        460        478        479        462        461        479        480        463        462        480        481        464        463        481        482        465        464        482        483        466        465        483        484        467        466        484        485        468        467        485        486        469        468        486        487        470        469        487        488        471        470        488        489        472        471        489        490        473        472        490        491        474        473        491        492        475        474        493        494        477        476        494        495        478        477        495        496        479        478        496        497        480        479        497        498        481        480        498        499        482        481        499        500        483        482        500        501        484        483        501        502        485        484        502        503        486        485        503        504        487        486        504        505        488        487        505        506        489        488        506        507        490        489        507        508        491        490        508        509        492        491        510        511        494        493        511        512        495        494        512        513        496        495        513        514        497        496        514        515        498        497        515        516        499        498        516        517        500        499        517        518        501        500        518        519        502        501        519        520        503        502        520        521        504        503        521        522        505        504        522        523        506        505        523        524        507        506        524        525        508        507        525        526        509        508        527        528        511        510        528        529        512        511        529        530        513        512        530        531        514        513        531        532        515        514        532        533        516        515        533        534        517        516        534        535        518        517        535        536        519        518        536        537        520        519        537        538        521        520        538        539        522        521        539        540        523        522        540        541        524        523        541        542        525        524        542        543        526        525        544        545        528        527        545        546        529        528        546        547        530        529        547        548        531        530        548        549        532        531        549        550        533        532        550        551        534        533        551        552        535        534        552        553        536        535        553        554        537        536        554        555        538        537        555        556        539        538        556        557        540        539        557        558        541        540        558        559        542        541        559        560        543        542        561        562        545        544        562        563        546        545        563        564        547        546        564        565        548        547        565        566        549        548        566        567        550        549        567        568        551        550        568        569        552        551        569        570        553        552        570        571        554        553        571        572        555        554        572        573        556        555        573        574        557        556        574        575        558        557        575        576        559        558        576        577        560        559        578        579        596        595        579        580        597        596        580        581        598        597        581        582        599        598        582        583        600        599        583        584        601        600        584        585        602        601        585        586        603        602        586        587        604        603        587        588        605        604        588        589        606        605        589        590        607        606        590        591        608        607        591        592        609        608        592        593        610        609        593        594        611        610        595        596        613        612        596        597        614        613        597        598        615        614        598        599        616        615        599        600        617        616        600        601        618        617        601        602        619        618        602        603        620        619        603        604        621        620        604        605        622        621        605        606        623        622        606        607        624        623        607        608        625        624        608        609        626        625        609        610        627        626        610        611        628        627        612        613        630        629        613        614        631        630        614        615        632        631        615        616        633        632        616        617        634        633        617        618        635        634        618        619        636        635        619        620        637        636        620        621        638        637        621        622        639        638        622        623        640        639        623        624        641        640        624        625        642        641        625        626        643        642        626        627        644        643        627        628        645        644        629        630        647        646        630        631        648        647        631        632        649        648        632        633        650        649        633        634        651        650        634        635        652        651        635        636        653        652        636        637        654        653        637        638        655        654        638        639        656        655        639        640        657        656        640        641        658        657        641        642        659        658        642        643        660        659        643        644        661        660        644        645        662        661        646        647        664        663        647        648        665        664        648        649        666        665        649        650        667        666        650        651        668        667        651        652        669        668        652        653        670        669        653        654        671        670        654        655        672        671        655        656        673        672        656        657        674        673        657        658        675        674        658        659        676        675        659        660        677        676        660        661        678        677        661        662        679        678        663        664        681        680        664        665        682        681        665        666        683        682        666        667        684        683        667        668        685        684        668        669        686        685        669        670        687        686        670        671        688        687        671        672        689        688        672        673        690        689        673        674        691        690        674        675        692        691        675        676        693        692        676        677        694        693        677        678        695        694        678        679        696        695        680        681        698        697        681        682        699        698        682        683        700        699        683        684        701        700        684        685        702        701        685        686        703        702        686        687        704        703        687        688        705        704        688        689        706        705        689        690        707        706        690        691        708        707        691        692        709        708        692        693        710        709        693        694        711        710        694        695        712        711        695        696        713        712        697        698        715        714        698        699        716        715        699        700        717        716        700        701        718        717        701        702        719        718        702        703        720        719        703        704        721        720        704        705        722        721        705        706        723        722        706        707        724        723        707        708        725        724        708        709        726        725        709        710        727        726        710        711        728        727        711        712        729        728        712        713        730        729        714        715        732        731        715        716        733        732        716        717        734        733        717        718        735        734        718        719        736        735        719        720        737        736        720        721        738        737        721        722        739        738        722        723        740        739        723        724        741        740        724        725        742        741        725        726        743        742        726        727        744        743        727        728        745        744        728        729        746        745        729        730        747        746        731        732        749        748        732        733        750        749        733        734        751        750        734        735        752        751        735        736        753        752        736        737        754        753        737        738        755        754        738        739        756        755        739        740        757        756        740        741        758        757        741        742        759        758        742        743        760        759        743        744        761        760        744        745        762        761        745        746        763        762        746        747        764        763        748        749        766        765        749        750        767        766        750        751        768        767        751        752        769        768        752        753        770        769        753        754        771        770        754        755        772        771        755        756        773        772        756        757        774        773        757        758        775        774        758        759        776        775        759        760        777        776        760        761        778        777        761        762        779        778        762        763        780        779        763        764        781        780        765        766        783        782        766        767        784        783        767        768        785        784        768        769        786        785        769        770        787        786        770        771        788        787        771        772        789        788        772        773        790        789        773        774        791        790        774        775        792        791        775        776        793        792        776        777        794        793        777        778        795        794        778        779        796        795        779        780        797        796        780        781        798        797        782        783        800        799        783        784        801        800        784        785        802        801        785        786        803        802        786        787        804        803        787        788        805        804        788        789        806        805        789        790        807        806        790        791        808        807        791        792        809        808        792        793        810        809        793        794        811        810        794        795        812        811        795        796        813        812        796        797        814        813        797        798        815        814        799        800        817        816        800        801        818        817        801        802        819        818        802        803        820        819        803        804        821        820        804        805        822        821        805        806        823        822        806        807        824        823        807        808        825        824        808        809        826        825        809        810        827        826        810        811        828        827        811        812        829        828        812        813        830        829        813        814        831        830        814        815        832        831        816        817        834        833        817        818        835        834        818        819        836        835        819        820        837        836        820        821        838        837        821        822        839        838        822        823        840        839        823        824        841        840        824        825        842        841        825        826        843        842        826        827        844        843        827        828        845        844        828        829        846        845        829        830        847        846        830        831        848        847        831        832        849        848        833        834        562        561        834        835        563        562        835        836        564        563        836        837        565        564        837        838        566        565        838        839        567        566        839        840        568        567        840        841        569        568        841        842        570        569        842        843        571        570        843        844        572        571        844        845        573        572        845        846        574        573        846        847        575        574        847        848        576        575        848        849        577        576        884        885        579        578        885        886        580        579        886        887        581        580        887        888        582        581        888        889        583        582        889        890        584        583        890        891        585        584        891        892        586        585        892        893        587        586        893        894        588        587        894        895        589        588        895        896        590        589        896        897        591        590        897        898        592        591        898        899        593        592        899        900        594        593        901        902        885        884        902        903        886        885        903        904        887        886        904        905        888        887        905        906        889        888        906        907        890        889        907        908        891        890        908        909        892        891        909        910        893        892        910        911        894        893        911        912        895        894        912        913        896        895        913        914        897        896        914        915        898        897        915        916        899        898        916        917        900        899        918        919        902        901        919        920        903        902        920        921        904        903        921        922        905        904        922        923        906        905        923        924        907        906        924        925        908        907        925        926        909        908        926        927        910        909        927        928        911        910        928        929        912        911        929        930        913        912        930        931        914        913        931        932        915        914        932        933        916        915        933        934        917        916        935        936        919        918        936        937        920        919        937        938        921        920        938        939        922        921        939        940        923        922        940        941        924        923        941        942        925        924        942        943        926        925        943        944        927        926        944        945        928        927        945        946        929        928        946        947        930        929        947        948        931        930        948        949        932        931        949        950        933        932        950        951        934        933        952        953        936        935        953        954        937        936        954        955        938        937        955        956        939        938        956        957        940        939        957        958        941        940        958        959        942        941        959        960        943        942        960        961        944        943        961        962        945        944        962        963        946        945        963        964        947        946        964        965        948        947        965        966        949        948        966        967        950        949        967        968        951        950        969        970        953        952        970        971        954        953        971        972        955        954        972        973        956        955        973        974        957        956        974        975        958        957        975        976        959        958        976        977        960        959        977        978        961        960        978        979        962        961        979        980        963        962        980        981        964        963        981        982        965        964        982        983        966        965        983        984        967        966        984        985        968        967        986        987        970        969        987        988        971        970        988        989        972        971        989        990        973        972        990        991        974        973        991        992        975        974        992        993        976        975        993        994        977        976        994        995        978        977        995        996        979        978        996        997        980        979        997        998        981        980        998        999        982        981        999       1000        983        982       1000       1001        984        983       1001       1002        985        984       1003       1004        987        986       1004       1005        988        987       1005       1006        989        988       1006       1007        990        989       1007       1008        991        990       1008       1009        992        991       1009       1010        993        992       1010       1011        994        993       1011       1012        995        994       1012       1013        996        995       1013       1014        997        996       1014       1015        998        997       1015       1016        999        998       1016       1017       1000        999       1017       1018       1001       1000       1018       1019       1002       1001       1020       1021       1004       1003       1021       1022       1005       1004       1022       1023       1006       1005       1023       1024       1007       1006       1024       1025       1008       1007       1025       1026       1009       1008       1026       1027       1010       1009       1027       1028       1011       1010       1028       1029       1012       1011       1029       1030       1013       1012       1030       1031       1014       1013       1031       1032       1015       1014       1032       1033       1016       1015       1033       1034       1017       1016       1034       1035       1018       1017       1035       1036       1019       1018       1037       1038       1021       1020       1038       1039       1022       1021       1039       1040       1023       1022       1040       1041       1024       1023       1041       1042       1025       1024       1042       1043       1026       1025       1043       1044       1027       1026       1044       1045       1028       1027       1045       1046       1029       1028       1046       1047       1030       1029       1047       1048       1031       1030       1048       1049       1032       1031       1049       1050       1033       1032       1050       1051       1034       1033       1051       1052       1035       1034       1052       1053       1036       1035       1054       1055       1038       1037       1055       1056       1039       1038       1056       1057       1040       1039       1057       1058       1041       1040       1058       1059       1042       1041       1059       1060       1043       1042       1060       1061       1044       1043       1061       1062       1045       1044       1062       1063       1046       1045       1063       1064       1047       1046       1064       1065       1048       1047       1065       1066       1049       1048       1066       1067       1050       1049       1067       1068       1051       1050       1068       1069       1052       1051       1069       1070       1053       1052       1071       1072       1055       1054       1072       1073       1056       1055       1073       1074       1057       1056       1074       1075       1058       1057       1075       1076       1059       1058       1076       1077       1060       1059       1077       1078       1061       1060       1078       1079       1062       1061       1079       1080       1063       1062       1080       1081       1064       1063       1081       1082       1065       1064       1082       1083       1066       1065       1083       1084       1067       1066       1084       1085       1068       1067       1085       1086       1069       1068       1086       1087       1070       1069       1088       1089       1072       1071       1089       1090       1073       1072       1090       1091       1074       1073       1091       1092       1075       1074       1092       1093       1076       1075       1093       1094       1077       1076       1094       1095       1078       1077       1095       1096       1079       1078       1096       1097       1080       1079       1097       1098       1081       1080       1098       1099       1082       1081       1099       1100       1083       1082       1100       1101       1084       1083       1101       1102       1085       1084       1102       1103       1086       1085       1103       1104       1087       1086       1105       1106       1089       1088       1106       1107       1090       1089       1107       1108       1091       1090       1108       1109       1092       1091       1109       1110       1093       1092       1110       1111       1094       1093       1111       1112       1095       1094       1112       1113       1096       1095       1113       1114       1097       1096       1114       1115       1098       1097       1115       1116       1099       1098       1116       1117       1100       1099       1117       1118       1101       1100       1118       1119       1102       1101       1119       1120       1103       1102       1120       1121       1104       1103       1122       1123       1106       1105       1123       1124       1107       1106       1124       1125       1108       1107       1125       1126       1109       1108       1126       1127       1110       1109       1127       1128       1111       1110       1128       1129       1112       1111       1129       1130       1113       1112       1130       1131       1114       1113       1131       1132       1115       1114       1132       1133       1116       1115       1133       1134       1117       1116       1134       1135       1118       1117       1135       1136       1119       1118       1136       1137       1120       1119       1137       1138       1121       1120        272        273       1123       1122        273        274       1124       1123        274        275       1125       1124        275        276       1126       1125        276        277       1127       1126        277        278       1128       1127        278        279       1129       1128        279        280       1130       1129        280        281       1131       1130        281        282       1132       1131        282        283       1133       1132        283        284       1134       1133        284        285       1135       1134        285        286       1136       1135        286        287       1137       1136        287        288       1138       1137 </DataArray>
<DataArray type="Int32"                                    Name="offsets"                                                      NumberOfComponents=" 1" format="ascii">
         4          8         12         16         20         24         28         32         36         40         44         48         52         56         60         64         68         72         76         80         84         88         92         96        100        104        108        112        116        120        124        128        132        136        140        144        148        152        156        160        164        168        172        176        180        184        188        192        196        200        204        208        212        216        220        224        228        232        236        240        244        248        252        256        260        264        268        272        276        280        284        288        292        296        300        304        308        312        316        320        324        328        332        336        340        344        348        352        356        360        364        368        372        376        380        384        388        392        396        400        404        408        412        416        420        424        428        432        436        440        444        448        452        456        460        464        468        472        476        480        484        488        492        496        500        504        508        512        516        520        524        528        532        536        540        544        548        552        556        560        564        568        572        576        580        584        588        592        596        600        604        608        612        616        620        624        628        632        636        640        644        648        652        656        660        664        668        672        676        680        684        688        692        696        700        704        708        712        716        720        724        728        732        736        740        744        748        752        756        760        764        768        772        776        780        784        788        792        796        800        804        808        812        816        820        824        828        832        836        840        844        848        852        856        860        864        868        872        876        880        884        888        892        896        900        904        908        912        916        920        924        928        932        936        940        944        948        952        956        960        964        968        972        976        980        984        988        992        996       1000       1004       1008       1012       1016       1020       1024       1028       1032       1036       1040       1044       1048       1052       1056       1060       1064       1068       1072       1076       1080       1084       1088       1092       1096       1100       1104       1108       1112       1116       1120       1124       1128       1132       1136       1140       1144       1148       1152       1156       1160       1164       1168       1172       1176       1180       1184       1188       1192       1196       1200       1204       1208       1212       1216       1220       1224       1228       1232       1236       1240       1244       1248       1252       1256       1260       1264       1268       1272       1276       1280       1284       1288       1292       1296       1300       1304       1308       1312       1316       1320       1324       1328       1332       1336       1340       1344       1348       1352       1356       1360       1364       1368       1372       1376       1380       1384       1388       1392       1396       1400       1404       1408       1412       1416       1420       1424       1428       1432       1436       1440       1444       1448       1452       1456       1460       1464       1468       1472       1476       1480       1484       1488       1492       1496       1500       1504       1508       1512       1516       1520       1524       1528       1532       1536       1540       1544       1548       1552       1556       1560       1564       1568       1572       1576       1580       1584       1588       1592       1596       1600       1604       1608       1612       1616       1620       1624       1628       1632       1636       1640       1644       1648       1652       1656       1660       1664       1668       1672       1676       1680       1684       1688       1692       1696       1700       1704       1708       1712       1716       1720       1724       1728       1732       1736       1740       1744       1748       1752       1756       1760       1764       1768       1772       1776       1780       1784       1788       1792       1796       1800       1804       1808       1812       1816       1820       1824       1828       1832       1836       1840       1844       1848       1852       1856       1860       1864       1868       1872       1876       1880       1884       1888       1892       1896       1900       1904       1908       1912       1916       1920       1924       1928       1932       1936       1940       1944       1948       1952       1956       1960       1964       1968       1972       1976       1980       1984       1988       1992       1996       2000       2004       2008       2012       2016       2020       2024       2028       2032       2036       2040       2044       2048       2052       2056       2060       2064       2068       2072       2076       2080       2084       2088       2092       2096       2100       2104       2108       2112       2116       2120       2124       2128       2132       2136       2140       2144       2148       2152       2156       2160       2164       2168       2172       2176       2180       2184       2188       2192       2196       2200       2204       2208       2212       2216       2220       2224       2228       2232       2236       2240       2244       2248       2252       2256       2260       2264       2268       2272       2276       2280       2284       2288       2292       2296       2300       2304       2308       2312       2316       2320       2324       2328       2332       2336       2340       2344       2348       2352       2356       2360       2364       2368       2372       2376       2380       2384       2388       2392       2396       2400       2404       2408       2412       2416       2420       2424       2428       2432       2436       2440       2444       2448       2452       2456       2460       2464       2468       2472       2476       2480       2484       2488       2492       2496       2500       2504       2508       2512       2516       2520       2524       2528       2532       2536       2540       2544       2548       2552       2556       2560       2564       2568       2572       2576       2580       2584       2588       2592       2596       2600       2604       2608       2612       2616       2620       2624       2628       2632       2636       2640       2644       2648       2652       2656       2660       2664       2668       2672       2676       2680       2684       2688       2692       2696       2700       2704       2708       2712       2716       2720       2724       2728       2732       2736       2740       2744       2748       2752       2756       2760       2764       2768       2772       2776       2780       2784       2788       2792       2796       2800       2804       2808       2812       2816       2820       2824       2828       2832       2836       2840       2844       2848       2852       2856       2860       2864       2868       2872       2876       2880       2884       2888       2892       2896       2900       2904       2908       2912       2916       2920       2924       2928       2932       2936       2940       2944       2948       2952       2956       2960       2964       2968       2972       2976       2980       2984       2988       2992       2996       3000       3004       3008       3012       3016       3020       3024       3028       3032       3036       3040       3044       3048       3052       3056       3060       3064       3068       3072       3076       3080       3084       3088       3092       3096       3100       3104       3108       3112       3116       3120       3124       3128       3132       3136       3140       3144       3148       3152       3156       3160       3164       3168       3172       3176       3180       3184       3188       3192       3196       3200       3204       3208       3212       3216       3220       3224       3228       3232       3236       3240       3244       3248       3252       3256       3260       3264       3268       3272       3276       3280       3284       3288       3292       3296       3300       3304       3308       3312       3316       3320       3324       3328       3332       3336       3340       3344       3348       3352       3356       3360       3364       3368       3372       3376       3380       3384       3388       3392       3396       3400       3404       3408       3412       3416       3420       3424       3428       3432       3436       3440       3444       3448       3452       3456       3460       3464       3468       3472       3476       3480       3484       3488       3492       3496       3500       3504       3508       3512       3516       3520       3524       3528       3532       3536       3540       3544       3548       3552       3556       3560       3564       3568       3572       3576       3580       3584       3588       3592       3596       3600       3604       3608       3612       3616       3620       3624       3628       3632       3636       3640       3644       3648       3652       3656       3660       3664       3668       3672       3676       3680       3684       3688       3692       3696       3700       3704       3708       3712       3716       3720       3724       3728       3732       3736       3740       3744       3748       3752       3756       3760       3764       3768       3772       3776       3780       3784       3788       3792       3796       3800       3804       3808       3812       3816       3820       3824       3828       3832       3836       3840       3844       3848       3852       3856       3860       3864       3868       3872       3876       3880       3884       3888       3892       3896       3900       3904       3908       3912       3916       3920       3924       3928       3932       3936       3940       3944       3948       3952       3956       3960       3964       3968       3972       3976       3980       3984       3988       3992       3996       4000       4004       4008       4012       4016       4020       4024       4028       4032       4036       4040       4044       4048       4052       4056       4060       4064       4068       4072       4076       4080       4084       4088       4092       4096 </DataArray>
<DataArray type="UInt8"                                    Name="types"                                                      NumberOfComponents=" 1" format="ascii">
         9          9          9          9          9          9          9          9          9          9          9          9          9          9          9          9          9          9          9          9          9          9          9          9          9          9          9          9          9          9          9          9          9          9          9          9          9          9          9          9          9          9          9          9          9          9          9          9          9          9          9          9          9          9          9          9          9          9          9          9          9          9          9          9          9          9          9          9          9          9          9          9          9          9          9          9          9          9          9          9          9          9          9          9          9          9          9          9          9          9          9          9          9          9          9          9          9          9          9          9          9          9          9          9          9          9          9          9          9          9          9          9          9          9          9          9          9          9          9          9          9          9          9          9          9          9          9          9          9          9          9          9          9          9          9          9          9          9          9          9          9          9          9          9          9          9          9          9          9          9          9          9          9          9          9          9          9          9          9          9          9          9          9          9          9          9          9          9          9          9          9          9          9          9          9          9          9          9          9          9          9          9          9          9          9          9          9          9          9          9          9          9          9          9          9          9          9          9          9          9          9          9          9          9          9          9          9          9          9          9          9          9          9          9          9          9          9          9          9          9          9          9          9          9          9          9          9          9          9          9          9          9          9          9          9          9          9          9          9          9          9          9          9          9          9          9          9          9          9          9          9          9          9          9          9          9          9          9          9          9          9          9          9          9          9          9          9          9          9          9          9          9          9          9          9          9          9          9          9          9          9          9          9          9          9          9          9          9          9          9          9          9          9          9          9          9          9          9          9          9          9          9          9          9          9          9          9          9          9          9          9          9          9          9          9          9          9          9          9          9          9          9          9          9          9          9          9          9          9          9          9          9          9          9          9          9          9          9          9          9          9          9          9          9          9          9          9          9          9          9          9          9          9          9          9          9          9          9          9          9          9          9          9          9          9          9          9          9          9          9          9          9          9          9          9          9          9          9          9          9          9          9          9          9          9          9          9          9          9          9          9          9          9          9          9          9          9          9          9          9          9          9          9          9          9          9          9          9          9          9          9          9          9          9          9          9          9          9          9          9          9          9          9          9          9          9          9          9          9          9          9          9          9          9          9          9          9          9          9          9          9          9          9          9          9          9          9          9          9          9          9          9          9          9          9          9          9          9          9          9          9          9          9          9          9          9          9          9          9          9          9          9          9          9          9          9          9          9          9          9          9          9          9          9          9          9          9          9          9          9          9          9          9          9          9          9          9          9          9          9          9          9          9          9          9          9          9          9          9          9          9          9          9          9          9          9          9          9          9          9          9          9          9          9          9          9          9          9          9          9          9          9          9          9          9          9          9          9          9          9          9          9          9          9          9          9          9          9          9          9          9          9          9          9          9          9          9          9          9          9          9          9          9          9          9          9          9          9          9          9          9          9          9          9          9          9          9          9          9          9          9          9          9          9          9          9          9          9          9          9          9          9          9          9          9          9          9          9          9          9          9          9          9          9          9          9          9          9          9          9          9          9          9          9          9          9          9          9          9          9          9          9          9          9          9          9          9          9          9          9          9          9          9          9          9          9          9          9          9          9          9          9          9          9          9          9          9          9          9          9          9          9          9          9          9          9          9          9          9          9          9          9          9          9          9          9          9          9          9          9          9          9          9          9          9          9          9          9          9          9          9          9          9          9          9          9          9          9          9          9          9          9          9          9          9          9          9          9          9          9          9          9          9          9          9          9          9          9          9          9          9          9          9          9          9          9          9          9          9          9          9          9          9          9          9          9          9          9          9          9          9          9          9          9          9          9          9          9          9          9          9          9          9          9          9          9          9          9          9          9          9          9          9          9          9          9          9          9          9          9          9          9          9          9          9          9          9          9          9          9          9          9          9          9          9          9          9          9          9          9          9          9          9          9          9          9          9          9          9          9          9          9          9          9          9          9          9          9          9          9          9          9          9          9          9          9          9          9          9          9          9          9          9          9          9          9          9          9          9          9          9          9          9          9          9          9          9          9          9          9          9          9          9          9          9          9          9          9          9          9          9          9          9          9          9          9          9          9          9          9          9          9          9          9          9          9          9          9          9          9          9          9          9          9          9          9          9          9          9          9          9          9          9          9          9          9          9          9          9          9          9          9          9          9          9          9          9          9          9          9          9          9          9          9          9          9          9          9          9          9          9          9          9          9          9          9          9          9          9          9          9          9          9          9          9          9          9          9          9          9          9          9          9          9          9          9          9          9          9          9          9          9          9          9          9          9          9          9          9          9          9          9          9          9          9          9          9          9          9          9          9          9          9          9          9          9          9          9          9          9          9          9          9          9          9          9          9          9          9          9          9          9          9          9          9          9          9          9          9          9          9          9          9          9          9          9          9          9          9          9          9          9          9          9          9          9          9          9          9          9          9          9          9          9          9          9          9          9          9          9          9          9          9          9          9          9          9          9          9          9          9          9          9          9 </DataArray>
</Cells>
<CellData>
<DataArray type="Int32"                                    Name="material"                                                      NumberOfComponents=" 1" format="ascii">
         1          1          1          1          1          1          1          1          1          1          1          1          1          1          1          1          1          1          1          1          1          1          1          1          1          1          1          1          1          1          1          1          1          1          1          1          1          1          1          1          1          1          1          1          1          1          1          1          1          1          1          1          1          1          1          1          1          1          1          1          1          1          1          1          1          1          1          1          1          1          1          1          1          1          1          1          1          1          1          1          1          1          1          1          1          1          1          1          1          1          1          1          1          1          1          1          1          1          1          1          1          1          1          1          1          1          1          1          1          1          1          1          1          1          1          1          1          1          1          1          1          1          1          1          1          1          1          1          1          1          1          1          1          1          1          1          1          1          1          1          1          1          1          1          1          1          1          1          1          1          1          1          1          1          1          1          1          1          1          1          1          1          1          1          1          1          1          1          1          1          1          1          1          1          1          1          1          1          1          1          1          1          1          1          1          1          1          1          1          1          1          1          1          1          1          1          1          1          1          1          1          1          1          1          1          1          1          1          1          1          1          1          1          1          1          1          1          1          1          1          1          1          1          1          1          1          1          1          1          1          1          1          1          1          1          1          1          1          1          1          1          1          1          1          1          1          1          1          1          1          1          1          1          1          1          1          1          1          1          1          1          1          1          1          1          1          1          1          1          1          1          1          1          1          1          1          1          1          1          1          1          1          1          1          1          1          1          1          1          1          1          1          1          1          1          1          1          1          1          1          1          1          1          1          1          1          1          1          1          1          1          1          1          1          1          1          1          1          1          1          1          1          1          1          1          1          1          1          1          1          1          1          1          1          1          1          1          1          1          1          1          1          1          1          1          1          1          1          1          1          1          1          1          1          1          1          1          1          1          1          1          1          1          1          1          1          1          1          1          1          1          1          1          1          1          1          1          1          1          1          1          1          1          1          1          1          1          1          1          1          1          1          1          1          1          1          1          1          1          1          1          1          1          1          1          1          1          1          1          1          1          1          1          1          1          1          1          1          1          1          1          1          1          1          1          1          1          1          1          1          1          1          1          1          1          1          1          1          1          1          1          1          1          1          1          1          1          1          1          1          1          1          1          1          1          1          1          1          1          1          1          1          1          1          1          1          1          1          1          1          1          1          1          1          1          1          1          1          1          1          1          1          1          1          1          1          1          1          1          1          1          1          1          1          1          1          1          1          1          1          1          1          1          1          1          1          1          1          1          1          1          1          1          1          1          1          1          1          1          1          1          1          1          1          1          1          1          1          1          1          1          1          1          1          1          1          1          1          1          1          1          1          1          1          1          1          1          1          1          1          1          1          1          1          1          1          1          1          1          1          1          1          1          1          1          1          1          1          1          1          1          1          1          1          1          1          1          1          1          1          1          1          1          1          1          1          1          1          1          1          1          1          1          1          1          1          1          1          1          1          1          1          1          1          1          1          1          1          1          1          1          1          1          1          1          1          1          1          1          1          1          1          1          1          1          1          1          1          1          1          1          1          1          1          1          1          1          1          1          1          1          1          1          1          1          1          1          1          1          1          1          1          1          1          1          1          1          1          1          1          1          1          1          1          1          1          1          1          1          1          1          1          1          1          1          1          1          1          1          1          1          1          1          1          1          1          1          1          1          1          1          1          1          1          1          1          1          1          1          1          1          1          1          1          1          1          1          1          1          1          1          1          1          1          1          1          1          1          1          1          1          1          1          1          1          1          1          1          1          1          1          1          1          1          1          1          1          1          1          1          1          1          1          1          1          1          1          1          1          1          1          1          1          1          1          1          1          1          1          1          1          1          1          1          1          1          1          1          1          1          1          1          1          1          1          1          1          1          1          1          1          1          1          1          1          1          1          1          1          1          1          1          1          1          1          1          1          1          1          1          1          1          1          1          1          1          1          1          1          1          1          1          1          1          1          1          1          1          1          1          1          1          1          1          1          1          1          1          1          1          1          1          1          1          1          1          1          1          1          1          1          1          1          1          1          1          1          1          1          1          1          1          1          1          1          1          1          1          1          1          1          1          1          1          1          1          1          1          1          1          1          1          1          1          1          1          1          1          1          1          1          1          1          1          1          1          1          1          1          1          1          1          1          1          1          1          1          1          1          1          1          1          1          1          1          1          1          1          1          1          1          1          1          1          1          1          1          1          1          1          1          1          1          1          1          1          1          1          1          1          1          1          1          1          1          1          1          1          1          1          1          1          1          1          1          1          1          1          1          1          1          1          1          1          1          1          1          1          1          1          1          1          1          1          1          1          1          1          1          1          1          1          1          1          1          1          1          1          1          1          1          1          1          1          1          1          1          1          1          1          1          1          1          1          1          1          1          1          1          1          1          1          1          1          1          1          1          1          1          1          1          1          1          1          1          1          1          1          1          1          1          1          1          1 </DataArray>
</CellData>
<PointData>
<DataArray type="Float64"                                    Name="u"                                                      NumberOfComponents=" 3" format="ascii">
              0.000007198               0.000000000               0.999999999               0.000003048              -0.000000000               0.999999999               0.000001045               0.000000000               0.999999999              -0.000000005               0.000000000               0.999999999              -0.000000530              -0.000000000               0.999999999              -0.000000732               0.000000000               0.999999999              -0.000000796               0.000000000               0.999999999              -0.000000792               0.000000000               0.999999999              -0.000000895               0.000000000               0.999999999              -0.000001241               0.000000000               0.999999999              -0.000001856               0.000000000               0.999999999              -0.000002748              -0.000000000               0.999999999              -0.000003949              -0.000000000               0.999999999              -0.000005623              -0.000000000               0.999999999              -0.000007871              -0.000000000               0.999999999              -0.000010619              -0.000000000               0.999999999              -0.000013905              -0.000000000               0.999999999               0.000007129               0.000010201               0.999999999               0.000003106               0.000009345               0.999999999               0.000001160               0.000009187               0.999999999               0.000000148               0.000009461               0.999999999              -0.000000389               0.000009880               0.999999999              -0.000000681               0.000010478               0.999999999              -0.000000822               0.000011202               0.999999999              -0.000000988               0.000012172               0.999999999              -0.000001320               0.000013423               0.999999999              -0.000001864               0.000014860               0.999999999              -0.000002675               0.000016347               0.999999999              -0.000003805               0.000017954               0.999999999              -0.000005308               0.000019859               0.999999999              -0.000007218               0.000021913               0.999999999              -0.000009592               0.000024151               0.999999999              -0.000012496               0.000026668               0.999999999              -0.000015957               0.000029458               0.999999999               0.000006899               0.000020299               0.999999999               0.000003229               0.000018541               0.999999999               0.000001493               0.000018312               0.999999999               0.000000545               0.000018882               0.999999999              -0.000000065               0.000019830               0.999999999              -0.000000527               0.000021075               0.999999999              -0.000000966               0.000022628               0.999999999              -0.000001599               0.000024703               0.999999999              -0.000002464               0.000027203               0.999999999              -0.000003628               0.000030054               0.999999999              -0.000005089               0.000032959               0.999999999              -0.000006803               0.000036158               0.999999999              -0.000008885               0.000039858               0.999999999              -0.000011421               0.000043800               0.999999999              -0.000014425               0.000048106               0.999999999              -0.000017860               0.000052826               0.999999999              -0.000021735               0.000057925               0.999999999               0.000006551               0.000030188               0.999999999               0.000003472               0.000027507               0.999999999               0.000002011               0.000027275               0.999999999               0.000001077               0.000028231               0.999999999               0.000000356               0.000029819               0.999999999              -0.000000360               0.000031901               0.999999999              -0.000001308               0.000034445               0.999999999              -0.000002544               0.000037759               0.999999999              -0.000004153               0.000041616               0.999999999              -0.000006096               0.000045828               0.999999999              -0.000008314               0.000050131               0.999999999              -0.000010849               0.000054854               0.999999999              -0.000013746               0.000060205               0.999999999              -0.000017018               0.000065937               0.999999999              -0.000020640               0.000072173               0.999999999              -0.000024680               0.000078856               0.999999999              -0.000029178               0.000085910               0.999999999               0.000006079               0.000039734               0.999999999               0.000003802               0.000036188               0.999999999               0.000002590               0.000036023               0.999999999               0.000001667               0.000037492               0.999999999               0.000000759               0.000039858               0.999999999              -0.000000377               0.000042868               0.999999999              -0.000001832               0.000046712               0.999999999              -0.000003815               0.000051358               0.999999999              -0.000006214               0.000056690               0.999999999              -0.000008936               0.000062263               0.999999999              -0.000011985               0.000067958               0.999999999              -0.000015355               0.000074340               0.999999999              -0.000019072               0.000081357               0.999999999              -0.000023142               0.000088865               0.999999999              -0.000027671               0.000096923               0.999999999              -0.000032648               0.000105564               0.999999999              -0.000038049               0.000114782               0.999999999               0.000005513               0.000048877               0.999999999               0.000004174               0.000044505               0.999999999               0.000003189               0.000044532               0.999999999               0.000002168               0.000046590               0.999999999               0.000000944               0.000049832               0.999999999              -0.000000614               0.000053999               0.999999999              -0.000002713               0.000059203               0.999999999              -0.000005386               0.000065452               0.999999999              -0.000008522               0.000072239               0.999999999              -0.000012002               0.000079320               0.999999999              -0.000015797               0.000086726               0.999999999              -0.000019988               0.000094931               0.999999999              -0.000024598               0.000103822               0.999999999              -0.000029662               0.000113371               0.999999999              -0.000035256               0.000123640               0.999999999              -0.000041309               0.000134603               0.999999999              -0.000047783               0.000146299               0.999999999               0.000004897               0.000057560               0.999999999               0.000004565               0.000052423               0.999999999               0.000003705               0.000052741               0.999999999               0.000002477               0.000055499               0.999999999               0.000000895               0.000059715               0.999999999              -0.000001189               0.000065114               0.999999999              -0.000003967               0.000071910               0.999999999              -0.000007377               0.000079672               0.999999999              -0.000011195               0.000088159               0.999999999              -0.000015317               0.000096987               0.999999999              -0.000019809               0.000106438               0.999999999              -0.000024730               0.000116964               0.999999999              -0.000030134               0.000128393               0.999999999              -0.000036079               0.000140551               0.999999999              -0.000042608               0.000153656               0.999999999              -0.000049672               0.000167541               0.999999999              -0.000057186               0.000182111               0.999999999               0.000004212               0.000065614               0.999999999               0.000004937               0.000059944               0.999999999               0.000004101               0.000060665               0.999999999               0.000002606               0.000064184               0.999999999               0.000000622               0.000069447               0.999999999              -0.000002076               0.000076283               0.999999999              -0.000005585               0.000084664               0.999999999              -0.000009667               0.000094170               0.999999999              -0.000014075               0.000104447               0.999999999              -0.000018719               0.000115505               0.999999999              -0.000023690               0.000127648               0.999999999              -0.000029196               0.000141146               0.999999999              -0.000035350               0.000155649               0.999999999              -0.000042137               0.000171041               0.999999999              -0.000049523               0.000187434               0.999999999              -0.000057488               0.000204690               0.999999999              -0.000065911               0.000222736               0.999999999               0.000003486               0.000072898               0.999999999               0.000005276               0.000067080               0.999999999               0.000004342               0.000068240               0.999999999               0.000002588               0.000072596               0.999999999               0.000000169               0.000079055               0.999999999              -0.000003143               0.000087503               0.999999999              -0.000007348               0.000097606               0.999999999              -0.000011936               0.000109080               0.999999999              -0.000016711               0.000121691               0.999999999              -0.000021619               0.000135669               0.999999999              -0.000027097               0.000150983               0.999999999              -0.000033362               0.000167734               0.999999999              -0.000040291               0.000185708               0.999999999              -0.000047844               0.000204781               0.999999999              -0.000056003               0.000224910               0.999999999              -0.000064622               0.000246058               0.999999999              -0.000073547               0.000267858               0.999999999               0.000002675               0.000079681               0.999999999               0.000005380               0.000074304               0.999999999               0.000004875               0.000074788               0.999999999               0.000003384               0.000078454               0.999999999               0.000001375               0.000084217               0.999999999              -0.000001447               0.000091733               0.999999999              -0.000005006               0.000100948               0.999999999              -0.000008964               0.000111600               0.999999999              -0.000013117               0.000123561               0.999999999              -0.000017348               0.000136635               0.999999999              -0.000021748               0.000150924               0.999999999              -0.000026643               0.000166538               0.999999999              -0.000032157               0.000183431               0.999999999              -0.000038138               0.000201254               0.999999999              -0.000044572               0.000220165               0.999999999              -0.000051491               0.000240037               0.999999999              -0.000058925               0.000260952               0.999999999               0.000001928               0.000085769               0.999999999               0.000005199               0.000081137               0.999999999               0.000005161               0.000081325               0.999999999               0.000004038               0.000084432               0.999999999               0.000002388               0.000089548               0.999999999               0.000000125               0.000096363               0.999999999              -0.000002778               0.000104715               0.999999999              -0.000006127               0.000114583               0.999999999              -0.000009811               0.000125764               0.999999999              -0.000013423               0.000138139               0.999999999              -0.000016990               0.000151664               0.999999999              -0.000020791               0.000166321               0.999999999              -0.000025014               0.000182044               0.999999999              -0.000029522               0.000198788               0.999999999              -0.000034295               0.000216450               0.999999999              -0.000039632               0.000235019               0.999999999              -0.000045473               0.000254604               0.999999999               0.000001305               0.000091097               0.999999999               0.000004762               0.000087457               0.999999999               0.000005117               0.000087595               0.999999999               0.000004388               0.000090319               0.999999999               0.000003149               0.000094937               0.999999999               0.000001351               0.000101176               0.999999999              -0.000000935               0.000108831               0.999999999              -0.000003710               0.000117949               0.999999999              -0.000006783               0.000128419               0.999999999              -0.000009854               0.000140210               0.999999999              -0.000012798               0.000153083               0.999999999              -0.000015703               0.000166923               0.999999999              -0.000018777               0.000181692               0.999999999              -0.000022003               0.000197464               0.999999999              -0.000025482               0.000214047               0.999999999              -0.000029218               0.000231468               0.999999999              -0.000033286               0.000249805               0.999999999               0.000000804               0.000095536               0.999999999               0.000004055               0.000093007               0.999999999               0.000004730               0.000093328               0.999999999               0.000004345               0.000095865               0.999999999               0.000003464               0.000100136               0.999999999               0.000002123               0.000105916               0.999999999               0.000000336               0.000113083               0.999999999              -0.000001758               0.000121623               0.999999999              -0.000004140               0.000131585               0.999999999              -0.000006655               0.000142857               0.999999999              -0.000009032               0.000155115               0.999999999              -0.000011298               0.000168188               0.999999999              -0.000013477               0.000182178               0.999999999              -0.000015739               0.000197095               0.999999999              -0.000018114               0.000212921               0.999999999              -0.000020457               0.000229541               0.999999999              -0.000022939               0.000246897               0.999999999               0.000000429               0.000099031               0.999999999               0.000003192               0.000097618               0.999999999               0.000003958               0.000098232               0.999999999               0.000003831               0.000100718               0.999999999               0.000003287               0.000104831               0.999999999               0.000002313               0.000110314               0.999999999               0.000001084               0.000117174               0.999999999              -0.000000392               0.000125383               0.999999999              -0.000002150               0.000134896               0.999999999              -0.000004059               0.000145608               0.999999999              -0.000005881               0.000157288               0.999999999              -0.000007542               0.000169815               0.999999999              -0.000009045               0.000183254               0.999999999              -0.000010579               0.000197595               0.999999999              -0.000012073               0.000212853               0.999999999              -0.000013457               0.000228857               0.999999999              -0.000014833               0.000245537               0.999999999               0.000000184               0.000101540               0.999999999               0.000002205               0.000101048               0.999999999               0.000002820               0.000102008               0.999999999               0.000002888               0.000104573               0.999999999               0.000002574               0.000108582               0.999999999               0.000001961               0.000114006               0.999999999               0.000001226               0.000120682               0.999999999               0.000000230               0.000128593               0.999999999              -0.000000931               0.000137795               0.999999999              -0.000002131               0.000148051               0.999999999              -0.000003343               0.000159241               0.999999999              -0.000004453               0.000171406               0.999999999              -0.000005467               0.000184560               0.999999999              -0.000006451               0.000198602               0.999999999              -0.000007295               0.000213395               0.999999999              -0.000008003               0.000228864               0.999999999              -0.000008631               0.000245053               0.999999999               0.000000054               0.000103051               0.999999999               0.000001125               0.000103175               0.999999999               0.000001464               0.000104409               0.999999999               0.000001563               0.000107046               0.999999999               0.000001398               0.000111050               0.999999999               0.000001169               0.000116453               0.999999999               0.000000740               0.000123039               0.999999999               0.000000250               0.000130821               0.999999999              -0.000000260               0.000139777               0.999999999              -0.000000839               0.000149734               0.999999999              -0.000001450               0.000160686               0.999999999              -0.000002057               0.000172689               0.999999999              -0.000002578               0.000185648               0.999999999              -0.000003012               0.000199407               0.999999999              -0.000003377               0.000213935               0.999999999              -0.000003693               0.000229181               0.999999999              -0.000003910               0.000245103               0.999999999               0.000000000               0.000103554               0.999999999               0.000000000               0.000103903               0.999999999               0.000000000               0.000105230               0.999999999              -0.000000000               0.000107876               0.999999999              -0.000000000               0.000111932               0.999999999              -0.000000000               0.000117304               0.999999999              -0.000000000               0.000123856               0.999999999              -0.000000000               0.000131668               0.999999999              -0.000000000               0.000140481               0.999999999              -0.000000000               0.000150311               0.999999999               0.000000000               0.000161262               0.999999999               0.000000000               0.000173185               0.999999999               0.000000000               0.000186040               0.999999999               0.000000000               0.000199738               0.999999999               0.000000000               0.000214190               0.999999999              -0.000000000               0.000229340               0.999999999              -0.000000000               0.000245164               0.999999999               0.000007198               0.000000000               0.999999999               0.000003048              -0.000000000               0.999999999               0.000001045               0.000000000               0.999999999              -0.000000005               0.000000000               0.999999999              -0.000000530              -0.000000000               0.999999999              -0.000000732               0.000000000               0.999999999              -0.000000796               0.000000000               0.999999999              -0.000000792               0.000000000               0.999999999              -0.000000895               0.000000000               0.999999999              -0.000001241               0.000000000               0.999999999              -0.000001856               0.000000000               0.999999999              -0.000002748              -0.000000000               0.999999999              -0.000003949              -0.000000000               0.999999999              -0.000005623              -0.000000000               0.999999999              -0.000007871              -0.000000000               0.999999999              -0.000010619              -0.000000000               0.999999999              -0.000013905              -0.000000000               0.999999999               0.000007129              -0.000010201               0.999999999               0.000003106              -0.000009345               0.999999999               0.000001160              -0.000009187               0.999999999               0.000000148              -0.000009461               0.999999999              -0.000000389              -0.000009880               0.999999999              -0.000000681              -0.000010478               0.999999999              -0.000000822              -0.000011202               0.999999999              -0.000000988              -0.000012172               0.999999999              -0.000001320              -0.000013423               0.999999999              -0.000001864              -0.000014860               0.999999999              -0.000002675              -0.000016347               0.999999999              -0.000003805              -0.000017954               0.999999999              -0.000005308              -0.000019859               0.999999999              -0.000007218              -0.000021913               0.999999999              -0.000009592              -0.000024151               0.999999999              -0.000012496              -0.000026668               0.999999999              -0.000015957              -0.000029458               0.999999999               0.000006899              -0.000020299               0.999999999               0.000003229              -0.000018541               0.999999999               0.000001493              -0.000018312               0.999999999               0.000000545              -0.000018882               0.999999999              -0.000000065              -0.000019830               0.999999999              -0.000000527              -0.000021075               0.999999999              -0.000000966              -0.000022628               0.999999999              -0.000001599              -0.000024703               0.999999999              -0.000002464              -0.000027203               0.999999999              -0.000003628              -0.000030054               0.999999999              -0.000005089              -0.000032959               0.999999999              -0.000006803              -0.000036158               0.999999999              -0.000008885              -0.000039858               0.999999999              -0.000011421              -0.000043800               0.999999999              -0.000014425              -0.000048106               0.999999999              -0.000017860              -0.000052826               0.999999999              -0.000021735              -0.000057925               0.999999999               0.000006551              -0.000030188               0.999999999               0.000003472              -0.000027507               0.999999999               0.000002011              -0.000027275               0.999999999               0.000001077              -0.000028231               0.999999999               0.000000356              -0.000029819               0.999999999              -0.000000360              -0.000031901               0.999999999              -0.000001308              -0.000034445               0.999999999              -0.000002544              -0.000037759               0.999999999              -0.000004153              -0.000041616               0.999999999              -0.000006096              -0.000045828               0.999999999              -0.000008314              -0.000050131               0.999999999              -0.000010849              -0.000054854               0.999999999              -0.000013746              -0.000060205               0.999999999              -0.000017018              -0.000065937               0.999999999              -0.000020640              -0.000072173               0.999999999              -0.000024680              -0.000078856               0.999999999              -0.000029178              -0.000085910               0.999999999               0.000006079              -0.000039734               0.999999999               0.000003802              -0.000036188               0.999999999               0.000002590              -0.000036023               0.999999999               0.000001667              -0.000037492               0.999999999               0.000000759              -0.000039858               0.999999999              -0.000000377              -0.000042868               0.999999999              -0.000001832              -0.000046712               0.999999999              -0.000003815              -0.000051358               0.999999999              -0.000006214              -0.000056690               0.999999999              -0.000008936              -0.000062263               0.999999999              -0.000011985              -0.000067958               0.999999999              -0.000015355              -0.000074340               0.999999999              -0.000019072              -0.000081357               0.999999999              -0.000023142              -0.000088865               0.999999999              -0.000027671              -0.000096923               0.999999999              -0.000032648              -0.000105564               0.999999999              -0.000038049              -0.000114782               0.999999999               0.000005513              -0.000048877               0.999999999               0.000004174              -0.000044505               0.999999999               0.000003189              -0.000044532               0.999999999               0.000002168              -0.000046590               0.999999999               0.000000944              -0.000049832               0.999999999              -0.000000614              -0.000053999               0.999999999              -0.000002713              -0.000059203               0.999999999              -0.000005386              -0.000065452               0.999999999              -0.000008522              -0.000072239               0.999999999              -0.000012002              -0.000079320               0.999999999              -0.000015797              -0.000086726               0.999999999              -0.000019988              -0.000094931               0.999999999              -0.000024598              -0.000103822               0.999999999              -0.000029662              -0.000113371               0.999999999              -0.000035256              -0.000123640               0.999999999              -0.000041309              -0.000134603               0.999999999              -0.000047783              -0.000146299               0.999999999               0.000004897              -0.000057560               0.999999999               0.000004565              -0.000052423               0.999999999               0.000003705              -0.000052741               0.999999999               0.000002477              -0.000055499               0.999999999               0.000000895              -0.000059715               0.999999999              -0.000001189              -0.000065114               0.999999999              -0.000003967              -0.000071910               0.999999999              -0.000007377              -0.000079672               0.999999999              -0.000011195              -0.000088159               0.999999999              -0.000015317              -0.000096987               0.999999999              -0.000019809              -0.000106438               0.999999999              -0.000024730              -0.000116964               0.999999999              -0.000030134              -0.000128393               0.999999999              -0.000036079              -0.000140551               0.999999999              -0.000042608              -0.000153656               0.999999999              -0.000049672              -0.000167541               0.999999999              -0.000057186              -0.000182111               0.999999999               0.000004212              -0.000065614               0.999999999               0.000004937              -0.000059944               0.999999999               0.000004101              -0.000060665               0.999999999               0.000002606              -0.000064184               0.999999999               0.000000622              -0.000069447               0.999999999              -0.000002076              -0.000076283               0.999999999              -0.000005585              -0.000084664               0.999999999              -0.000009667              -0.000094170               0.999999999              -0.000014075              -0.000104447               0.999999999              -0.000018719              -0.000115505               0.999999999              -0.000023690              -0.000127648               0.999999999              -0.000029196              -0.000141146               0.999999999              -0.000035350              -0.000155649               0.999999999              -0.000042137              -0.000171041               0.999999999              -0.000049523              -0.000187434               0.999999999              -0.000057488              -0.000204690               0.999999999              -0.000065911              -0.000222736               0.999999999               0.000003486              -0.000072898               0.999999999               0.000005276              -0.000067080               0.999999999               0.000004342              -0.000068240               0.999999999               0.000002588              -0.000072596               0.999999999               0.000000169              -0.000079055               0.999999999              -0.000003143              -0.000087503               0.999999999              -0.000007348              -0.000097606               0.999999999              -0.000011936              -0.000109080               0.999999999              -0.000016711              -0.000121691               0.999999999              -0.000021619              -0.000135669               0.999999999              -0.000027097              -0.000150983               0.999999999              -0.000033362              -0.000167734               0.999999999              -0.000040291              -0.000185708               0.999999999              -0.000047844              -0.000204781               0.999999999              -0.000056003              -0.000224910               0.999999999              -0.000064622              -0.000246058               0.999999999              -0.000073547              -0.000267858               0.999999999               0.000002675              -0.000079681               0.999999999               0.000005380              -0.000074304               0.999999999               0.000004875              -0.000074788               0.999999999               0.000003384              -0.000078454               0.999999999               0.000001375              -0.000084217               0.999999999              -0.000001447              -0.000091733               0.999999999              -0.000005006              -0.000100948               0.999999999              -0.000008964              -0.000111600               0.999999999              -0.000013117              -0.000123561               0.999999999              -0.000017348              -0.000136635               0.999999999              -0.000021748              -0.000150924               0.999999999              -0.000026643              -0.000166538               0.999999999              -0.000032157              -0.000183431               0.999999999              -0.000038138              -0.000201254               0.999999999              -0.000044572              -0.000220165               0.999999999              -0.000051491              -0.000240037               0.999999999              -0.000058925              -0.000260952               0.999999999               0.000001928              -0.000085769               0.999999999               0.000005199              -0.000081137               0.999999999               0.000005161              -0.000081325               0.999999999               0.000004038              -0.000084432               0.999999999               0.000002388              -0.000089548               0.999999999               0.000000125              -0.000096363               0.999999999              -0.000002778              -0.000104715               0.999999999              -0.000006127              -0.000114583               0.999999999              -0.000009811              -0.000125764               0.999999999              -0.000013423              -0.000138139               0.999999999              -0.000016990              -0.000151664               0.999999999              -0.000020791              -0.000166321               0.999999999              -0.000025014              -0.000182044               0.999999999              -0.000029522              -0.000198788               0.999999999              -0.000034295              -0.000216450               0.999999999              -0.000039632              -0.000235019               0.999999999              -0.000045473              -0.000254604               0.999999999               0.000001305              -0.000091097               0.999999999               0.000004762              -0.000087457               0.999999999               0.000005117              -0.000087595               0.999999999               0.000004388              -0.000090319               0.999999999               0.000003149              -0.000094937               0.999999999               0.000001351              -0.000101176               0.999999999              -0.000000935              -0.000108831               0.999999999              -0.000003710              -0.000117949               0.999999999              -0.000006783              -0.000128419               0.999999999              -0.000009854              -0.000140210               0.999999999              -0.000012798              -0.000153083               0.999999999              -0.000015703              -0.000166923               0.999999999              -0.000018777              -0.000181692               0.999999999              -0.000022003              -0.000197464               0.999999999              -0.000025482              -0.000214047               0.999999999              -0.000029218              -0.000231468               0.999999999              -0.000033286              -0.000249805               0.999999999               0.000000804              -0.000095536               0.999999999               0.000004055              -0.000093007               0.999999999               0.000004730              -0.000093328               0.999999999               0.000004345              -0.000095865               0.999999999               0.000003464              -0.000100136               0.999999999               0.000002123              -0.000105916               0.999999999               0.000000336              -0.000113083               0.999999999              -0.000001758              -0.000121623               0.999999999              -0.000004140              -0.000131585               0.999999999              -0.000006655              -0.000142857               0.999999999              -0.000009032              -0.000155115               0.999999999              -0.000011298              -0.000168188               0.999999999              -0.000013477              -0.000182178               0.999999999              -0.000015739              -0.000197095               0.999999999              -0.000018114              -0.000212921               0.999999999              -0.000020457              -0.000229541               0.999999999              -0.000022939              -0.000246897               0.999999999               0.000000429              -0.000099031               0.999999999               0.000003192              -0.000097618               0.999999999               0.000003958              -0.000098232               0.999999999               0.000003831              -0.000100718               0.999999999               0.000003287              -0.000104831               0.999999999               0.000002313              -0.000110314               0.999999999               0.000001084              -0.000117174               0.999999999              -0.000000392              -0.000125383               0.999999999              -0.000002150              -0.000134896               0.999999999              -0.000004059              -0.000145608               0.999999999              -0.000005881              -0.000157288               0.999999999              -0.000007542              -0.000169815               0.999999999              -0.000009045              -0.000183254               0.999999999              -0.000010579              -0.000197595               0.999999999              -0.000012073              -0.000212853               0.999999999              -0.000013457              -0.000228857               0.999999999              -0.000014833              -0.000245537               0.999999999               0.000000184              -0.000101540               0.999999999               0.000002205              -0.000101048               0.999999999               0.000002820              -0.000102008               0.999999999               0.000002888              -0.000104573               0.999999999               0.000002574              -0.000108582               0.999999999               0.000001961              -0.000114006               0.999999999               0.000001226              -0.000120682               0.999999999               0.000000230              -0.000128593               0.999999999              -0.000000931              -0.000137795               0.999999999              -0.000002131              -0.000148051               0.999999999              -0.000003343              -0.000159241               0.999999999              -0.000004453              -0.000171406               0.999999999              -0.000005467              -0.000184560               0.999999999              -0.000006451              -0.000198602               0.999999999              -0.000007295              -0.000213395               0.999999999              -0.000008003              -0.000228864               0.999999999              -0.000008631              -0.000245053               0.999999999               0.000000054              -0.000103051               0.999999999               0.000001125              -0.000103175               0.999999999               0.000001464              -0.000104409               0.999999999               0.000001563              -0.000107046               0.999999999               0.000001398              -0.000111050               0.999999999               0.000001169              -0.000116453               0.999999999               0.000000740              -0.000123039               0.999999999               0.000000250              -0.000130821               0.999999999              -0.000000260              -0.000139777               0.999999999              -0.000000839              -0.000149734               0.999999999              -0.000001450              -0.000160686               0.999999999              -0.000002057              -0.000172689               0.999999999              -0.000002578              -0.000185648               0.999999999              -0.000003012              -0.000199407               0.999999999              -0.000003377              -0.000213935               0.999999999              -0.000003693              -0.000229181               0.999999999              -0.000003910              -0.000245103               0.999999999               0.000000000              -0.000103554               0.999999999              -0.000000000              -0.000103903               0.999999999              -0.000000000              -0.000105230               0.999999999              -0.000000000              -0.000107876               0.999999999               0.000000000              -0.000111932               0.999999999               0.000000000              -0.000117304               0.999999999               0.000000000              -0.000123856               0.999999999              -0.000000000              -0.000131668               0.999999999              -0.000000000              -0.000140481               0.999999999               0.000000000              -0.000150311               0.999999999              -0.000000000              -0.000161262               0.999999999              -0.000000000              -0.000173185               0.999999999              -0.000000000              -0.000186040               0.999999999              -0.000000000              -0.000199738               0.999999999              -0.000000000              -0.000214190               0.999999999               0.000000000              -0.000229340               0.999999999               0.000000000              -0.000245164               0.999999999              -0.000007198               0.000000000               0.999999999              -0.000003048              -0.000000000               0.999999999              -0.000001045              -0.000000000               0.999999999               0.000000005              -0.000000000               0.999999999               0.000000530              -0.000000000               0.999999999               0.000000732               0.000000000               0.999999999               0.000000796               0.000000000               0.999999999               0.000000792              -0.000000000               0.999999999               0.000000895              -0.000000000               0.999999999               0.000001241              -0.000000000               0.999999999               0.000001856              -0.000000000               0.999999999               0.000002748              -0.000000000               0.999999999               0.000003949              -0.000000000               0.999999999               0.000005623              -0.000000000               0.999999999               0.000007871              -0.000000000               0.999999999               0.000010619              -0.000000000               0.999999999               0.000013905              -0.000000000               0.999999999              -0.000007129              -0.000010201               0.999999999              -0.000003106              -0.000009345               0.999999999              -0.000001160              -0.000009187               0.999999999              -0.000000148              -0.000009461               0.999999999               0.000000389              -0.000009880               0.999999999               0.000000681              -0.000010478               0.999999999               0.000000822              -0.000011202               0.999999999               0.000000988              -0.000012172               0.999999999               0.000001320              -0.000013423               0.999999999               0.000001864              -0.000014860               0.999999999               0.000002675              -0.000016347               0.999999999               0.000003805              -0.000017954               0.999999999               0.000005308              -0.000019859               0.999999999               0.000007218              -0.000021913               0.999999999               0.000009592              -0.000024151               0.999999999               0.000012496              -0.000026668               0.999999999               0.000015957              -0.000029458               0.999999999              -0.000006899              -0.000020299               0.999999999              -0.000003229              -0.000018541               0.999999999              -0.000001493              -0.000018312               0.999999999              -0.000000545              -0.000018882               0.999999999               0.000000065              -0.000019830               0.999999999               0.000000527              -0.000021075               0.999999999               0.000000966              -0.000022628               0.999999999               0.000001599              -0.000024703               0.999999999               0.000002464              -0.000027203               0.999999999               0.000003628              -0.000030054               0.999999999               0.000005089              -0.000032959               0.999999999               0.000006803              -0.000036158               0.999999999               0.000008885              -0.000039858               0.999999999               0.000011421              -0.000043800               0.999999999               0.000014425              -0.000048106               0.999999999               0.000017860              -0.000052826               0.999999999               0.000021735              -0.000057925               0.999999999              -0.000006551              -0.000030188               0.999999999              -0.000003472              -0.000027507               0.999999999              -0.000002011              -0.000027275               0.999999999              -0.000001077              -0.000028231               0.999999999              -0.000000356              -0.000029819               0.999999999               0.000000360              -0.000031901               0.999999999               0.000001308              -0.000034445               0.999999999               0.000002544              -0.000037759               0.999999999               0.000004153              -0.000041616               0.999999999               0.000006096              -0.000045828               0.999999999               0.000008314              -0.000050131               0.999999999               0.000010849              -0.000054854               0.999999999               0.000013746              -0.000060205               0.999999999               0.000017018              -0.000065937               0.999999999               0.000020640              -0.000072173               0.999999999               0.000024680              -0.000078856               0.999999999               0.000029178              -0.000085910               0.999999999              -0.000006079              -0.000039734               0.999999999              -0.000003802              -0.000036188               0.999999999              -0.000002590              -0.000036023               0.999999999              -0.000001667              -0.000037492               0.999999999              -0.000000759              -0.000039858               0.999999999               0.000000377              -0.000042868               0.999999999               0.000001832              -0.000046712               0.999999999               0.000003815              -0.000051358               0.999999999               0.000006214              -0.000056690               0.999999999               0.000008936              -0.000062263               0.999999999               0.000011985              -0.000067958               0.999999999               0.000015355              -0.000074340               0.999999999               0.000019072              -0.000081357               0.999999999               0.000023142              -0.000088865               0.999999999               0.000027671              -0.000096923               0.999999999               0.000032648              -0.000105564               0.999999999               0.000038049              -0.000114782               0.999999999              -0.000005513              -0.000048877               0.999999999              -0.000004174              -0.000044505               0.999999999              -0.000003189              -0.000044532               0.999999999              -0.000002168              -0.000046590               0.999999999              -0.000000944              -0.000049832               0.999999999               0.000000614              -0.000053999               0.999999999               0.000002713              -0.000059203               0.999999999               0.000005386              -0.000065452               0.999999999               0.000008522              -0.000072239               0.999999999               0.000012002              -0.000079320               0.999999999               0.000015797              -0.000086726               0.999999999               0.000019988              -0.000094931               0.999999999               0.000024598              -0.000103822               0.999999999               0.000029662              -0.000113371               0.999999999               0.000035256              -0.000123640               0.999999999               0.000041309              -0.000134603               0.999999999               0.000047783              -0.000146299               0.999999999              -0.000004897              -0.000057560               0.999999999              -0.000004565              -0.000052423               0.999999999              -0.000003705              -0.000052741               0.999999999              -0.000002477              -0.000055499               0.999999999              -0.000000895              -0.000059715               0.999999999               0.000001189              -0.000065114               0.999999999               0.000003967              -0.000071910               0.999999999               0.000007377              -0.000079672               0.999999999               0.000011195              -0.000088159               0.999999999               0.000015317              -0.000096987               0.999999999               0.000019809              -0.000106438               0.999999999               0.000024730              -0.000116964               0.999999999               0.000030134              -0.000128393               0.999999999               0.000036079              -0.000140551               0.999999999               0.000042608              -0.000153656               0.999999999               0.000049672              -0.000167541               0.999999999               0.000057186              -0.000182111               0.999999999              -0.000004212              -0.000065614               0.999999999              -0.000004937              -0.000059944               0.999999999              -0.000004101              -0.000060665               0.999999999              -0.000002606              -0.000064184               0.999999999              -0.000000622              -0.000069447               0.999999999               0.000002076              -0.000076283               0.999999999               0.000005585              -0.000084664               0.999999999               0.000009667              -0.000094170               0.999999999               0.000014075              -0.000104447               0.999999999               0.000018719              -0.000115505               0.999999999               0.000023690              -0.000127648               0.999999999               0.000029196              -0.000141146               0.999999999               0.000035350              -0.000155649               0.999999999               0.000042137              -0.000171041               0.999999999               0.000049523              -0.000187434               0.999999999               0.000057488              -0.000204690               0.999999999               0.000065911              -0.000222736               0.999999999              -0.000003486              -0.000072898               0.999999999              -0.000005276              -0.000067080               0.999999999              -0.000004342              -0.000068240               0.999999999              -0.000002588              -0.000072596               0.999999999              -0.000000169              -0.000079055               0.999999999               0.000003143              -0.000087503               0.999999999               0.000007348              -0.000097606               0.999999999               0.000011936              -0.000109080               0.999999999               0.000016711              -0.000121691               0.999999999               0.000021619              -0.000135669               0.999999999               0.000027097              -0.000150983               0.999999999               0.000033362              -0.000167734               0.999999999               0.000040291              -0.000185708               0.999999999               0.000047844              -0.000204781               0.999999999               0.000056003              -0.000224910               0.999999999               0.000064622              -0.000246058               0.999999999               0.000073547              -0.000267858               0.999999999              -0.000002675              -0.000079681               0.999999999              -0.000005380              -0.000074304               0.999999999              -0.000004875              -0.000074788               0.999999999              -0.000003384              -0.000078454               0.999999999              -0.000001375              -0.000084217               0.999999999               0.000001447              -0.000091733               0.999999999               0.000005006              -0.000100948               0.999999999               0.000008964              -0.000111600               0.999999999               0.000013117              -0.000123561               0.999999999               0.000017348              -0.000136635               0.999999999               0.000021748              -0.000150924               0.999999999               0.000026643              -0.000166538               0.999999999               0.000032157              -0.000183431               0.999999999               0.000038138              -0.000201254               0.999999999               0.000044572              -0.000220165               0.999999999               0.000051491              -0.000240037               0.999999999               0.000058925              -0.000260952               0.999999999              -0.000001928              -0.000085769               0.999999999              -0.000005199              -0.000081137               0.999999999              -0.000005161              -0.000081325               0.999999999              -0.000004038              -0.000084432               0.999999999              -0.000002388              -0.000089548               0.999999999              -0.000000125              -0.000096363               0.999999999               0.000002778              -0.000104715               0.999999999               0.000006127              -0.000114583               0.999999999               0.000009811              -0.000125764               0.999999999               0.000013423              -0.000138139               0.999999999               0.000016990              -0.000151664               0.999999999               0.000020791              -0.000166321               0.999999999               0.000025014              -0.000182044               0.999999999               0.000029522              -0.000198788               0.999999999               0.000034295              -0.000216450               0.999999999               0.000039632              -0.000235019               0.999999999               0.000045473              -0.000254604               0.999999999              -0.000001305              -0.000091097               0.999999999              -0.000004762              -0.000087457               0.999999999              -0.000005117              -0.000087595               0.999999999              -0.000004388              -0.000090319               0.999999999              -0.000003149              -0.000094937               0.999999999              -0.000001351              -0.000101176               0.999999999               0.000000935              -0.000108831               0.999999999               0.000003710              -0.000117949               0.999999999               0.000006783              -0.000128419               0.999999999               0.000009854              -0.000140210               0.999999999               0.000012798              -0.000153083               0.999999999               0.000015703              -0.000166923               0.999999999               0.000018777              -0.000181692               0.999999999               0.000022003              -0.000197464               0.999999999               0.000025482              -0.000214047               0.999999999               0.000029218              -0.000231468               0.999999999               0.000033286              -0.000249805               0.999999999              -0.000000804              -0.000095536               0.999999999              -0.000004055              -0.000093007               0.999999999              -0.000004730              -0.000093328               0.999999999              -0.000004345              -0.000095865               0.999999999              -0.000003464              -0.000100136               0.999999999              -0.000002123              -0.000105916               0.999999999              -0.000000336              -0.000113083               0.999999999               0.000001758              -0.000121623               0.999999999               0.000004140              -0.000131585               0.999999999               0.000006655              -0.000142857               0.999999999               0.000009032              -0.000155115               0.999999999               0.000011298              -0.000168188               0.999999999               0.000013477              -0.000182178               0.999999999               0.000015739              -0.000197095               0.999999999               0.000018114              -0.000212921               0.999999999               0.000020457              -0.000229541               0.999999999               0.000022939              -0.000246897               0.999999999              -0.000000429              -0.000099031               0.999999999              -0.000003192              -0.000097618               0.999999999              -0.000003958              -0.000098232               0.999999999              -0.000003831              -0.000100718               0.999999999              -0.000003287              -0.000104831               0.999999999              -0.000002313              -0.000110314               0.999999999              -0.000001084              -0.000117174               0.999999999               0.000000392              -0.000125383               0.999999999               0.000002150              -0.000134896               0.999999999               0.000004059              -0.000145608               0.999999999               0.000005881              -0.000157288               0.999999999               0.000007542              -0.000169815               0.999999999               0.000009045              -0.000183254               0.999999999               0.000010579              -0.000197595               0.999999999               0.000012073              -0.000212853               0.999999999               0.000013457              -0.000228857               0.999999999               0.000014833              -0.000245537               0.999999999              -0.000000184              -0.000101540               0.999999999              -0.000002205              -0.000101048               0.999999999              -0.000002820              -0.000102008               0.999999999              -0.000002888              -0.000104573               0.999999999              -0.000002574              -0.000108582               0.999999999              -0.000001961              -0.000114006               0.999999999              -0.000001226              -0.000120682               0.999999999              -0.000000230              -0.000128593               0.999999999               0.000000931              -0.000137795               0.999999999               0.000002131              -0.000148051               0.999999999               0.000003343              -0.000159241               0.999999999               0.000004453              -0.000171406               0.999999999               0.000005467              -0.000184560               0.999999999               0.000006451              -0.000198602               0.999999999               0.000007295              -0.000213395               0.999999999               0.000008003              -0.000228864               0.999999999               0.000008631              -0.000245053               0.999999999              -0.000000054              -0.000103051               0.999999999              -0.000001125              -0.000103175               0.999999999              -0.000001464              -0.000104409               0.999999999              -0.000001563              -0.000107046               0.999999999              -0.000001398              -0.000111050               0.999999999              -0.000001169              -0.000116453               0.999999999              -0.000000740              -0.000123039               0.999999999              -0.000000250              -0.000130821               0.999999999               0.000000260              -0.000139777               0.999999999               0.000000839              -0.000149734               0.999999999               0.000001450              -0.000160686               0.999999999               0.000002057              -0.000172689               0.999999999               0.000002578              -0.000185648               0.999999999               0.000003012              -0.000199407               0.999999999               0.000003377              -0.000213935               0.999999999               0.000003693              -0.000229181               0.999999999               0.000003910              -0.000245103               0.999999999               0.000000000              -0.000103554               0.999999999              -0.000000000              -0.000103903               0.999999999              -0.000000000              -0.000105230               0.999999999              -0.000000000              -0.000107876               0.999999999               0.000000000              -0.000111932               0.999999999               0.000000000              -0.000117304               0.999999999               0.000000000              -0.000123856               0.999999999              -0.000000000              -0.000131668               0.999999999              -0.000000000              -0.000140481               0.999999999               0.000000000              -0.000150311               0.999999999              -0.000000000              -0.000161262               0.999999999              -0.000000000              -0.000173185               0.999999999              -0.000000000              -0.000186040               0.999999999              -0.000000000              -0.000199738               0.999999999              -0.000000000              -0.000214190               0.999999999               0.000000000              -0.000229340               0.999999999               0.000000000              -0.000245164               0.999999999              -0.000007198               0.000000000               0.999999999              -0.000003048              -0.000000000               0.999999999              -0.000001045              -0.000000000               0.999999999               0.000000005              -0.000000000               0.999999999               0.000000530              -0.000000000               0.999999999               0.000000732               0.000000000               0.999999999               0.000000796               0.000000000               0.999999999               0.000000792              -0.000000000               0.999999999               0.000000895              -0.000000000               0.999999999               0.000001241              -0.000000000               0.999999999               0.000001856              -0.000000000               0.999999999               0.000002748              -0.000000000               0.999999999               0.000003949              -0.000000000               0.999999999               0.000005623              -0.000000000               0.999999999               0.000007871              -0.000000000               0.999999999               0.000010619              -0.000000000               0.999999999               0.000013905              -0.000000000               0.999999999              -0.000007129               0.000010201               0.999999999              -0.000003106               0.000009345               0.999999999              -0.000001160               0.000009187               0.999999999              -0.000000148               0.000009461               0.999999999               0.000000389               0.000009880               0.999999999               0.000000681               0.000010478               0.999999999               0.000000822               0.000011202               0.999999999               0.000000988               0.000012172               0.999999999               0.000001320               0.000013423               0.999999999               0.000001864               0.000014860               0.999999999               0.000002675               0.000016347               0.999999999               0.000003805               0.000017954               0.999999999               0.000005308               0.000019859               0.999999999               0.000007218               0.000021913               0.999999999               0.000009592               0.000024151               0.999999999               0.000012496               0.000026668               0.999999999               0.000015957               0.000029458               0.999999999              -0.000006899               0.000020299               0.999999999              -0.000003229               0.000018541               0.999999999              -0.000001493               0.000018312               0.999999999              -0.000000545               0.000018882               0.999999999               0.000000065               0.000019830               0.999999999               0.000000527               0.000021075               0.999999999               0.000000966               0.000022628               0.999999999               0.000001599               0.000024703               0.999999999               0.000002464               0.000027203               0.999999999               0.000003628               0.000030054               0.999999999               0.000005089               0.000032959               0.999999999               0.000006803               0.000036158               0.999999999               0.000008885               0.000039858               0.999999999               0.000011421               0.000043800               0.999999999               0.000014425               0.000048106               0.999999999               0.000017860               0.000052826               0.999999999               0.000021735               0.000057925               0.999999999              -0.000006551               0.000030188               0.999999999              -0.000003472               0.000027507               0.999999999              -0.000002011               0.000027275               0.999999999              -0.000001077               0.000028231               0.999999999              -0.000000356               0.000029819               0.999999999               0.000000360               0.000031901               0.999999999               0.000001308               0.000034445               0.999999999               0.000002544               0.000037759               0.999999999               0.000004153               0.000041616               0.999999999               0.000006096               0.000045828               0.999999999               0.000008314               0.000050131               0.999999999               0.000010849               0.000054854               0.999999999               0.000013746               0.000060205               0.999999999               0.000017018               0.000065937               0.999999999               0.000020640               0.000072173               0.999999999               0.000024680               0.000078856               0.999999999               0.000029178               0.000085910               0.999999999              -0.000006079               0.000039734               0.999999999              -0.000003802               0.000036188               0.999999999              -0.000002590               0.000036023               0.999999999              -0.000001667               0.000037492               0.999999999              -0.000000759               0.000039858               0.999999999               0.000000377               0.000042868               0.999999999               0.000001832               0.000046712               0.999999999               0.000003815               0.000051358               0.999999999               0.000006214               0.000056690               0.999999999               0.000008936               0.000062263               0.999999999               0.000011985               0.000067958               0.999999999               0.000015355               0.000074340               0.999999999               0.000019072               0.000081357               0.999999999               0.000023142               0.000088865               0.999999999               0.000027671               0.000096923               0.999999999               0.000032648               0.000105564               0.999999999               0.000038049               0.000114782               0.999999999              -0.000005513               0.000048877               0.999999999              -0.000004174               0.000044505               0.999999999              -0.000003189               0.000044532               0.999999999              -0.000002168               0.000046590               0.999999999              -0.000000944               0.000049832               0.999999999               0.000000614               0.000053999               0.999999999               0.000002713               0.000059203               0.999999999               0.000005386               0.000065452               0.999999999               0.000008522               0.000072239               0.999999999               0.000012002               0.000079320               0.999999999               0.000015797               0.000086726               0.999999999               0.000019988               0.000094931               0.999999999               0.000024598               0.000103822               0.999999999               0.000029662               0.000113371               0.999999999               0.000035256               0.000123640               0.999999999               0.000041309               0.000134603               0.999999999               0.000047783               0.000146299               0.999999999              -0.000004897               0.000057560               0.999999999              -0.000004565               0.000052423               0.999999999              -0.000003705               0.000052741               0.999999999              -0.000002477               0.000055499               0.999999999              -0.000000895               0.000059715               0.999999999               0.000001189               0.000065114               0.999999999               0.000003967               0.000071910               0.999999999               0.000007377               0.000079672               0.999999999               0.000011195               0.000088159               0.999999999               0.000015317               0.000096987               0.999999999               0.000019809               0.000106438               0.999999999               0.000024730               0.000116964               0.999999999               0.000030134               0.000128393               0.999999999               0.000036079               0.000140551               0.999999999               0.000042608               0.000153656               0.999999999               0.000049672               0.000167541               0.999999999               0.000057186               0.000182111               0.999999999              -0.000004212               0.000065614               0.999999999              -0.000004937               0.000059944               0.999999999              -0.000004101               0.000060665               0.999999999              -0.000002606               0.000064184               0.999999999              -0.000000622               0.000069447               0.999999999               0.000002076               0.000076283               0.999999999               0.000005585               0.000084664               0.999999999               0.000009667               0.000094170               0.999999999               0.000014075               0.000104447               0.999999999               0.000018719               0.000115505               0.999999999               0.000023690               0.000127648               0.999999999               0.000029196               0.000141146               0.999999999               0.000035350               0.000155649               0.999999999               0.000042137               0.000171041               0.999999999               0.000049523               0.000187434               0.999999999               0.000057488               0.000204690               0.999999999               0.000065911               0.000222736               0.999999999              -0.000003486               0.000072898               0.999999999              -0.000005276               0.000067080               0.999999999              -0.000004342               0.000068240               0.999999999              -0.000002588               0.000072596               0.999999999              -0.000000169               0.000079055               0.999999999               0.000003143               0.000087503               0.999999999               0.000007348               0.000097606               0.999999999               0.000011936               0.000109080               0.999999999               0.000016711               0.000121691               0.999999999               0.000021619               0.000135669               0.999999999               0.000027097               0.000150983               0.999999999               0.000033362               0.000167734               0.999999999               0.000040291               0.000185708               0.999999999               0.000047844               0.000204781               0.999999999               0.000056003               0.000224910               0.999999999               0.000064622               0.000246058               0.999999999               0.000073547               0.000267858               0.999999999              -0.000002675               0.000079681               0.999999999              -0.000005380               0.000074304               0.999999999              -0.000004875               0.000074788               0.999999999              -0.000003384               0.000078454               0.999999999              -0.000001375               0.000084217               0.999999999               0.000001447               0.000091733               0.999999999               0.000005006               0.000100948               0.999999999               0.000008964               0.000111600               0.999999999               0.000013117               0.000123561               0.999999999               0.000017348               0.000136635               0.999999999               0.000021748               0.000150924               0.999999999               0.000026643               0.000166538               0.999999999               0.000032157               0.000183431               0.999999999               0.000038138               0.000201254               0.999999999               0.000044572               0.000220165               0.999999999               0.000051491               0.000240037               0.999999999               0.000058925               0.000260952               0.999999999              -0.000001928               0.000085769               0.999999999              -0.000005199               0.000081137               0.999999999              -0.000005161               0.000081325               0.999999999              -0.000004038               0.000084432               0.999999999              -0.000002388               0.000089548               0.999999999              -0.000000125               0.000096363               0.999999999               0.000002778               0.000104715               0.999999999               0.000006127               0.000114583               0.999999999               0.000009811               0.000125764               0.999999999               0.000013423               0.000138139               0.999999999               0.000016990               0.000151664               0.999999999               0.000020791               0.000166321               0.999999999               0.000025014               0.000182044               0.999999999               0.000029522               0.000198788               0.999999999               0.000034295               0.000216450               0.999999999               0.000039632               0.000235019               0.999999999               0.000045473               0.000254604               0.999999999              -0.000001305               0.000091097               0.999999999              -0.000004762               0.000087457               0.999999999              -0.000005117               0.000087595               0.999999999              -0.000004388               0.000090319               0.999999999              -0.000003149               0.000094937               0.999999999              -0.000001351               0.000101176               0.999999999               0.000000935               0.000108831               0.999999999               0.000003710               0.000117949               0.999999999               0.000006783               0.000128419               0.999999999               0.000009854               0.000140210               0.999999999               0.000012798               0.000153083               0.999999999               0.000015703               0.000166923               0.999999999               0.000018777               0.000181692               0.999999999               0.000022003               0.000197464               0.999999999               0.000025482               0.000214047               0.999999999               0.000029218               0.000231468               0.999999999               0.000033286               0.000249805               0.999999999              -0.000000804               0.000095536               0.999999999              -0.000004055               0.000093007               0.999999999              -0.000004730               0.000093328               0.999999999              -0.000004345               0.000095865               0.999999999              -0.000003464               0.000100136               0.999999999              -0.000002123               0.000105916               0.999999999              -0.000000336               0.000113083               0.999999999               0.000001758               0.000121623               0.999999999               0.000004140               0.000131585               0.999999999               0.000006655               0.000142857               0.999999999               0.000009032               0.000155115               0.999999999               0.000011298               0.000168188               0.999999999               0.000013477               0.000182178               0.999999999               0.000015739               0.000197095               0.999999999               0.000018114               0.000212921               0.999999999               0.000020457               0.000229541               0.999999999               0.000022939               0.000246897               0.999999999              -0.000000429               0.000099031               0.999999999              -0.000003192               0.000097618               0.999999999              -0.000003958               0.000098232               0.999999999              -0.000003831               0.000100718               0.999999999              -0.000003287               0.000104831               0.999999999              -0.000002313               0.000110314               0.999999999              -0.000001084               0.000117174               0.999999999               0.000000392               0.000125383               0.999999999               0.000002150               0.000134896               0.999999999               0.000004059               0.000145608               0.999999999               0.000005881               0.000157288               0.999999999               0.000007542               0.000169815               0.999999999               0.000009045               0.000183254               0.999999999               0.000010579               0.000197595               0.999999999               0.000012073               0.000212853               0.999999999               0.000013457               0.000228857               0.999999999               0.000014833               0.000245537               0.999999999              -0.000000184               0.000101540               0.999999999              -0.000002205               0.000101048               0.999999999              -0.000002820               0.000102008               0.999999999              -0.000002888               0.000104573               0.999999999              -0.000002574               0.000108582               0.999999999              -0.000001961               0.000114006               0.999999999              -0.000001226               0.000120682               0.999999999              -0.000000230               0.000128593               0.999999999               0.000000931               0.000137795               0.999999999               0.000002131               0.000148051               0.999999999               0.000003343               0.000159241               0.999999999               0.000004453               0.000171406               0.999999999               0.000005467               0.000184560               0.999999999               0.000006451               0.000198602               0.999999999               0.000007295               0.000213395               0.999999999               0.000008003               0.000228864               0.999999999               0.000008631               0.000245053               0.999999999              -0.000000054               0.000103051               0.999999999              -0.000001125               0.000103175               0.999999999              -0.000001464               0.000104409               0.999999999              -0.000001563               0.000107046               0.999999999              -0.000001398               0.000111050               0.999999999              -0.000001169               0.000116453               0.999999999              -0.000000740               0.000123039               0.999999999              -0.000000250               0.000130821               0.999999999               0.000000260               0.000139777               0.999999999               0.000000839               0.000149734               0.999999999               0.000001450               0.000160686               0.999999999               0.000002057               0.000172689               0.999999999               0.000002578               0.000185648               0.999999999               0.000003012               0.000199407               0.999999999               0.000003377               0.000213935               0.999999999               0.000003693               0.000229181               0.999999999               0.000003910               0.000245103               0.999999999               0.000000000               0.000103554               0.999999999               0.000000000               0.000103903               0.999999999               0.000000000               0.000105230               0.999999999              -0.000000000               0.000107876               0.999999999              -0.000000000               0.000111932               0.999999999              -0.000000000               0.000117304               0.999999999              -0.000000000               0.000123856               0.999999999              -0.000000000               0.000131668               0.999999999              -0.000000000               0.000140481               0.999999999              -0.000000000               0.000150311               0.999999999               0.000000000               0.000161262               0.999999999               0.000000000               0.000173185               0.999999999               0.000000000               0.000186040               0.999999999               0.000000000               0.000199738               0.999999999               0.000000000               0.000214190               0.999999999              -0.000000000               0.000229340               0.999999999              -0.000000000               0.000245164               0.999999999 </DataArray>
<DataArray type="Float64"                                    Name="defo"                                                      NumberOfComponents=" 3" format="ascii">
              0.000007198               0.000000000               0.999999999               0.000003048              -0.000000000               0.999999999               0.000001045               0.000000000               0.999999999              -0.000000005               0.000000000               0.999999999              -0.000000530              -0.000000000               0.999999999              -0.000000732               0.000000000               0.999999999              -0.000000796               0.000000000               0.999999999              -0.000000792               0.000000000               0.999999999              -0.000000895               0.000000000               0.999999999              -0.000001241               0.000000000               0.999999999              -0.000001856               0.000000000               0.999999999              -0.000002748              -0.000000000               0.999999999              -0.000003949              -0.000000000               0.999999999              -0.000005623              -0.000000000               0.999999999              -0.000007871              -0.000000000               0.999999999              -0.000010619              -0.000000000               0.999999999              -0.000013905              -0.000000000               0.999999999               0.000007129               0.000010201               0.999999999               0.000003106               0.000009345               0.999999999               0.000001160               0.000009187               0.999999999               0.000000148               0.000009461               0.999999999              -0.000000389               0.000009880               0.999999999              -0.000000681               0.000010478               0.999999999              -0.000000822               0.000011202               0.999999999              -0.000000988               0.000012172               0.999999999              -0.000001320               0.000013423               0.999999999              -0.000001864               0.000014860               0.999999999              -0.000002675               0.000016347               0.999999999              -0.000003805               0.000017954               0.999999999              -0.000005308               0.000019859               0.999999999              -0.000007218               0.000021913               0.999999999              -0.000009592               0.000024151               0.999999999              -0.000012496               0.000026668               0.999999999              -0.000015957               0.000029458               0.999999999               0.000006899               0.000020299               0.999999999               0.000003229               0.000018541               0.999999999               0.000001493               0.000018312               0.999999999               0.000000545               0.000018882               0.999999999              -0.000000065               0.000019830               0.999999999              -0.000000527               0.000021075               0.999999999              -0.000000966               0.000022628               0.999999999              -0.000001599               0.000024703               0.999999999              -0.000002464               0.000027203               0.999999999              -0.000003628               0.000030054               0.999999999              -0.000005089               0.000032959               0.999999999              -0.000006803               0.000036158               0.999999999              -0.000008885               0.000039858               0.999999999              -0.000011421               0.000043800               0.999999999              -0.000014425               0.000048106               0.999999999              -0.000017860               0.000052826               0.999999999              -0.000021735               0.000057925               0.999999999               0.000006551               0.000030188               0.999999999               0.000003472               0.000027507               0.999999999               0.000002011               0.000027275               0.999999999               0.000001077               0.000028231               0.999999999               0.000000356               0.000029819               0.999999999              -0.000000360               0.000031901               0.999999999              -0.000001308               0.000034445               0.999999999              -0.000002544               0.000037759               0.999999999              -0.000004153               0.000041616               0.999999999              -0.000006096               0.000045828               0.999999999              -0.000008314               0.000050131               0.999999999              -0.000010849               0.000054854               0.999999999              -0.000013746               0.000060205               0.999999999              -0.000017018               0.000065937               0.999999999              -0.000020640               0.000072173               0.999999999              -0.000024680               0.000078856               0.999999999              -0.000029178               0.000085910               0.999999999               0.000006079               0.000039734               0.999999999               0.000003802               0.000036188               0.999999999               0.000002590               0.000036023               0.999999999               0.000001667               0.000037492               0.999999999               0.000000759               0.000039858               0.999999999              -0.000000377               0.000042868               0.999999999              -0.000001832               0.000046712               0.999999999              -0.000003815               0.000051358               0.999999999              -0.000006214               0.000056690               0.999999999              -0.000008936               0.000062263               0.999999999              -0.000011985               0.000067958               0.999999999              -0.000015355               0.000074340               0.999999999              -0.000019072               0.000081357               0.999999999              -0.000023142               0.000088865               0.999999999              -0.000027671               0.000096923               0.999999999              -0.000032648               0.000105564               0.999999999              -0.000038049               0.000114782               0.999999999               0.000005513               0.000048877               0.999999999               0.000004174               0.000044505               0.999999999               0.000003189               0.000044532               0.999999999               0.000002168               0.000046590               0.999999999               0.000000944               0.000049832               0.999999999              -0.000000614               0.000053999               0.999999999              -0.000002713               0.000059203               0.999999999              -0.000005386               0.000065452               0.999999999              -0.000008522               0.000072239               0.999999999              -0.000012002               0.000079320               0.999999999              -0.000015797               0.000086726               0.999999999              -0.000019988               0.000094931               0.999999999              -0.000024598               0.000103822               0.999999999              -0.000029662               0.000113371               0.999999999              -0.000035256               0.000123640               0.999999999              -0.000041309               0.000134603               0.999999999              -0.000047783               0.000146299               0.999999999               0.000004897               0.000057560               0.999999999               0.000004565               0.000052423               0.999999999               0.000003705               0.000052741               0.999999999               0.000002477               0.000055499               0.999999999               0.000000895               0.000059715               0.999999999              -0.000001189               0.000065114               0.999999999              -0.000003967               0.000071910               0.999999999              -0.000007377               0.000079672               0.999999999              -0.000011195               0.000088159               0.999999999              -0.000015317               0.000096987               0.999999999              -0.000019809               0.000106438               0.999999999              -0.000024730               0.000116964               0.999999999              -0.000030134               0.000128393               0.999999999              -0.000036079               0.000140551               0.999999999              -0.000042608               0.000153656               0.999999999              -0.000049672               0.000167541               0.999999999              -0.000057186               0.000182111               0.999999999               0.000004212               0.000065614               0.999999999               0.000004937               0.000059944               0.999999999               0.000004101               0.000060665               0.999999999               0.000002606               0.000064184               0.999999999               0.000000622               0.000069447               0.999999999              -0.000002076               0.000076283               0.999999999              -0.000005585               0.000084664               0.999999999              -0.000009667               0.000094170               0.999999999              -0.000014075               0.000104447               0.999999999              -0.000018719               0.000115505               0.999999999              -0.000023690               0.000127648               0.999999999              -0.000029196               0.000141146               0.999999999              -0.000035350               0.000155649               0.999999999              -0.000042137               0.000171041               0.999999999              -0.000049523               0.000187434               0.999999999              -0.000057488               0.000204690               0.999999999              -0.000065911               0.000222736               0.999999999               0.000003486               0.000072898               0.999999999               0.000005276               0.000067080               0.999999999               0.000004342               0.000068240               0.999999999               0.000002588               0.000072596               0.999999999               0.000000169               0.000079055               0.999999999              -0.000003143               0.000087503               0.999999999              -0.000007348               0.000097606               0.999999999              -0.000011936               0.000109080               0.999999999              -0.000016711               0.000121691               0.999999999              -0.000021619               0.000135669               0.999999999              -0.000027097               0.000150983               0.999999999              -0.000033362               0.000167734               0.999999999              -0.000040291               0.000185708               0.999999999              -0.000047844               0.000204781               0.999999999              -0.000056003               0.000224910               0.999999999              -0.000064622               0.000246058               0.999999999              -0.000073547               0.000267858               0.999999999               0.000002675               0.000079681               0.999999999               0.000005380               0.000074304               0.999999999               0.000004875               0.000074788               0.999999999               0.000003384               0.000078454               0.999999999               0.000001375               0.000084217               0.999999999              -0.000001447               0.000091733               0.999999999              -0.000005006               0.000100948               0.999999999              -0.000008964               0.000111600               0.999999999              -0.000013117               0.000123561               0.999999999              -0.000017348               0.000136635               0.999999999              -0.000021748               0.000150924               0.999999999              -0.000026643               0.000166538               0.999999999              -0.000032157               0.000183431               0.999999999              -0.000038138               0.000201254               0.999999999              -0.000044572               0.000220165               0.999999999              -0.000051491               0.000240037               0.999999999              -0.000058925               0.000260952               0.999999999               0.000001928               0.000085769               0.999999999               0.000005199               0.000081137               0.999999999               0.000005161               0.000081325               0.999999999               0.000004038               0.000084432               0.999999999               0.000002388               0.000089548               0.999999999               0.000000125               0.000096363               0.999999999              -0.000002778               0.000104715               0.999999999              -0.000006127               0.000114583               0.999999999              -0.000009811               0.000125764               0.999999999              -0.000013423               0.000138139               0.999999999              -0.000016990               0.000151664               0.999999999              -0.000020791               0.000166321               0.999999999              -0.000025014               0.000182044               0.999999999              -0.000029522               0.000198788               0.999999999              -0.000034295               0.000216450               0.999999999              -0.000039632               0.000235019               0.999999999              -0.000045473               0.000254604               0.999999999               0.000001305               0.000091097               0.999999999               0.000004762               0.000087457               0.999999999               0.000005117               0.000087595               0.999999999               0.000004388               0.000090319               0.999999999               0.000003149               0.000094937               0.999999999               0.000001351               0.000101176               0.999999999              -0.000000935               0.000108831               0.999999999              -0.000003710               0.000117949               0.999999999              -0.000006783               0.000128419               0.999999999              -0.000009854               0.000140210               0.999999999              -0.000012798               0.000153083               0.999999999              -0.000015703               0.000166923               0.999999999              -0.000018777               0.000181692               0.999999999              -0.000022003               0.000197464               0.999999999              -0.000025482               0.000214047               0.999999999              -0.000029218               0.000231468               0.999999999              -0.000033286               0.000249805               0.999999999               0.000000804               0.000095536               0.999999999               0.000004055               0.000093007               0.999999999               0.000004730               0.000093328               0.999999999               0.000004345               0.000095865               0.999999999               0.000003464               0.000100136               0.999999999               0.000002123               0.000105916               0.999999999               0.000000336               0.000113083               0.999999999              -0.000001758               0.000121623               0.999999999              -0.000004140               0.000131585               0.999999999              -0.000006655               0.000142857               0.999999999              -0.000009032               0.000155115               0.999999999              -0.000011298               0.000168188               0.999999999              -0.000013477               0.000182178               0.999999999              -0.000015739               0.000197095               0.999999999              -0.000018114               0.000212921               0.999999999              -0.000020457               0.000229541               0.999999999              -0.000022939               0.000246897               0.999999999               0.000000429               0.000099031               0.999999999               0.000003192               0.000097618               0.999999999               0.000003958               0.000098232               0.999999999               0.000003831               0.000100718               0.999999999               0.000003287               0.000104831               0.999999999               0.000002313               0.000110314               0.999999999               0.000001084               0.000117174               0.999999999              -0.000000392               0.000125383               0.999999999              -0.000002150               0.000134896               0.999999999              -0.000004059               0.000145608               0.999999999              -0.000005881               0.000157288               0.999999999              -0.000007542               0.000169815               0.999999999              -0.000009045               0.000183254               0.999999999              -0.000010579               0.000197595               0.999999999              -0.000012073               0.000212853               0.999999999              -0.000013457               0.000228857               0.999999999              -0.000014833               0.000245537               0.999999999               0.000000184               0.000101540               0.999999999               0.000002205               0.000101048               0.999999999               0.000002820               0.000102008               0.999999999               0.000002888               0.000104573               0.999999999               0.000002574               0.000108582               0.999999999               0.000001961               0.000114006               0.999999999               0.000001226               0.000120682               0.999999999               0.000000230               0.000128593               0.999999999              -0.000000931               0.000137795               0.999999999              -0.000002131               0.000148051               0.999999999              -0.000003343               0.000159241               0.999999999              -0.000004453               0.000171406               0.999999999              -0.000005467               0.000184560               0.999999999              -0.000006451               0.000198602               0.999999999              -0.000007295               0.000213395               0.999999999              -0.000008003               0.000228864               0.999999999              -0.000008631               0.000245053               0.999999999               0.000000054               0.000103051               0.999999999               0.000001125               0.000103175               0.999999999               0.000001464               0.000104409               0.999999999               0.000001563               0.000107046               0.999999999               0.000001398               0.000111050               0.999999999               0.000001169               0.000116453               0.999999999               0.000000740               0.000123039               0.999999999               0.000000250               0.000130821               0.999999999              -0.000000260               0.000139777               0.999999999              -0.000000839               0.000149734               0.999999999              -0.000001450               0.000160686               0.999999999              -0.000002057               0.000172689               0.999999999              -0.000002578               0.000185648               0.999999999              -0.000003012               0.000199407               0.999999999              -0.000003377               0.000213935               0.999999999              -0.000003693               0.000229181               0.999999999              -0.000003910               0.000245103               0.999999999               0.000000000               0.000103554               0.999999999               0.000000000               0.000103903               0.999999999               0.000000000               0.000105230               0.999999999              -0.000000000               0.000107876               0.999999999              -0.000000000               0.000111932               0.999999999              -0.000000000               0.000117304               0.999999999              -0.000000000               0.000123856               0.999999999              -0.000000000               0.000131668               0.999999999              -0.000000000               0.000140481               0.999999999              -0.000000000               0.000150311               0.999999999               0.000000000               0.000161262               0.999999999               0.000000000               0.000173185               0.999999999               0.000000000               0.000186040               0.999999999               0.000000000               0.000199738               0.999999999               0.000000000               0.000214190               0.999999999              -0.000000000               0.000229340               0.999999999              -0.000000000               0.000245164               0.999999999               0.000007198               0.000000000               0.999999999               0.000003048              -0.000000000               0.999999999               0.000001045               0.000000000               0.999999999              -0.000000005               0.000000000               0.999999999              -0.000000530              -0.000000000               0.999999999              -0.000000732               0.000000000               0.999999999              -0.000000796               0.000000000               0.999999999              -0.000000792               0.000000000               0.999999999              -0.000000895               0.000000000               0.999999999              -0.000001241               0.000000000               0.999999999              -0.000001856               0.000000000               0.999999999              -0.000002748              -0.000000000               0.999999999              -0.000003949              -0.000000000               0.999999999              -0.000005623              -0.000000000               0.999999999              -0.000007871              -0.000000000               0.999999999              -0.000010619              -0.000000000               0.999999999              -0.000013905              -0.000000000               0.999999999               0.000007129              -0.000010201               0.999999999               0.000003106              -0.000009345               0.999999999               0.000001160              -0.000009187               0.999999999               0.000000148              -0.000009461               0.999999999              -0.000000389              -0.000009880               0.999999999              -0.000000681              -0.000010478               0.999999999              -0.000000822              -0.000011202               0.999999999              -0.000000988              -0.000012172               0.999999999              -0.000001320              -0.000013423               0.999999999              -0.000001864              -0.000014860               0.999999999              -0.000002675              -0.000016347               0.999999999              -0.000003805              -0.000017954               0.999999999              -0.000005308              -0.000019859               0.999999999              -0.000007218              -0.000021913               0.999999999              -0.000009592              -0.000024151               0.999999999              -0.000012496              -0.000026668               0.999999999              -0.000015957              -0.000029458               0.999999999               0.000006899              -0.000020299               0.999999999               0.000003229              -0.000018541               0.999999999               0.000001493              -0.000018312               0.999999999               0.000000545              -0.000018882               0.999999999              -0.000000065              -0.000019830               0.999999999              -0.000000527              -0.000021075               0.999999999              -0.000000966              -0.000022628               0.999999999              -0.000001599              -0.000024703               0.999999999              -0.000002464              -0.000027203               0.999999999              -0.000003628              -0.000030054               0.999999999              -0.000005089              -0.000032959               0.999999999              -0.000006803              -0.000036158               0.999999999              -0.000008885              -0.000039858               0.999999999              -0.000011421              -0.000043800               0.999999999              -0.000014425              -0.000048106               0.999999999              -0.000017860              -0.000052826               0.999999999              -0.000021735              -0.000057925               0.999999999               0.000006551              -0.000030188               0.999999999               0.000003472              -0.000027507               0.999999999               0.000002011              -0.000027275               0.999999999               0.000001077              -0.000028231               0.999999999               0.000000356              -0.000029819               0.999999999              -0.000000360              -0.000031901               0.999999999              -0.000001308              -0.000034445               0.999999999              -0.000002544              -0.000037759               0.999999999              -0.000004153              -0.000041616               0.999999999              -0.000006096              -0.000045828               0.999999999              -0.000008314              -0.000050131               0.999999999              -0.000010849              -0.000054854               0.999999999              -0.000013746              -0.000060205               0.999999999              -0.000017018              -0.000065937               0.999999999              -0.000020640              -0.000072173               0.999999999              -0.000024680              -0.000078856               0.999999999              -0.000029178              -0.000085910               0.999999999               0.000006079              -0.000039734               0.999999999               0.000003802              -0.000036188               0.999999999               0.000002590              -0.000036023               0.999999999               0.000001667              -0.000037492               0.999999999               0.000000759              -0.000039858               0.999999999              -0.000000377              -0.000042868               0.999999999              -0.000001832              -0.000046712               0.999999999              -0.000003815              -0.000051358               0.999999999              -0.000006214              -0.000056690               0.999999999              -0.000008936              -0.000062263               0.999999999              -0.000011985              -0.000067958               0.999999999              -0.000015355              -0.000074340               0.999999999              -0.000019072              -0.000081357               0.999999999              -0.000023142              -0.000088865               0.999999999              -0.000027671              -0.000096923               0.999999999              -0.000032648              -0.000105564               0.999999999              -0.000038049              -0.000114782               0.999999999               0.000005513              -0.000048877               0.999999999               0.000004174              -0.000044505               0.999999999               0.000003189              -0.000044532               0.999999999               0.000002168              -0.000046590               0.999999999               0.000000944              -0.000049832               0.999999999              -0.000000614              -0.000053999               0.999999999              -0.000002713              -0.000059203               0.999999999              -0.000005386              -0.000065452               0.999999999              -0.000008522              -0.000072239               0.999999999              -0.000012002              -0.000079320               0.999999999              -0.000015797              -0.000086726               0.999999999              -0.000019988              -0.000094931               0.999999999              -0.000024598              -0.000103822               0.999999999              -0.000029662              -0.000113371               0.999999999              -0.000035256              -0.000123640               0.999999999              -0.000041309              -0.000134603               0.999999999              -0.000047783              -0.000146299               0.999999999               0.000004897              -0.000057560               0.999999999               0.000004565              -0.000052423               0.999999999               0.000003705              -0.000052741               0.999999999               0.000002477              -0.000055499               0.999999999               0.000000895              -0.000059715               0.999999999              -0.000001189              -0.000065114               0.999999999              -0.000003967              -0.000071910               0.999999999              -0.000007377              -0.000079672               0.999999999              -0.000011195              -0.000088159               0.999999999              -0.000015317              -0.000096987               0.999999999              -0.000019809              -0.000106438               0.999999999              -0.000024730              -0.000116964               0.999999999              -0.000030134              -0.000128393               0.999999999              -0.000036079              -0.000140551               0.999999999              -0.000042608              -0.000153656               0.999999999              -0.000049672              -0.000167541               0.999999999              -0.000057186              -0.000182111               0.999999999               0.000004212              -0.000065614               0.999999999               0.000004937              -0.000059944               0.999999999               0.000004101              -0.000060665               0.999999999               0.000002606              -0.000064184               0.999999999               0.000000622              -0.000069447               0.999999999              -0.000002076              -0.000076283               0.999999999              -0.000005585              -0.000084664               0.999999999              -0.000009667              -0.000094170               0.999999999              -0.000014075              -0.000104447               0.999999999              -0.000018719              -0.000115505               0.999999999              -0.000023690              -0.000127648               0.999999999              -0.000029196              -0.000141146               0.999999999              -0.000035350              -0.000155649               0.999999999              -0.000042137              -0.000171041               0.999999999              -0.000049523              -0.000187434               0.999999999              -0.000057488              -0.000204690               0.999999999              -0.000065911              -0.000222736               0.999999999               0.000003486              -0.000072898               0.999999999               0.000005276              -0.000067080               0.999999999               0.000004342              -0.000068240               0.999999999               0.000002588              -0.000072596               0.999999999               0.000000169              -0.000079055               0.999999999              -0.000003143              -0.000087503               0.999999999              -0.000007348              -0.000097606               0.999999999              -0.000011936              -0.000109080               0.999999999              -0.000016711              -0.000121691               0.999999999              -0.000021619              -0.000135669               0.999999999              -0.000027097              -0.000150983               0.999999999              -0.000033362              -0.000167734               0.999999999              -0.000040291              -0.000185708               0.999999999              -0.000047844              -0.000204781               0.999999999              -0.000056003              -0.000224910               0.999999999              -0.000064622              -0.000246058               0.999999999              -0.000073547              -0.000267858               0.999999999               0.000002675              -0.000079681               0.999999999               0.000005380              -0.000074304               0.999999999               0.000004875              -0.000074788               0.999999999               0.000003384              -0.000078454               0.999999999               0.000001375              -0.000084217               0.999999999              -0.000001447              -0.000091733               0.999999999              -0.000005006              -0.000100948               0.999999999              -0.000008964              -0.000111600               0.999999999              -0.000013117              -0.000123561               0.999999999              -0.000017348              -0.000136635               0.999999999              -0.000021748              -0.000150924               0.999999999              -0.000026643              -0.000166538               0.999999999              -0.000032157              -0.000183431               0.999999999              -0.000038138              -0.000201254               0.999999999              -0.000044572              -0.000220165               0.999999999              -0.000051491              -0.000240037               0.999999999              -0.000058925              -0.000260952               0.999999999               0.000001928              -0.000085769               0.999999999               0.000005199              -0.000081137               0.999999999               0.000005161              -0.000081325               0.999999999               0.000004038              -0.000084432               0.999999999               0.000002388              -0.000089548               0.999999999               0.000000125              -0.000096363               0.999999999              -0.000002778              -0.000104715               0.999999999              -0.000006127              -0.000114583               0.999999999              -0.000009811              -0.000125764               0.999999999              -0.000013423              -0.000138139               0.999999999              -0.000016990              -0.000151664               0.999999999              -0.000020791              -0.000166321               0.999999999              -0.000025014              -0.000182044               0.999999999              -0.000029522              -0.000198788               0.999999999              -0.000034295              -0.000216450               0.999999999              -0.000039632              -0.000235019               0.999999999              -0.000045473              -0.000254604               0.999999999               0.000001305              -0.000091097               0.999999999               0.000004762              -0.000087457               0.999999999               0.000005117              -0.000087595               0.999999999               0.000004388              -0.000090319               0.999999999               0.000003149              -0.000094937               0.999999999               0.000001351              -0.000101176               0.999999999              -0.000000935              -0.000108831               0.999999999              -0.000003710              -0.000117949               0.999999999              -0.000006783              -0.000128419               0.999999999              -0.000009854              -0.000140210               0.999999999              -0.000012798              -0.000153083               0.999999999              -0.000015703              -0.000166923               0.999999999              -0.000018777              -0.000181692               0.999999999              -0.000022003              -0.000197464               0.999999999              -0.000025482              -0.000214047               0.999999999              -0.000029218              -0.000231468               0.999999999              -0.000033286              -0.000249805               0.999999999               0.000000804              -0.000095536               0.999999999               0.000004055              -0.000093007               0.999999999               0.000004730              -0.000093328               0.999999999               0.000004345              -0.000095865               0.999999999               0.000003464              -0.000100136               0.999999999               0.000002123              -0.000105916               0.999999999               0.000000336              -0.000113083               0.999999999              -0.000001758              -0.000121623               0.999999999              -0.000004140              -0.000131585               0.999999999              -0.000006655              -0.000142857               0.999999999              -0.000009032              -0.000155115               0.999999999              -0.000011298              -0.000168188               0.999999999              -0.000013477              -0.000182178               0.999999999              -0.000015739              -0.000197095               0.999999999              -0.000018114              -0.000212921               0.999999999              -0.000020457              -0.000229541               0.999999999              -0.000022939              -0.000246897               0.999999999               0.000000429              -0.000099031               0.999999999               0.000003192              -0.000097618               0.999999999               0.000003958              -0.000098232               0.999999999               0.000003831              -0.000100718               0.999999999               0.000003287              -0.000104831               0.999999999               0.000002313              -0.000110314               0.999999999               0.000001084              -0.000117174               0.999999999              -0.000000392              -0.000125383               0.999999999              -0.000002150              -0.000134896               0.999999999              -0.000004059              -0.000145608               0.999999999              -0.000005881              -0.000157288               0.999999999              -0.000007542              -0.000169815               0.999999999              -0.000009045              -0.000183254               0.999999999              -0.000010579              -0.000197595               0.999999999              -0.000012073              -0.000212853               0.999999999              -0.000013457              -0.000228857               0.999999999              -0.000014833              -0.000245537               0.999999999               0.000000184              -0.000101540               0.999999999               0.000002205              -0.000101048               0.999999999               0.000002820              -0.000102008               0.999999999               0.000002888              -0.000104573               0.999999999               0.000002574              -0.000108582               0.999999999               0.000001961              -0.000114006               0.999999999               0.000001226              -0.000120682               0.999999999               0.000000230              -0.000128593               0.999999999              -0.000000931              -0.000137795               0.999999999              -0.000002131              -0.000148051               0.999999999              -0.000003343              -0.000159241               0.999999999              -0.000004453              -0.000171406               0.999999999              -0.000005467              -0.000184560               0.999999999              -0.000006451              -0.000198602               0.999999999              -0.000007295              -0.000213395               0.999999999              -0.000008003              -0.000228864               0.999999999              -0.000008631              -0.000245053               0.999999999               0.000000054              -0.000103051               0.999999999               0.000001125              -0.000103175               0.999999999               0.000001464              -0.000104409               0.999999999               0.000001563              -0.000107046               0.999999999               0.000001398              -0.000111050               0.999999999               0.000001169              -0.000116453               0.999999999               0.000000740              -0.000123039               0.999999999               0.000000250              -0.000130821               0.999999999              -0.000000260              -0.000139777               0.999999999              -0.000000839              -0.000149734               0.999999999              -0.000001450              -0.000160686               0.999999999              -0.000002057              -0.000172689               0.999999999              -0.000002578              -0.000185648               0.999999999              -0.000003012              -0.000199407               0.999999999              -0.000003377              -0.000213935               0.999999999              -0.000003693              -0.000229181               0.999999999              -0.000003910              -0.000245103               0.999999999               0.000000000              -0.000103554               0.999999999              -0.000000000              -0.000103903               0.999999999              -0.000000000              -0.000105230               0.999999999              -0.000000000              -0.000107876               0.999999999               0.000000000              -0.000111932               0.999999999               0.000000000              -0.000117304               0.999999999               0.000000000              -0.000123856               0.999999999              -0.000000000              -0.000131668               0.999999999              -0.000000000              -0.000140481               0.999999999               0.000000000              -0.000150311               0.999999999              -0.000000000              -0.000161262               0.999999999              -0.000000000              -0.000173185               0.999999999              -0.000000000              -0.000186040               0.999999999              -0.000000000              -0.000199738               0.999999999              -0.000000000              -0.000214190               0.999999999               0.000000000              -0.000229340               0.999999999               0.000000000              -0.000245164               0.999999999              -0.000007198               0.000000000               0.999999999              -0.000003048              -0.000000000               0.999999999              -0.000001045              -0.000000000               0.999999999               0.000000005              -0.000000000               0.999999999               0.000000530              -0.000000000               0.999999999               0.000000732               0.000000000               0.999999999               0.000000796               0.000000000               0.999999999               0.000000792              -0.000000000               0.999999999               0.000000895              -0.000000000               0.999999999               0.000001241              -0.000000000               0.999999999               0.000001856              -0.000000000               0.999999999               0.000002748              -0.000000000               0.999999999               0.000003949              -0.000000000               0.999999999               0.000005623              -0.000000000               0.999999999               0.000007871              -0.000000000               0.999999999               0.000010619              -0.000000000               0.999999999               0.000013905              -0.000000000               0.999999999              -0.000007129              -0.000010201               0.999999999              -0.000003106              -0.000009345               0.999999999              -0.000001160              -0.000009187               0.999999999              -0.000000148              -0.000009461               0.999999999               0.000000389              -0.000009880               0.999999999               0.000000681              -0.000010478               0.999999999               0.000000822              -0.000011202               0.999999999               0.000000988              -0.000012172               0.999999999               0.000001320              -0.000013423               0.999999999               0.000001864              -0.000014860               0.999999999               0.000002675              -0.000016347               0.999999999               0.000003805              -0.000017954               0.999999999               0.000005308              -0.000019859               0.999999999               0.000007218              -0.000021913               0.999999999               0.000009592              -0.000024151               0.999999999               0.000012496              -0.000026668               0.999999999               0.000015957              -0.000029458               0.999999999              -0.000006899              -0.000020299               0.999999999              -0.000003229              -0.000018541               0.999999999              -0.000001493              -0.000018312               0.999999999              -0.000000545              -0.000018882               0.999999999               0.000000065              -0.000019830               0.999999999               0.000000527              -0.000021075               0.999999999               0.000000966              -0.000022628               0.999999999               0.000001599              -0.000024703               0.999999999               0.000002464              -0.000027203               0.999999999               0.000003628              -0.000030054               0.999999999               0.000005089              -0.000032959               0.999999999               0.000006803              -0.000036158               0.999999999               0.000008885              -0.000039858               0.999999999               0.000011421              -0.000043800               0.999999999               0.000014425              -0.000048106               0.999999999               0.000017860              -0.000052826               0.999999999               0.000021735              -0.000057925               0.999999999              -0.000006551              -0.000030188               0.999999999              -0.000003472              -0.000027507               0.999999999              -0.000002011              -0.000027275               0.999999999              -0.000001077              -0.000028231               0.999999999              -0.000000356              -0.000029819               0.999999999               0.000000360              -0.000031901               0.999999999               0.000001308              -0.000034445               0.999999999               0.000002544              -0.000037759               0.999999999               0.000004153              -0.000041616               0.999999999               0.000006096              -0.000045828               0.999999999               0.000008314              -0.000050131               0.999999999               0.000010849              -0.000054854               0.999999999               0.000013746              -0.000060205               0.999999999               0.000017018              -0.000065937               0.999999999               0.000020640              -0.000072173               0.999999999               0.000024680              -0.000078856               0.999999999               0.000029178              -0.000085910               0.999999999              -0.000006079              -0.000039734               0.999999999              -0.000003802              -0.000036188               0.999999999              -0.000002590              -0.000036023               0.999999999              -0.000001667              -0.000037492               0.999999999              -0.000000759              -0.000039858               0.999999999               0.000000377              -0.000042868               0.999999999               0.000001832              -0.000046712               0.999999999               0.000003815              -0.000051358               0.999999999               0.000006214              -0.000056690               0.999999999               0.000008936              -0.000062263               0.999999999               0.000011985              -0.000067958               0.999999999               0.000015355              -0.000074340               0.999999999               0.000019072              -0.000081357               0.999999999               0.000023142              -0.000088865               0.999999999               0.000027671              -0.000096923               0.999999999               0.000032648              -0.000105564               0.999999999               0.000038049              -0.000114782               0.999999999              -0.000005513              -0.000048877               0.999999999              -0.000004174              -0.000044505               0.999999999              -0.000003189              -0.000044532               0.999999999              -0.000002168              -0.000046590               0.999999999              -0.000000944              -0.000049832               0.999999999               0.000000614              -0.000053999               0.999999999               0.000002713              -0.000059203               0.999999999               0.000005386              -0.000065452               0.999999999               0.000008522              -0.000072239               0.999999999               0.000012002              -0.000079320               0.999999999               0.000015797              -0.000086726               0.999999999               0.000019988              -0.000094931               0.999999999               0.000024598              -0.000103822               0.999999999               0.000029662              -0.000113371               0.999999999               0.000035256              -0.000123640               0.999999999               0.000041309              -0.000134603               0.999999999               0.000047783              -0.000146299               0.999999999              -0.000004897              -0.000057560               0.999999999              -0.000004565              -0.000052423               0.999999999              -0.000003705              -0.000052741               0.999999999              -0.000002477              -0.000055499               0.999999999              -0.000000895              -0.000059715               0.999999999               0.000001189              -0.000065114               0.999999999               0.000003967              -0.000071910               0.999999999               0.000007377              -0.000079672               0.999999999               0.000011195              -0.000088159               0.999999999               0.000015317              -0.000096987               0.999999999               0.000019809              -0.000106438               0.999999999               0.000024730              -0.000116964               0.999999999               0.000030134              -0.000128393               0.999999999               0.000036079              -0.000140551               0.999999999               0.000042608              -0.000153656               0.999999999               0.000049672              -0.000167541               0.999999999               0.000057186              -0.000182111               0.999999999              -0.000004212              -0.000065614               0.999999999              -0.000004937              -0.000059944               0.999999999              -0.000004101              -0.000060665               0.999999999              -0.000002606              -0.000064184               0.999999999              -0.000000622              -0.000069447               0.999999999               0.000002076              -0.000076283               0.999999999               0.000005585              -0.000084664               0.999999999               0.000009667              -0.000094170               0.999999999               0.000014075              -0.000104447               0.999999999               0.000018719              -0.000115505               0.999999999               0.000023690              -0.000127648               0.999999999               0.000029196              -0.000141146               0.999999999               0.000035350              -0.000155649               0.999999999               0.000042137              -0.000171041               0.999999999               0.000049523              -0.000187434               0.999999999               0.000057488              -0.000204690               0.999999999               0.000065911              -0.000222736               0.999999999              -0.000003486              -0.000072898               0.999999999              -0.000005276              -0.000067080               0.999999999              -0.000004342              -0.000068240               0.999999999              -0.000002588              -0.000072596               0.999999999              -0.000000169              -0.000079055               0.999999999               0.000003143              -0.000087503               0.999999999               0.000007348              -0.000097606               0.999999999               0.000011936              -0.000109080               0.999999999               0.000016711              -0.000121691               0.999999999               0.000021619              -0.000135669               0.999999999               0.000027097              -0.000150983               0.999999999               0.000033362              -0.000167734               0.999999999               0.000040291              -0.000185708               0.999999999               0.000047844              -0.000204781               0.999999999               0.000056003              -0.000224910               0.999999999               0.000064622              -0.000246058               0.999999999               0.000073547              -0.000267858               0.999999999              -0.000002675              -0.000079681               0.999999999              -0.000005380              -0.000074304               0.999999999              -0.000004875              -0.000074788               0.999999999              -0.000003384              -0.000078454               0.999999999              -0.000001375              -0.000084217               0.999999999               0.000001447              -0.000091733               0.999999999               0.000005006              -0.000100948               0.999999999               0.000008964              -0.000111600               0.999999999               0.000013117              -0.000123561               0.999999999               0.000017348              -0.000136635               0.999999999               0.000021748              -0.000150924               0.999999999               0.000026643              -0.000166538               0.999999999               0.000032157              -0.000183431               0.999999999               0.000038138              -0.000201254               0.999999999               0.000044572              -0.000220165               0.999999999               0.000051491              -0.000240037               0.999999999               0.000058925              -0.000260952               0.999999999              -0.000001928              -0.000085769               0.999999999              -0.000005199              -0.000081137               0.999999999              -0.000005161              -0.000081325               0.999999999              -0.000004038              -0.000084432               0.999999999              -0.000002388              -0.000089548               0.999999999              -0.000000125              -0.000096363               0.999999999               0.000002778              -0.000104715               0.999999999               0.000006127              -0.000114583               0.999999999               0.000009811              -0.000125764               0.999999999               0.000013423              -0.000138139               0.999999999               0.000016990              -0.000151664               0.999999999               0.000020791              -0.000166321               0.999999999               0.000025014              -0.000182044               0.999999999               0.000029522              -0.000198788               0.999999999               0.000034295              -0.000216450               0.999999999               0.000039632              -0.000235019               0.999999999               0.000045473              -0.000254604               0.999999999              -0.000001305              -0.000091097               0.999999999              -0.000004762              -0.000087457               0.999999999              -0.000005117              -0.000087595               0.999999999              -0.000004388              -0.000090319               0.999999999              -0.000003149              -0.000094937               0.999999999              -0.000001351              -0.000101176               0.999999999               0.000000935              -0.000108831               0.999999999               0.000003710              -0.000117949               0.999999999               0.000006783              -0.000128419               0.999999999               0.000009854              -0.000140210               0.999999999               0.000012798              -0.000153083               0.999999999               0.000015703              -0.000166923               0.999999999               0.000018777              -0.000181692               0.999999999               0.000022003              -0.000197464               0.999999999               0.000025482              -0.000214047               0.999999999               0.000029218              -0.000231468               0.999999999               0.000033286              -0.000249805               0.999999999              -0.000000804              -0.000095536               0.999999999              -0.000004055              -0.000093007               0.999999999              -0.000004730              -0.000093328               0.999999999              -0.000004345              -0.000095865               0.999999999              -0.000003464              -0.000100136               0.999999999              -0.000002123              -0.000105916               0.999999999              -0.000000336              -0.000113083               0.999999999               0.000001758              -0.000121623               0.999999999               0.000004140              -0.000131585               0.999999999               0.000006655              -0.000142857               0.999999999               0.000009032              -0.000155115               0.999999999               0.000011298              -0.000168188               0.999999999               0.000013477              -0.000182178               0.999999999               0.000015739              -0.000197095               0.999999999               0.000018114              -0.000212921               0.999999999               0.000020457              -0.000229541               0.999999999               0.000022939              -0.000246897               0.999999999              -0.000000429              -0.000099031               0.999999999              -0.000003192              -0.000097618               0.999999999              -0.000003958              -0.000098232               0.999999999              -0.000003831              -0.000100718               0.999999999              -0.000003287              -0.000104831               0.999999999              -0.000002313              -0.000110314               0.999999999              -0.000001084              -0.000117174               0.999999999               0.000000392              -0.000125383               0.999999999               0.000002150              -0.000134896               0.999999999               0.000004059              -0.000145608               0.999999999               0.000005881              -0.000157288               0.999999999               0.000007542              -0.000169815               0.999999999               0.000009045              -0.000183254               0.999999999               0.000010579              -0.000197595               0.999999999               0.000012073              -0.000212853               0.999999999               0.000013457              -0.000228857               0.999999999               0.000014833              -0.000245537               0.999999999              -0.000000184              -0.000101540               0.999999999              -0.000002205              -0.000101048               0.999999999              -0.000002820              -0.000102008               0.999999999              -0.000002888              -0.000104573               0.999999999              -0.000002574              -0.000108582               0.999999999              -0.000001961              -0.000114006               0.999999999              -0.000001226              -0.000120682               0.999999999              -0.000000230              -0.000128593               0.999999999               0.000000931              -0.000137795               0.999999999               0.000002131              -0.000148051               0.999999999               0.000003343              -0.000159241               0.999999999               0.000004453              -0.000171406               0.999999999               0.000005467              -0.000184560               0.999999999               0.000006451              -0.000198602               0.999999999               0.000007295              -0.000213395               0.999999999               0.000008003              -0.000228864               0.999999999               0.000008631              -0.000245053               0.999999999              -0.000000054              -0.000103051               0.999999999              -0.000001125              -0.000103175               0.999999999              -0.000001464              -0.000104409               0.999999999              -0.000001563              -0.000107046               0.999999999              -0.000001398              -0.000111050               0.999999999              -0.000001169              -0.000116453               0.999999999              -0.000000740              -0.000123039               0.999999999              -0.000000250              -0.000130821               0.999999999               0.000000260              -0.000139777               0.999999999               0.000000839              -0.000149734               0.999999999               0.000001450              -0.000160686               0.999999999               0.000002057              -0.000172689               0.999999999               0.000002578              -0.000185648               0.999999999               0.000003012              -0.000199407               0.999999999               0.000003377              -0.000213935               0.999999999               0.000003693              -0.000229181               0.999999999               0.000003910              -0.000245103               0.999999999               0.000000000              -0.000103554               0.999999999              -0.000000000              -0.000103903               0.999999999              -0.000000000              -0.000105230               0.999999999              -0.000000000              -0.000107876               0.999999999               0.000000000              -0.000111932               0.999999999               0.000000000              -0.000117304               0.999999999               0.000000000              -0.000123856               0.999999999              -0.000000000              -0.000131668               0.999999999              -0.000000000              -0.000140481               0.999999999               0.000000000              -0.000150311               0.999999999              -0.000000000              -0.000161262               0.999999999              -0.000000000              -0.000173185               0.999999999              -0.000000000              -0.000186040               0.999999999              -0.000000000              -0.000199738               0.999999999              -0.000000000              -0.000214190               0.999999999               0.000000000              -0.000229340               0.999999999               0.000000000              -0.000245164               0.999999999              -0.000007198               0.000000000               0.999999999              -0.000003048              -0.000000000               0.999999999              -0.000001045              -0.000000000               0.999999999               0.000000005              -0.000000000               0.999999999               0.000000530              -0.000000000               0.999999999               0.000000732               0.000000000               0.999999999               0.000000796               0.000000000               0.999999999               0.000000792              -0.000000000               0.999999999               0.000000895              -0.000000000               0.999999999               0.000001241              -0.000000000               0.999999999               0.000001856              -0.000000000               0.999999999               0.000002748              -0.000000000               0.999999999               0.000003949              -0.000000000               0.999999999               0.000005623              -0.000000000               0.999999999               0.000007871              -0.000000000               0.999999999               0.000010619              -0.000000000               0.999999999               0.000013905              -0.000000000               0.999999999              -0.000007129               0.000010201               0.999999999              -0.000003106               0.000009345               0.999999999              -0.000001160               0.000009187               0.999999999              -0.000000148               0.000009461               0.999999999               0.000000389               0.000009880               0.999999999               0.000000681               0.000010478               0.999999999               0.000000822               0.000011202               0.999999999               0.000000988               0.000012172               0.999999999               0.000001320               0.000013423               0.999999999               0.000001864               0.000014860               0.999999999               0.000002675               0.000016347               0.999999999               0.000003805               0.000017954               0.999999999               0.000005308               0.000019859               0.999999999               0.000007218               0.000021913               0.999999999               0.000009592               0.000024151               0.999999999               0.000012496               0.000026668               0.999999999               0.000015957               0.000029458               0.999999999              -0.000006899               0.000020299               0.999999999              -0.000003229               0.000018541               0.999999999              -0.000001493               0.000018312               0.999999999              -0.000000545               0.000018882               0.999999999               0.000000065               0.000019830               0.999999999               0.000000527               0.000021075               0.999999999               0.000000966               0.000022628               0.999999999               0.000001599               0.000024703               0.999999999               0.000002464               0.000027203               0.999999999               0.000003628               0.000030054               0.999999999               0.000005089               0.000032959               0.999999999               0.000006803               0.000036158               0.999999999               0.000008885               0.000039858               0.999999999               0.000011421               0.000043800               0.999999999               0.000014425               0.000048106               0.999999999               0.000017860               0.000052826               0.999999999               0.000021735               0.000057925               0.999999999              -0.000006551               0.000030188               0.999999999              -0.000003472               0.000027507               0.999999999              -0.000002011               0.000027275               0.999999999              -0.000001077               0.000028231               0.999999999              -0.000000356               0.000029819               0.999999999               0.000000360               0.000031901               0.999999999               0.000001308               0.000034445               0.999999999               0.000002544               0.000037759               0.999999999               0.000004153               0.000041616               0.999999999               0.000006096               0.000045828               0.999999999               0.000008314               0.000050131               0.999999999               0.000010849               0.000054854               0.999999999               0.000013746               0.000060205               0.999999999               0.000017018               0.000065937               0.999999999               0.000020640               0.000072173               0.999999999               0.000024680               0.000078856               0.999999999               0.000029178               0.000085910               0.999999999              -0.000006079               0.000039734               0.999999999              -0.000003802               0.000036188               0.999999999              -0.000002590               0.000036023               0.999999999              -0.000001667               0.000037492               0.999999999              -0.000000759               0.000039858               0.999999999               0.000000377               0.000042868               0.999999999               0.000001832               0.000046712               0.999999999               0.000003815               0.000051358               0.999999999               0.000006214               0.000056690               0.999999999               0.000008936               0.000062263               0.999999999               0.000011985               0.000067958               0.999999999               0.000015355               0.000074340               0.999999999               0.000019072               0.000081357               0.999999999               0.000023142               0.000088865               0.999999999               0.000027671               0.000096923               0.999999999               0.000032648               0.000105564               0.999999999               0.000038049               0.000114782               0.999999999              -0.000005513               0.000048877               0.999999999              -0.000004174               0.000044505               0.999999999              -0.000003189               0.000044532               0.999999999              -0.000002168               0.000046590               0.999999999              -0.000000944               0.000049832               0.999999999               0.000000614               0.000053999               0.999999999               0.000002713               0.000059203               0.999999999               0.000005386               0.000065452               0.999999999               0.000008522               0.000072239               0.999999999               0.000012002               0.000079320               0.999999999               0.000015797               0.000086726               0.999999999               0.000019988               0.000094931               0.999999999               0.000024598               0.000103822               0.999999999               0.000029662               0.000113371               0.999999999               0.000035256               0.000123640               0.999999999               0.000041309               0.000134603               0.999999999               0.000047783               0.000146299               0.999999999              -0.000004897               0.000057560               0.999999999              -0.000004565               0.000052423               0.999999999              -0.000003705               0.000052741               0.999999999              -0.000002477               0.000055499               0.999999999              -0.000000895               0.000059715               0.999999999               0.000001189               0.000065114               0.999999999               0.000003967               0.000071910               0.999999999               0.000007377               0.000079672               0.999999999               0.000011195               0.000088159               0.999999999               0.000015317               0.000096987               0.999999999               0.000019809               0.000106438               0.999999999               0.000024730               0.000116964               0.999999999               0.000030134               0.000128393               0.999999999               0.000036079               0.000140551               0.999999999               0.000042608               0.000153656               0.999999999               0.000049672               0.000167541               0.999999999               0.000057186               0.000182111               0.999999999              -0.000004212               0.000065614               0.999999999              -0.000004937               0.000059944               0.999999999              -0.000004101               0.000060665               0.999999999              -0.000002606               0.000064184               0.999999999              -0.000000622               0.000069447               0.999999999               0.000002076               0.000076283               0.999999999               0.000005585               0.000084664               0.999999999               0.000009667               0.000094170               0.999999999               0.000014075               0.000104447               0.999999999               0.000018719               0.000115505               0.999999999               0.000023690               0.000127648               0.999999999               0.000029196               0.000141146               0.999999999               0.000035350               0.000155649               0.999999999               0.000042137               0.000171041               0.999999999               0.000049523               0.000187434               0.999999999               0.000057488               0.000204690               0.999999999               0.000065911               0.000222736               0.999999999              -0.000003486               0.000072898               0.999999999              -0.000005276               0.000067080               0.999999999              -0.000004342               0.000068240               0.999999999              -0.000002588               0.000072596               0.999999999              -0.000000169               0.000079055               0.999999999               0.000003143               0.000087503               0.999999999               0.000007348               0.000097606               0.999999999               0.000011936               0.000109080               0.999999999               0.000016711               0.000121691               0.999999999               0.000021619               0.000135669               0.999999999               0.000027097               0.000150983               0.999999999               0.000033362               0.000167734               0.999999999               0.000040291               0.000185708               0.999999999               0.000047844               0.000204781               0.999999999               0.000056003               0.000224910               0.999999999               0.000064622               0.000246058               0.999999999               0.000073547               0.000267858               0.999999999              -0.000002675               0.000079681               0.999999999              -0.000005380               0.000074304               0.999999999              -0.000004875               0.000074788               0.999999999              -0.000003384               0.000078454               0.999999999              -0.000001375               0.000084217               0.999999999               0.000001447               0.000091733               0.999999999               0.000005006               0.000100948               0.999999999               0.000008964               0.000111600               0.999999999               0.000013117               0.000123561               0.999999999               0.000017348               0.000136635               0.999999999               0.000021748               0.000150924               0.999999999               0.000026643               0.000166538               0.999999999               0.000032157               0.000183431               0.999999999               0.000038138               0.000201254               0.999999999               0.000044572               0.000220165               0.999999999               0.000051491               0.000240037               0.999999999               0.000058925               0.000260952               0.999999999              -0.000001928               0.000085769               0.999999999              -0.000005199               0.000081137               0.999999999              -0.000005161               0.000081325               0.999999999              -0.000004038               0.000084432               0.999999999              -0.000002388               0.000089548               0.999999999              -0.000000125               0.000096363               0.999999999               0.000002778               0.000104715               0.999999999               0.000006127               0.000114583               0.999999999               0.000009811               0.000125764               0.999999999               0.000013423               0.000138139               0.999999999               0.000016990               0.000151664               0.999999999               0.000020791               0.000166321               0.999999999               0.000025014               0.000182044               0.999999999               0.000029522               0.000198788               0.999999999               0.000034295               0.000216450               0.999999999               0.000039632               0.000235019               0.999999999               0.000045473               0.000254604               0.999999999              -0.000001305               0.000091097               0.999999999              -0.000004762               0.000087457               0.999999999              -0.000005117               0.000087595               0.999999999              -0.000004388               0.000090319               0.999999999              -0.000003149               0.000094937               0.999999999              -0.000001351               0.000101176               0.999999999               0.000000935               0.000108831               0.999999999               0.000003710               0.000117949               0.999999999               0.000006783               0.000128419               0.999999999               0.000009854               0.000140210               0.999999999               0.000012798               0.000153083               0.999999999               0.000015703               0.000166923               0.999999999               0.000018777               0.000181692               0.999999999               0.000022003               0.000197464               0.999999999               0.000025482               0.000214047               0.999999999               0.000029218               0.000231468               0.999999999               0.000033286               0.000249805               0.999999999              -0.000000804               0.000095536               0.999999999              -0.000004055               0.000093007               0.999999999              -0.000004730               0.000093328               0.999999999              -0.000004345               0.000095865               0.999999999              -0.000003464               0.000100136               0.999999999              -0.000002123               0.000105916               0.999999999              -0.000000336               0.000113083               0.999999999               0.000001758               0.000121623               0.999999999               0.000004140               0.000131585               0.999999999               0.000006655               0.000142857               0.999999999               0.000009032               0.000155115               0.999999999               0.000011298               0.000168188               0.999999999               0.000013477               0.000182178               0.999999999               0.000015739               0.000197095               0.999999999               0.000018114               0.000212921               0.999999999               0.000020457               0.000229541               0.999999999               0.000022939               0.000246897               0.999999999              -0.000000429               0.000099031               0.999999999              -0.000003192               0.000097618               0.999999999              -0.000003958               0.000098232               0.999999999              -0.000003831               0.000100718               0.999999999              -0.000003287               0.000104831               0.999999999              -0.000002313               0.000110314               0.999999999              -0.000001084               0.000117174               0.999999999               0.000000392               0.000125383               0.999999999               0.000002150               0.000134896               0.999999999               0.000004059               0.000145608               0.999999999               0.000005881               0.000157288               0.999999999               0.000007542               0.000169815               0.999999999               0.000009045               0.000183254               0.999999999               0.000010579               0.000197595               0.999999999               0.000012073               0.000212853               0.999999999               0.000013457               0.000228857               0.999999999               0.000014833               0.000245537               0.999999999              -0.000000184               0.000101540               0.999999999              -0.000002205               0.000101048               0.999999999              -0.000002820               0.000102008               0.999999999              -0.000002888               0.000104573               0.999999999              -0.000002574               0.000108582               0.999999999              -0.000001961               0.000114006               0.999999999              -0.000001226               0.000120682               0.999999999              -0.000000230               0.000128593               0.999999999               0.000000931               0.000137795               0.999999999               0.000002131               0.000148051               0.999999999               0.000003343               0.000159241               0.999999999               0.000004453               0.000171406               0.999999999               0.000005467               0.000184560               0.999999999               0.000006451               0.000198602               0.999999999               0.000007295               0.000213395               0.999999999               0.000008003               0.000228864               0.999999999               0.000008631               0.000245053               0.999999999              -0.000000054               0.000103051               0.999999999              -0.000001125               0.000103175               0.999999999              -0.000001464               0.000104409               0.999999999              -0.000001563               0.000107046               0.999999999              -0.000001398               0.000111050               0.999999999              -0.000001169               0.000116453               0.999999999              -0.000000740               0.000123039               0.999999999              -0.000000250               0.000130821               0.999999999               0.000000260               0.000139777               0.999999999               0.000000839               0.000149734               0.999999999               0.000001450               0.000160686               0.999999999               0.000002057               0.000172689               0.999999999               0.000002578               0.000185648               0.999999999               0.000003012               0.000199407               0.999999999               0.000003377               0.000213935               0.999999999               0.000003693               0.000229181               0.999999999               0.000003910               0.000245103               0.999999999               0.000000000               0.000103554               0.999999999               0.000000000               0.000103903               0.999999999               0.000000000               0.000105230               0.999999999              -0.000000000               0.000107876               0.999999999              -0.000000000               0.000111932               0.999999999              -0.000000000               0.000117304               0.999999999              -0.000000000               0.000123856               0.999999999              -0.000000000               0.000131668               0.999999999              -0.000000000               0.000140481               0.999999999              -0.000000000               0.000150311               0.999999999               0.000000000               0.000161262               0.999999999               0.000000000               0.000173185               0.999999999               0.000000000               0.000186040               0.999999999               0.000000000               0.000199738               0.999999999               0.000000000               0.000214190               0.999999999              -0.000000000               0.000229340               0.999999999              -0.000000000               0.000245164               0.999999999 </DataArray>
<DataArray type="Float64"                                    Name="stress"                                                      NumberOfComponents="10" format="ascii">
              0.000167360               0.001930254               0.000000000              -0.000178521               0.000702919               0.000524397               0.000000000               0.000000000               0.000000000               0.000000000               0.000196408               0.001626500              -0.000000000              -0.000129659               0.000585381               0.000455722               0.000000000               0.000000000               0.000000000               0.000000000               0.000286455               0.001378513              -0.000000000              -0.000064893               0.000481131               0.000416237               0.000000000               0.000000000               0.000000000               0.000000000               0.000323204               0.001240546              -0.000000000              -0.000033867               0.000424800               0.000390933               0.000000000               0.000000000               0.000000000               0.000000000               0.000340355               0.001153280              -0.000000000              -0.000016527               0.000389932               0.000373405               0.000000000               0.000000000               0.000000000               0.000000000               0.000347432               0.001098131              -0.000000000              -0.000006979               0.000368367               0.000361387               0.000000000               0.000000000               0.000000000               0.000000000               0.000346841               0.001064707              -0.000000000              -0.000003023               0.000355906               0.000352884               0.000000000               0.000000000               0.000000000               0.000000000               0.000337767               0.001052253              -0.000000000              -0.000004869               0.000352370               0.000347502               0.000000000               0.000000000               0.000000000               0.000000000               0.000318687               0.001056250              -0.000000000              -0.000012523               0.000356254               0.000343731               0.000000000               0.000000000               0.000000000               0.000000000               0.000294155               0.001068527              -0.000000000              -0.000023258               0.000363925               0.000340667               0.000000000               0.000000000               0.000000000               0.000000000               0.000266621               0.001082023              -0.000000000              -0.000035270               0.000372427               0.000337157               0.000000000               0.000000000               0.000000000               0.000000000               0.000236838               0.001099611              -0.000000000              -0.000048637               0.000382746               0.000334109               0.000000000               0.000000000               0.000000000               0.000000000               0.000200049               0.001124406              -0.000000000              -0.000065532               0.000396642               0.000331110               0.000000000               0.000000000               0.000000000               0.000000000               0.000151383               0.001149953              -0.000000000              -0.000086975               0.000412306               0.000325330               0.000000000               0.000000000               0.000000000               0.000000000               0.000100597               0.001179378               0.000000000              -0.000109698               0.000429688               0.000319990               0.000000000               0.000000000               0.000000000               0.000000000               0.000051796               0.001216397               0.000000000              -0.000132626               0.000449670               0.000317044               0.000000000               0.000000000               0.000000000               0.000000000               0.000031329               0.001248059               0.000000000              -0.000144259               0.000464102               0.000319843               0.000000000               0.000000000               0.000000000               0.000000000               0.000179713               0.001900407              -0.000150182              -0.000170158               0.000690182               0.000520024               0.000000000               0.000000000               0.000000000               0.000000000               0.000201840               0.001603789              -0.000103184              -0.000124783               0.000576185               0.000451402               0.000000000               0.000000000               0.000000000               0.000000000               0.000285847               0.001367462              -0.000053491              -0.000063740               0.000477063               0.000413323               0.000000000               0.000000000               0.000000000               0.000000000               0.000318620               0.001234998              -0.000031216              -0.000034892               0.000423293               0.000388400               0.000000000               0.000000000               0.000000000               0.000000000               0.000332142               0.001152602              -0.000021959              -0.000019522               0.000390704               0.000371182               0.000000000               0.000000000               0.000000000               0.000000000               0.000337990               0.001100786              -0.000017669              -0.000010852               0.000370543               0.000359690               0.000000000               0.000000000               0.000000000               0.000000000               0.000335733               0.001071179              -0.000014314              -0.000007998               0.000359722               0.000351724               0.000000000               0.000000000               0.000000000               0.000000000               0.000323985               0.001061590              -0.000011621              -0.000011204               0.000357595               0.000346390               0.000000000               0.000000000               0.000000000               0.000000000               0.000305837               0.001065688              -0.000011646              -0.000018522               0.000361400               0.000342878               0.000000000               0.000000000               0.000000000               0.000000000               0.000283875               0.001076903              -0.000016175              -0.000028160               0.000368351               0.000340191               0.000000000               0.000000000               0.000000000               0.000000000               0.000257619               0.001088330              -0.000020896              -0.000039434               0.000375918               0.000336484               0.000000000               0.000000000               0.000000000               0.000000000               0.000226958               0.001103919              -0.000019657              -0.000052880               0.000385596               0.000332716               0.000000000               0.000000000               0.000000000               0.000000000               0.000190814               0.001125668              -0.000018180              -0.000069153               0.000398270               0.000329117               0.000000000               0.000000000               0.000000000               0.000000000               0.000147866               0.001148774              -0.000017996              -0.000088147               0.000412303               0.000324156               0.000000000               0.000000000               0.000000000               0.000000000               0.000100705               0.001174679              -0.000014162              -0.000109070               0.000427912               0.000318842               0.000000000               0.000000000               0.000000000               0.000000000               0.000051272               0.001204392              -0.000008093              -0.000131322               0.000445234               0.000313912               0.000000000               0.000000000               0.000000000               0.000000000               0.000029670               0.001229561              -0.000005566              -0.000142569               0.000457372               0.000314804               0.000000000               0.000000000               0.000000000               0.000000000               0.000212518               0.001814471              -0.000286757              -0.000147115               0.000653856               0.000506741               0.000000000               0.000000000               0.000000000               0.000000000               0.000217349               0.001541067              -0.000195918              -0.000111127               0.000550726               0.000439599               0.000000000               0.000000000               0.000000000               0.000000000               0.000282518               0.001334359              -0.000102227              -0.000060851               0.000465066               0.000404215               0.000000000               0.000000000               0.000000000               0.000000000               0.000304147               0.001217980              -0.000061839              -0.000038192               0.000418720               0.000380528               0.000000000               0.000000000               0.000000000               0.000000000               0.000311708               0.001149241              -0.000044442              -0.000026765               0.000391998               0.000365233               0.000000000               0.000000000               0.000000000               0.000000000               0.000312569               0.001108735              -0.000035971              -0.000021378               0.000376701               0.000355322               0.000000000               0.000000000               0.000000000               0.000000000               0.000304581               0.001088611              -0.000029201              -0.000021858               0.000370153               0.000348294               0.000000000               0.000000000               0.000000000               0.000000000               0.000289831               0.001086240              -0.000023942              -0.000027093               0.000371108               0.000344014               0.000000000               0.000000000               0.000000000               0.000000000               0.000271661               0.001091632              -0.000023978              -0.000034581               0.000375401               0.000340820               0.000000000               0.000000000               0.000000000               0.000000000               0.000250930               0.001098849              -0.000031260              -0.000043257               0.000380698               0.000337441               0.000000000               0.000000000               0.000000000               0.000000000               0.000230115               0.001107034              -0.000037428              -0.000052086               0.000386370               0.000334284               0.000000000               0.000000000               0.000000000               0.000000000               0.000204831               0.001119453              -0.000033260              -0.000063120               0.000394187               0.000331067               0.000000000               0.000000000               0.000000000               0.000000000               0.000170154               0.001134093              -0.000029123              -0.000077954               0.000404012               0.000326058               0.000000000               0.000000000               0.000000000               0.000000000               0.000130218               0.001150186              -0.000026431              -0.000094941               0.000415039               0.000320097               0.000000000               0.000000000               0.000000000               0.000000000               0.000089175               0.001169195              -0.000019121              -0.000112709               0.000427297               0.000314589               0.000000000               0.000000000               0.000000000               0.000000000               0.000046028               0.001187958              -0.000010180              -0.000131234               0.000439727               0.000308493               0.000000000               0.000000000               0.000000000               0.000000000               0.000026243               0.001202746              -0.000006672              -0.000140502               0.000447745               0.000307243               0.000000000               0.000000000               0.000000000               0.000000000               0.000259712               0.001681714              -0.000396560              -0.000112822               0.000598173               0.000485351               0.000000000               0.000000000               0.000000000               0.000000000               0.000238495               0.001448458              -0.000271028              -0.000091622               0.000513355               0.000421733               0.000000000               0.000000000               0.000000000               0.000000000               0.000274456               0.001284195              -0.000144130              -0.000057603               0.000447262               0.000389659               0.000000000               0.000000000               0.000000000               0.000000000               0.000283347               0.001193455              -0.000090123              -0.000042927               0.000412123               0.000369197               0.000000000               0.000000000               0.000000000               0.000000000               0.000284854               0.001143207              -0.000066078              -0.000036081               0.000393092               0.000357011               0.000000000               0.000000000               0.000000000               0.000000000               0.000277443               0.001117283              -0.000054359              -0.000035619               0.000384297               0.000348678               0.000000000               0.000000000               0.000000000               0.000000000               0.000263461               0.001112583              -0.000044103              -0.000040275               0.000384282               0.000344007               0.000000000               0.000000000               0.000000000               0.000000000               0.000246147               0.001118039              -0.000036367              -0.000047450               0.000388493               0.000341043               0.000000000               0.000000000               0.000000000               0.000000000               0.000228372               0.001126528              -0.000036974              -0.000055176               0.000393898               0.000338721               0.000000000               0.000000000               0.000000000               0.000000000               0.000210830               0.001130748              -0.000044541              -0.000062282               0.000397673               0.000335391               0.000000000               0.000000000               0.000000000               0.000000000               0.000192770               0.001136109              -0.000047875              -0.000069725               0.000401941               0.000332216               0.000000000               0.000000000               0.000000000               0.000000000               0.000171067               0.001147562              -0.000040046              -0.000079295               0.000408949               0.000329654               0.000000000               0.000000000               0.000000000               0.000000000               0.000143232               0.001159328              -0.000032412              -0.000091204               0.000416840               0.000325636               0.000000000               0.000000000               0.000000000               0.000000000               0.000112325               0.001172526              -0.000025561              -0.000104444               0.000425653               0.000321209               0.000000000               0.000000000               0.000000000               0.000000000               0.000078174               0.001186300              -0.000015946              -0.000118972               0.000435087               0.000316115               0.000000000               0.000000000               0.000000000               0.000000000               0.000039505               0.001199531              -0.000007477              -0.000135127               0.000444882               0.000309755               0.000000000               0.000000000               0.000000000               0.000000000               0.000022410               0.001211702              -0.000005319              -0.000143059               0.000451583               0.000308524               0.000000000               0.000000000               0.000000000               0.000000000               0.000313620               0.001518125              -0.000473121              -0.000072158               0.000530089               0.000457931               0.000000000               0.000000000               0.000000000               0.000000000               0.000260312               0.001335685              -0.000326221              -0.000069344               0.000468338               0.000398995               0.000000000               0.000000000               0.000000000               0.000000000               0.000264145               0.001225619              -0.000178375              -0.000054148               0.000426585               0.000372437               0.000000000               0.000000000               0.000000000               0.000000000               0.000262015               0.001164578              -0.000115694              -0.000047317               0.000403961               0.000356644               0.000000000               0.000000000               0.000000000               0.000000000               0.000255840               0.001133610              -0.000088128              -0.000045761               0.000393120               0.000347359               0.000000000               0.000000000               0.000000000               0.000000000               0.000243522               0.001125226              -0.000071571              -0.000049333               0.000391516               0.000342183               0.000000000               0.000000000               0.000000000               0.000000000               0.000224279               0.001135076              -0.000057752              -0.000057780               0.000397615               0.000339835               0.000000000               0.000000000               0.000000000               0.000000000               0.000203220               0.001149620              -0.000049171              -0.000067495               0.000405701               0.000338206               0.000000000               0.000000000               0.000000000               0.000000000               0.000187549               0.001160312              -0.000049539              -0.000074708               0.000411670               0.000336962               0.000000000               0.000000000               0.000000000               0.000000000               0.000172721               0.001166692              -0.000056847              -0.000081066               0.000415915               0.000334849               0.000000000               0.000000000               0.000000000               0.000000000               0.000156986               0.001178034              -0.000055071              -0.000088384               0.000422136               0.000333751               0.000000000               0.000000000               0.000000000               0.000000000               0.000139412               0.001195488              -0.000043449              -0.000097156               0.000430877               0.000333721               0.000000000               0.000000000               0.000000000               0.000000000               0.000118068               0.001211710              -0.000034410              -0.000107188               0.000439629               0.000332441               0.000000000               0.000000000               0.000000000               0.000000000               0.000091065               0.001228327              -0.000026824              -0.000119391               0.000449235               0.000329844               0.000000000               0.000000000               0.000000000               0.000000000               0.000060431               0.001245879              -0.000018072              -0.000133073               0.000459647               0.000326574               0.000000000               0.000000000               0.000000000               0.000000000               0.000030903               0.001266187              -0.000009035              -0.000146684               0.000470953               0.000324269               0.000000000               0.000000000               0.000000000               0.000000000               0.000020965               0.001284652              -0.000007005              -0.000152719               0.000479119               0.000326400               0.000000000               0.000000000               0.000000000               0.000000000               0.000361334               0.001338901              -0.000515672              -0.000031863               0.000456917               0.000425054               0.000000000               0.000000000               0.000000000               0.000000000               0.000278361               0.001212718              -0.000360463              -0.000047205               0.000419970               0.000372765               0.000000000               0.000000000               0.000000000               0.000000000               0.000251981               0.001163138              -0.000204860              -0.000050899               0.000404675               0.000353776               0.000000000               0.000000000               0.000000000               0.000000000               0.000241589               0.001133275              -0.000139510              -0.000051063               0.000394776               0.000343712               0.000000000               0.000000000               0.000000000               0.000000000               0.000232346               0.001122966              -0.000108113              -0.000053241               0.000392065               0.000338824               0.000000000               0.000000000               0.000000000               0.000000000               0.000215982               0.001131811              -0.000087205              -0.000060483               0.000397428               0.000336945               0.000000000               0.000000000               0.000000000               0.000000000               0.000194651               0.001154151              -0.000070521              -0.000071274               0.000408471               0.000337197               0.000000000               0.000000000               0.000000000               0.000000000               0.000174322               0.001174843              -0.000061309              -0.000081484               0.000418772               0.000337287               0.000000000               0.000000000               0.000000000               0.000000000               0.000160101               0.001191039              -0.000061811              -0.000088842               0.000426623               0.000337781               0.000000000               0.000000000               0.000000000               0.000000000               0.000148459               0.001208298              -0.000065027              -0.000095365               0.000434550               0.000339185               0.000000000               0.000000000               0.000000000               0.000000000               0.000134940               0.001235361              -0.000058333              -0.000103817               0.000446389               0.000342571               0.000000000               0.000000000               0.000000000               0.000000000               0.000117595               0.001267956              -0.000045502              -0.000114396               0.000460780               0.000346384               0.000000000               0.000000000               0.000000000               0.000000000               0.000096969               0.001300824              -0.000036909              -0.000126239               0.000475683               0.000349444               0.000000000               0.000000000               0.000000000               0.000000000               0.000070458               0.001332990              -0.000028473              -0.000140202               0.000491060               0.000350858               0.000000000               0.000000000               0.000000000               0.000000000               0.000043618               0.001367759              -0.000019564              -0.000154613               0.000507453               0.000352840               0.000000000               0.000000000               0.000000000               0.000000000               0.000021884               0.001403689              -0.000010569              -0.000167254               0.000523643               0.000356389               0.000000000               0.000000000               0.000000000               0.000000000               0.000017122               0.001429490              -0.000008710              -0.000172265               0.000533914               0.000361648               0.000000000               0.000000000               0.000000000               0.000000000               0.000395171               0.001151423              -0.000526765               0.000004260               0.000382384               0.000386644               0.000000000               0.000000000               0.000000000               0.000000000               0.000289871               0.001089845              -0.000376578              -0.000027529               0.000372454               0.000344925               0.000000000               0.000000000               0.000000000               0.000000000               0.000239640               0.001103763              -0.000224918              -0.000048105               0.000383952               0.000335847               0.000000000               0.000000000               0.000000000               0.000000000               0.000225303               0.001104801              -0.000159539              -0.000053612               0.000386134               0.000332522               0.000000000               0.000000000               0.000000000               0.000000000               0.000213704               0.001114382              -0.000124858              -0.000059159               0.000391177               0.000332018               0.000000000               0.000000000               0.000000000               0.000000000               0.000195991               0.001140522              -0.000100583              -0.000069068               0.000403193               0.000334124               0.000000000               0.000000000               0.000000000               0.000000000               0.000175119               0.001173122              -0.000082773              -0.000080970               0.000418027               0.000337057               0.000000000               0.000000000               0.000000000               0.000000000               0.000159811               0.001200577              -0.000072432              -0.000090143               0.000430236               0.000340093               0.000000000               0.000000000               0.000000000               0.000000000               0.000152153               0.001229104              -0.000069280              -0.000096580               0.000441891               0.000345310               0.000000000               0.000000000               0.000000000               0.000000000               0.000144215               0.001267205              -0.000066921              -0.000104320               0.000457171               0.000352851               0.000000000               0.000000000               0.000000000               0.000000000               0.000131371               0.001319590              -0.000054527              -0.000115684               0.000478420               0.000362736               0.000000000               0.000000000               0.000000000               0.000000000               0.000113372               0.001377629              -0.000040162              -0.000129689               0.000502435               0.000372746               0.000000000               0.000000000               0.000000000               0.000000000               0.000091241               0.001433468              -0.000033253              -0.000144968               0.000526141               0.000381173               0.000000000               0.000000000               0.000000000               0.000000000               0.000064626               0.001485865              -0.000025324              -0.000161498               0.000549116               0.000387618               0.000000000               0.000000000               0.000000000               0.000000000               0.000037259               0.001536340              -0.000015889              -0.000178070               0.000571465               0.000393395               0.000000000               0.000000000               0.000000000               0.000000000               0.000015921               0.001585339              -0.000009341              -0.000192197               0.000592507               0.000400310               0.000000000               0.000000000               0.000000000               0.000000000               0.000012945               0.001619117              -0.000009905              -0.000197535               0.000605545               0.000408010               0.000000000               0.000000000               0.000000000               0.000000000               0.000414789               0.000968317              -0.000507461               0.000034505               0.000311267               0.000345772               0.000000000               0.000000000               0.000000000               0.000000000               0.000295907               0.000976445              -0.000376520              -0.000011091               0.000329175               0.000318084               0.000000000               0.000000000               0.000000000               0.000000000               0.000228994               0.001049816              -0.000238913              -0.000045354               0.000365053               0.000319699               0.000000000               0.000000000               0.000000000               0.000000000               0.000212748               0.001079431              -0.000174377              -0.000055148               0.000378190               0.000323041               0.000000000               0.000000000               0.000000000               0.000000000               0.000199166               0.001111800              -0.000137036              -0.000064288               0.000392025               0.000327738               0.000000000               0.000000000               0.000000000               0.000000000               0.000179861               0.001156655              -0.000111486              -0.000077134               0.000411259               0.000334125               0.000000000               0.000000000               0.000000000               0.000000000               0.000163430               0.001200073              -0.000091731              -0.000088723               0.000429595               0.000340872               0.000000000               0.000000000               0.000000000               0.000000000               0.000156708               0.001244198              -0.000078530              -0.000096759               0.000446982               0.000350222               0.000000000               0.000000000               0.000000000               0.000000000               0.000157042               0.001296697              -0.000068672              -0.000103196               0.000466627               0.000363431               0.000000000               0.000000000               0.000000000               0.000000000               0.000154870               0.001367487              -0.000058277              -0.000112859               0.000493444               0.000380585               0.000000000               0.000000000               0.000000000               0.000000000               0.000141689               0.001446002              -0.000042834              -0.000127616               0.000524535               0.000396918               0.000000000               0.000000000               0.000000000               0.000000000               0.000119931               0.001520651              -0.000030200              -0.000145107               0.000555248               0.000410141               0.000000000               0.000000000               0.000000000               0.000000000               0.000095146               0.001590551              -0.000025449              -0.000163139               0.000584558               0.000421419               0.000000000               0.000000000               0.000000000               0.000000000               0.000069637               0.001657846              -0.000019830              -0.000181117               0.000612982               0.000431865               0.000000000               0.000000000               0.000000000               0.000000000               0.000043204               0.001719560              -0.000011946              -0.000198743               0.000639429               0.000440686               0.000000000               0.000000000               0.000000000               0.000000000               0.000020725               0.001777922              -0.000005921              -0.000214468               0.000664124               0.000449656               0.000000000               0.000000000               0.000000000               0.000000000               0.000015608               0.001816298              -0.000006583              -0.000221184               0.000679155               0.000457971               0.000000000               0.000000000               0.000000000               0.000000000               0.000422660               0.000807616              -0.000466740               0.000057545               0.000250021               0.000307566               0.000000000               0.000000000               0.000000000               0.000000000               0.000301109               0.000875162              -0.000367284               0.000003520               0.000290544               0.000294064               0.000000000               0.000000000               0.000000000               0.000000000               0.000224591               0.000999801              -0.000252245              -0.000040754               0.000346848               0.000306095               0.000000000               0.000000000               0.000000000               0.000000000               0.000207720               0.001058200              -0.000188006              -0.000054380               0.000370857               0.000316476               0.000000000               0.000000000               0.000000000               0.000000000               0.000192211               0.001113629              -0.000148698              -0.000067124               0.000393581               0.000326456               0.000000000               0.000000000               0.000000000               0.000000000               0.000173102               0.001173308              -0.000122254              -0.000081750               0.000418349               0.000336599               0.000000000               0.000000000               0.000000000               0.000000000               0.000161749               0.001233259              -0.000099849              -0.000093501               0.000442249               0.000348748               0.000000000               0.000000000               0.000000000               0.000000000               0.000163175               0.001298403              -0.000079964              -0.000101110               0.000466500               0.000365390               0.000000000               0.000000000               0.000000000               0.000000000               0.000172952               0.001379536              -0.000062737              -0.000107585               0.000495702               0.000388117               0.000000000               0.000000000               0.000000000               0.000000000               0.000175000               0.001470061              -0.000047593              -0.000118132               0.000529393               0.000411260               0.000000000               0.000000000               0.000000000               0.000000000               0.000159570               0.001559688              -0.000035457              -0.000135122               0.000564932               0.000429810               0.000000000               0.000000000               0.000000000               0.000000000               0.000137743               0.001644267              -0.000026027              -0.000153879               0.000599377               0.000445497               0.000000000               0.000000000               0.000000000               0.000000000               0.000115659               0.001721661              -0.000020133              -0.000171835               0.000631160               0.000459324               0.000000000               0.000000000               0.000000000               0.000000000               0.000091181               0.001793483              -0.000013604              -0.000189992               0.000661152               0.000471160               0.000000000               0.000000000               0.000000000               0.000000000               0.000067933               0.001864105              -0.000005871              -0.000207538               0.000690541               0.000483004               0.000000000               0.000000000               0.000000000               0.000000000               0.000049369               0.001929212               0.000000101              -0.000222638               0.000717277               0.000494639               0.000000000               0.000000000               0.000000000               0.000000000               0.000041092               0.001964041               0.000000949              -0.000230095               0.000731372               0.000501277               0.000000000               0.000000000               0.000000000               0.000000000               0.000418131               0.000649550              -0.000416256               0.000075604               0.000191313               0.000266917               0.000000000               0.000000000               0.000000000               0.000000000               0.000307399               0.000752759              -0.000354245               0.000021179               0.000243857               0.000265037               0.000000000               0.000000000               0.000000000               0.000000000               0.000227854               0.000917284              -0.000270407              -0.000029216               0.000315497               0.000286281               0.000000000               0.000000000               0.000000000               0.000000000               0.000210804               0.001005966              -0.000207954              -0.000046694               0.000350883               0.000304189               0.000000000               0.000000000               0.000000000               0.000000000               0.000198071               0.001077889              -0.000167815              -0.000060460               0.000379446               0.000318986               0.000000000               0.000000000               0.000000000               0.000000000               0.000181960               0.001150980              -0.000140605              -0.000075637               0.000408869               0.000333231               0.000000000               0.000000000               0.000000000               0.000000000               0.000171784               0.001228998              -0.000115794              -0.000089205               0.000439397               0.000350192               0.000000000               0.000000000               0.000000000               0.000000000               0.000175639               0.001314073              -0.000093890              -0.000098394               0.000470818               0.000372424               0.000000000               0.000000000               0.000000000               0.000000000               0.000190147               0.001405122              -0.000075036              -0.000104335               0.000503148               0.000398813               0.000000000               0.000000000               0.000000000               0.000000000               0.000201006               0.001497586              -0.000057047              -0.000111821               0.000536464               0.000424643               0.000000000               0.000000000               0.000000000               0.000000000               0.000199093               0.001595139              -0.000043795              -0.000124732               0.000573285               0.000448553               0.000000000               0.000000000               0.000000000               0.000000000               0.000185865               0.001690026              -0.000035117              -0.000141553               0.000610521               0.000468967               0.000000000               0.000000000               0.000000000               0.000000000               0.000164916               0.001767415              -0.000026394              -0.000159083               0.000642160               0.000483077               0.000000000               0.000000000               0.000000000               0.000000000               0.000139801               0.001837604              -0.000015751              -0.000177275               0.000671620               0.000494346               0.000000000               0.000000000               0.000000000               0.000000000               0.000114653               0.001909356              -0.000006503              -0.000195674               0.000701670               0.000505996               0.000000000               0.000000000               0.000000000               0.000000000               0.000096618               0.001982930              -0.000001569              -0.000211634               0.000731515               0.000519881               0.000000000               0.000000000               0.000000000               0.000000000               0.000084735               0.002018819               0.000001843              -0.000220576               0.000746458               0.000525882               0.000000000               0.000000000               0.000000000               0.000000000               0.000395113               0.000500594              -0.000356172               0.000085592               0.000138332               0.000223924               0.000000000               0.000000000               0.000000000               0.000000000               0.000312896               0.000629725              -0.000331774               0.000038620               0.000197033               0.000235653               0.000000000               0.000000000               0.000000000               0.000000000               0.000242257               0.000822249              -0.000282095              -0.000011935               0.000278059               0.000266124               0.000000000               0.000000000               0.000000000               0.000000000               0.000222923               0.000935856              -0.000227027              -0.000033386               0.000323078               0.000289692               0.000000000               0.000000000               0.000000000               0.000000000               0.000213505               0.001025662              -0.000187020              -0.000048143               0.000357932               0.000309788               0.000000000               0.000000000               0.000000000               0.000000000               0.000202078               0.001112527              -0.000159634              -0.000063286               0.000391934               0.000328648               0.000000000               0.000000000               0.000000000               0.000000000               0.000194447               0.001203191              -0.000135351              -0.000077481               0.000426887               0.000349406               0.000000000               0.000000000               0.000000000               0.000000000               0.000199935               0.001300934              -0.000114883              -0.000087641               0.000462854               0.000375213               0.000000000               0.000000000               0.000000000               0.000000000               0.000215583               0.001400236              -0.000094084              -0.000094186               0.000498136               0.000403950               0.000000000               0.000000000               0.000000000               0.000000000               0.000233733               0.001502957              -0.000072784              -0.000100219               0.000534387               0.000434168               0.000000000               0.000000000               0.000000000               0.000000000               0.000243239               0.001602916              -0.000056531              -0.000109150               0.000570683               0.000461534               0.000000000               0.000000000               0.000000000               0.000000000               0.000237897               0.001692490              -0.000045140              -0.000122349               0.000604941               0.000482591               0.000000000               0.000000000               0.000000000               0.000000000               0.000221651               0.001770598              -0.000032618              -0.000138205               0.000636262               0.000498057               0.000000000               0.000000000               0.000000000               0.000000000               0.000200952               0.001842919              -0.000018841              -0.000155007               0.000665969               0.000510962               0.000000000               0.000000000               0.000000000               0.000000000               0.000178048               0.001909717              -0.000009521              -0.000171946               0.000693881               0.000521935               0.000000000               0.000000000               0.000000000               0.000000000               0.000157264               0.001982516              -0.000004498              -0.000188840               0.000723779               0.000534939               0.000000000               0.000000000               0.000000000               0.000000000               0.000138614               0.002014679               0.000001940              -0.000199854               0.000738171               0.000538317               0.000000000               0.000000000               0.000000000               0.000000000               0.000350964               0.000365643              -0.000287325               0.000085905               0.000093245               0.000179150               0.000000000               0.000000000               0.000000000               0.000000000               0.000309394               0.000509379              -0.000295227               0.000052350               0.000152341               0.000204691               0.000000000               0.000000000               0.000000000               0.000000000               0.000259262               0.000714781              -0.000276733               0.000007875               0.000235633               0.000243508               0.000000000               0.000000000               0.000000000               0.000000000               0.000243419               0.000850372              -0.000234124              -0.000015015               0.000288459               0.000273445               0.000000000               0.000000000               0.000000000               0.000000000               0.000237127               0.000959673              -0.000198578              -0.000031037               0.000330233               0.000299197               0.000000000               0.000000000               0.000000000               0.000000000               0.000231575               0.001060272              -0.000172913              -0.000045693               0.000368652               0.000322958               0.000000000               0.000000000               0.000000000               0.000000000               0.000228970               0.001164391              -0.000151869              -0.000059685               0.000408021               0.000348337               0.000000000               0.000000000               0.000000000               0.000000000               0.000232000               0.001275160              -0.000132645              -0.000072395               0.000449181               0.000376786               0.000000000               0.000000000               0.000000000               0.000000000               0.000244007               0.001391288              -0.000112165              -0.000082408               0.000491227               0.000408819               0.000000000               0.000000000               0.000000000               0.000000000               0.000263752               0.001503151              -0.000090312              -0.000088987               0.000530708               0.000441721               0.000000000               0.000000000               0.000000000               0.000000000               0.000277394               0.001597705              -0.000069769              -0.000095690               0.000564460               0.000468770               0.000000000               0.000000000               0.000000000               0.000000000               0.000279526               0.001680995              -0.000052934              -0.000105302               0.000595427               0.000490125               0.000000000               0.000000000               0.000000000               0.000000000               0.000272937               0.001763653              -0.000038000              -0.000118105               0.000627247               0.000509142               0.000000000               0.000000000               0.000000000               0.000000000               0.000262511               0.001841186              -0.000025153              -0.000131706               0.000657625               0.000525918               0.000000000               0.000000000               0.000000000               0.000000000               0.000248152               0.001911563              -0.000015442              -0.000145888               0.000685811               0.000539923               0.000000000               0.000000000               0.000000000               0.000000000               0.000227739               0.001984037              -0.000006592              -0.000162602               0.000715540               0.000552938               0.000000000               0.000000000               0.000000000               0.000000000               0.000206061               0.002013993               0.000001458              -0.000174476               0.000729483               0.000555007               0.000000000               0.000000000               0.000000000               0.000000000               0.000291174               0.000251819              -0.000215797               0.000077712               0.000058035               0.000135747               0.000000000               0.000000000               0.000000000               0.000000000               0.000295342               0.000397871              -0.000245755               0.000061018               0.000112283               0.000173301               0.000000000               0.000000000               0.000000000               0.000000000               0.000276960               0.000604600              -0.000252307               0.000028284               0.000192103               0.000220388               0.000000000               0.000000000               0.000000000               0.000000000               0.000270005               0.000756575              -0.000224781               0.000006680               0.000249963               0.000256642               0.000000000               0.000000000               0.000000000               0.000000000               0.000268273               0.000882844              -0.000197142              -0.000009753               0.000297529               0.000287776               0.000000000               0.000000000               0.000000000               0.000000000               0.000267293               0.000999251              -0.000175468              -0.000024671               0.000341304               0.000316633               0.000000000               0.000000000               0.000000000               0.000000000               0.000267286               0.001118063              -0.000156904              -0.000039526               0.000385859               0.000346334               0.000000000               0.000000000               0.000000000               0.000000000               0.000269976               0.001243813              -0.000139810              -0.000054235               0.000432679               0.000378443               0.000000000               0.000000000               0.000000000               0.000000000               0.000280068               0.001372188              -0.000123025              -0.000066498               0.000479558               0.000413060               0.000000000               0.000000000               0.000000000               0.000000000               0.000294136               0.001483396              -0.000102011              -0.000075123               0.000519501               0.000444378               0.000000000               0.000000000               0.000000000               0.000000000               0.000304951               0.001571133              -0.000079293              -0.000082035               0.000551051               0.000469016               0.000000000               0.000000000               0.000000000               0.000000000               0.000312937               0.001655304              -0.000059035              -0.000089561               0.000581616               0.000492055               0.000000000               0.000000000               0.000000000               0.000000000               0.000318117               0.001745509              -0.000043327              -0.000098895               0.000614796               0.000515901               0.000000000               0.000000000               0.000000000               0.000000000               0.000321232               0.001835410              -0.000031964              -0.000108964               0.000648119               0.000539155               0.000000000               0.000000000               0.000000000               0.000000000               0.000318386               0.001917983              -0.000019983              -0.000120353               0.000679439               0.000559086               0.000000000               0.000000000               0.000000000               0.000000000               0.000307599               0.001990912              -0.000008391              -0.000133514               0.000708135               0.000574621               0.000000000               0.000000000               0.000000000               0.000000000               0.000292062               0.002020021              -0.000000935              -0.000142979               0.000720993               0.000578014               0.000000000               0.000000000               0.000000000               0.000000000               0.000225053               0.000167763              -0.000147255               0.000063424               0.000034779               0.000098203               0.000000000               0.000000000               0.000000000               0.000000000               0.000272500               0.000303225              -0.000187581               0.000064284               0.000079646               0.000143930               0.000000000               0.000000000               0.000000000               0.000000000               0.000293940               0.000501582              -0.000209849               0.000047529               0.000151349               0.000198878               0.000000000               0.000000000               0.000000000               0.000000000               0.000299052               0.000664767              -0.000195240               0.000029048               0.000211904               0.000240952               0.000000000               0.000000000               0.000000000               0.000000000               0.000302679               0.000805286              -0.000176913               0.000012844               0.000264145               0.000276989               0.000000000               0.000000000               0.000000000               0.000000000               0.000305788               0.000937267              -0.000160928              -0.000002488               0.000313249               0.000310761               0.000000000               0.000000000               0.000000000               0.000000000               0.000307387               0.001069033              -0.000145072              -0.000018359               0.000362460               0.000344101               0.000000000               0.000000000               0.000000000               0.000000000               0.000313467               0.001203074              -0.000132185              -0.000032834               0.000411965               0.000379131               0.000000000               0.000000000               0.000000000               0.000000000               0.000320746               0.001331202              -0.000118714              -0.000046120               0.000459103               0.000412983               0.000000000               0.000000000               0.000000000               0.000000000               0.000325680               0.001439104              -0.000099505              -0.000057758               0.000498949               0.000441191               0.000000000               0.000000000               0.000000000               0.000000000               0.000332858               0.001531591              -0.000077906              -0.000066627               0.000532734               0.000466107               0.000000000               0.000000000               0.000000000               0.000000000               0.000344774               0.001626974              -0.000058921              -0.000074081               0.000567013               0.000492932               0.000000000               0.000000000               0.000000000               0.000000000               0.000360041               0.001728048              -0.000046097              -0.000080990               0.000603007               0.000522017               0.000000000               0.000000000               0.000000000               0.000000000               0.000373725               0.001827482              -0.000036130              -0.000088288               0.000638584               0.000550296               0.000000000               0.000000000               0.000000000               0.000000000               0.000380880               0.001915366              -0.000022868              -0.000096591               0.000670646               0.000574055               0.000000000               0.000000000               0.000000000               0.000000000               0.000382716               0.001990669              -0.000010344              -0.000105315               0.000698655               0.000593340               0.000000000               0.000000000               0.000000000               0.000000000               0.000377218               0.002023290              -0.000003654              -0.000111454               0.000711575               0.000600120               0.000000000               0.000000000               0.000000000               0.000000000               0.000164129               0.000111401              -0.000087725               0.000047623               0.000021259               0.000068882               0.000000000               0.000000000               0.000000000               0.000000000               0.000249343               0.000232275              -0.000125658               0.000064468               0.000055935               0.000120403               0.000000000               0.000000000               0.000000000               0.000000000               0.000305838               0.000418356              -0.000150418               0.000062394               0.000118653               0.000181047               0.000000000               0.000000000               0.000000000               0.000000000               0.000325323               0.000585381              -0.000144978               0.000048823               0.000178851               0.000227674               0.000000000               0.000000000               0.000000000               0.000000000               0.000336830               0.000739174              -0.000135017               0.000033914               0.000235084               0.000268998               0.000000000               0.000000000               0.000000000               0.000000000               0.000341540               0.000882303              -0.000124424               0.000017789               0.000288168               0.000305958               0.000000000               0.000000000               0.000000000               0.000000000               0.000347120               0.001018023              -0.000114430               0.000002917               0.000338365               0.000341282               0.000000000               0.000000000               0.000000000               0.000000000               0.000353653               0.001155436              -0.000105285              -0.000011810               0.000389078               0.000377268               0.000000000               0.000000000               0.000000000               0.000000000               0.000355541               0.001281432              -0.000093401              -0.000026851               0.000436090               0.000409239               0.000000000               0.000000000               0.000000000               0.000000000               0.000354951               0.001388587              -0.000079051              -0.000040467               0.000476347               0.000435880               0.000000000               0.000000000               0.000000000               0.000000000               0.000361856               0.001494096              -0.000064318              -0.000051066               0.000515049               0.000463983               0.000000000               0.000000000               0.000000000               0.000000000               0.000378607               0.001606342              -0.000051270              -0.000058815               0.000555047               0.000496232               0.000000000               0.000000000               0.000000000               0.000000000               0.000398147               0.001715476              -0.000041657              -0.000065129               0.000593529               0.000528400               0.000000000               0.000000000               0.000000000               0.000000000               0.000413750               0.001812504              -0.000031869              -0.000071407               0.000627964               0.000556557               0.000000000               0.000000000               0.000000000               0.000000000               0.000426559               0.001897834              -0.000019985              -0.000077269               0.000658361               0.000581092               0.000000000               0.000000000               0.000000000               0.000000000               0.000440117               0.001979366              -0.000009501              -0.000082377               0.000687241               0.000604864               0.000000000               0.000000000               0.000000000               0.000000000               0.000444174               0.002018480              -0.000004021              -0.000085744               0.000701401               0.000615657               0.000000000               0.000000000               0.000000000               0.000000000               0.000119788               0.000080456              -0.000039981               0.000034863               0.000015197               0.000050061               0.000000000               0.000000000               0.000000000               0.000000000               0.000231688               0.000189500              -0.000063090               0.000063195               0.000042101               0.000105296               0.000000000               0.000000000               0.000000000               0.000000000               0.000310478               0.000362323              -0.000078284               0.000071138               0.000097061               0.000168199               0.000000000               0.000000000               0.000000000               0.000000000               0.000344883               0.000531661              -0.000077242               0.000062873               0.000156261               0.000219134               0.000000000               0.000000000               0.000000000               0.000000000               0.000362199               0.000693948              -0.000073248               0.000049081               0.000214954               0.000264034               0.000000000               0.000000000               0.000000000               0.000000000               0.000369826               0.000842122              -0.000068281               0.000033419               0.000269565               0.000302984               0.000000000               0.000000000               0.000000000               0.000000000               0.000374980               0.000980227              -0.000064206               0.000018089               0.000320710               0.000338799               0.000000000               0.000000000               0.000000000               0.000000000               0.000378376               0.001116227              -0.000058488               0.000002362               0.000371285               0.000373647               0.000000000               0.000000000               0.000000000               0.000000000               0.000378696               0.001239126              -0.000050873              -0.000012880               0.000417331               0.000404451               0.000000000               0.000000000               0.000000000               0.000000000               0.000380691               0.001353983              -0.000043979              -0.000026489               0.000460153               0.000433664               0.000000000               0.000000000               0.000000000               0.000000000               0.000389198               0.001472656              -0.000038246              -0.000038133               0.000503591               0.000465459               0.000000000               0.000000000               0.000000000               0.000000000               0.000404054               0.001591026              -0.000031665              -0.000047358               0.000546123               0.000498765               0.000000000               0.000000000               0.000000000               0.000000000               0.000420465               0.001698191              -0.000024536              -0.000054599               0.000584258               0.000529658               0.000000000               0.000000000               0.000000000               0.000000000               0.000436839               0.001794150              -0.000017767              -0.000060454               0.000618195               0.000557742               0.000000000               0.000000000               0.000000000               0.000000000               0.000455926               0.001884614              -0.000011834              -0.000064604               0.000649733               0.000585129               0.000000000               0.000000000               0.000000000               0.000000000               0.000477833               0.001971583              -0.000006296              -0.000067260               0.000679608               0.000612348               0.000000000               0.000000000               0.000000000               0.000000000               0.000488447               0.002013421              -0.000002940              -0.000068510               0.000693970               0.000625461               0.000000000               0.000000000               0.000000000               0.000000000               0.000103274               0.000071034              -0.000000000               0.000029848               0.000013728               0.000043576               0.000000000               0.000000000               0.000000000               0.000000000               0.000224929               0.000175023              -0.000000000               0.000062470               0.000037517               0.000099987               0.000000000               0.000000000               0.000000000               0.000000000               0.000311409               0.000341567               0.000000000               0.000074082               0.000089161               0.000163242               0.000000000               0.000000000               0.000000000               0.000000000               0.000352501               0.000513502              -0.000000000               0.000067999               0.000148499               0.000216499               0.000000000               0.000000000               0.000000000               0.000000000               0.000371355               0.000677886              -0.000000000               0.000054522               0.000207786               0.000262308               0.000000000               0.000000000               0.000000000               0.000000000               0.000381627               0.000826788              -0.000000000               0.000039761               0.000262340               0.000302101               0.000000000               0.000000000               0.000000000               0.000000000               0.000383878               0.000967560              -0.000000000               0.000023009               0.000314847               0.000337856               0.000000000               0.000000000               0.000000000               0.000000000               0.000385702               0.001100819               0.000000000               0.000007036               0.000364591               0.000371626               0.000000000               0.000000000               0.000000000               0.000000000               0.000387636               0.001220924              -0.000000000              -0.000007252               0.000409388               0.000402136               0.000000000               0.000000000               0.000000000               0.000000000               0.000392620               0.001343607               0.000000000              -0.000020718               0.000454771               0.000434052               0.000000000               0.000000000               0.000000000               0.000000000               0.000400827               0.001466644               0.000000000              -0.000033020               0.000499883               0.000466863               0.000000000               0.000000000               0.000000000               0.000000000               0.000411588               0.001582388              -0.000000000              -0.000043453               0.000541942               0.000498489               0.000000000               0.000000000               0.000000000               0.000000000               0.000426886               0.001689829              -0.000000000              -0.000051146               0.000580319               0.000529173               0.000000000               0.000000000               0.000000000               0.000000000               0.000445661               0.001788030               0.000000000              -0.000056381               0.000614798               0.000558417               0.000000000               0.000000000               0.000000000               0.000000000               0.000467142               0.001879980               0.000000000              -0.000059819               0.000646593               0.000586774               0.000000000               0.000000000               0.000000000               0.000000000               0.000490902               0.001967819               0.000000000              -0.000061889               0.000676563               0.000614674               0.000000000               0.000000000               0.000000000               0.000000000               0.000503660               0.002010458               0.000000000              -0.000062434               0.000690958               0.000628523               0.000000000               0.000000000               0.000000000               0.000000000               0.000000000               0.000000000               0.000000000               0.000000000               0.000000000               0.000000000               0.000000000               0.000000000               0.000000000               0.000000000               0.000000000               0.000000000               0.000000000               0.000000000               0.000000000               0.000000000               0.000000000               0.000000000               0.000000000               0.000000000               0.000000000               0.000000000               0.000000000               0.000000000               0.000000000               0.000000000               0.000000000               0.000000000               0.000000000               0.000000000               0.000000000               0.000000000               0.000000000               0.000000000               0.000000000               0.000000000               0.000000000               0.000000000               0.000000000               0.000000000               0.000000000               0.000000000               0.000000000               0.000000000               0.000000000               0.000000000               0.000000000               0.000000000               0.000000000               0.000000000               0.000000000               0.000000000               0.000000000               0.000000000               0.000000000               0.000000000               0.000000000               0.000000000               0.000000000               0.000000000               0.000000000               0.000000000               0.000000000               0.000000000               0.000000000               0.000000000               0.000000000               0.000000000               0.000000000               0.000000000               0.000000000               0.000000000               0.000000000               0.000000000               0.000000000               0.000000000               0.000000000               0.000000000               0.000000000               0.000000000               0.000000000               0.000000000               0.000000000               0.000000000               0.000000000               0.000000000               0.000000000               0.000000000               0.000000000               0.000000000               0.000000000               0.000000000               0.000000000               0.000000000               0.000000000               0.000000000               0.000000000               0.000000000               0.000000000               0.000000000               0.000000000               0.000000000               0.000000000               0.000000000               0.000000000               0.000000000               0.000000000               0.000000000               0.000000000               0.000000000               0.000000000               0.000000000               0.000000000               0.000000000               0.000000000               0.000000000               0.000000000               0.000000000               0.000000000               0.000000000               0.000000000               0.000000000               0.000000000               0.000000000               0.000000000               0.000000000               0.000000000               0.000000000               0.000000000               0.000000000               0.000000000               0.000000000               0.000000000               0.000000000               0.000000000               0.000000000               0.000000000               0.000000000               0.000000000               0.000000000               0.000000000               0.000000000               0.000000000               0.000000000               0.000000000               0.000000000               0.000000000               0.000000000               0.000000000               0.000000000               0.000000000               0.000000000               0.000000000               0.000000000               0.000000000               0.000000000               0.000000000               0.000000000               0.000000000               0.000000000               0.000000000               0.000000000               0.000000000               0.000000000               0.000000000               0.000000000               0.000000000               0.000000000               0.000000000               0.000000000               0.000179713               0.001900407               0.000150182              -0.000170158               0.000690182               0.000520024               0.000000000               0.000000000               0.000000000               0.000000000               0.000201840               0.001603789               0.000103184              -0.000124783               0.000576185               0.000451402               0.000000000               0.000000000               0.000000000               0.000000000               0.000285847               0.001367462               0.000053491              -0.000063740               0.000477063               0.000413323               0.000000000               0.000000000               0.000000000               0.000000000               0.000318620               0.001234998               0.000031216              -0.000034892               0.000423293               0.000388400               0.000000000               0.000000000               0.000000000               0.000000000               0.000332142               0.001152602               0.000021959              -0.000019522               0.000390704               0.000371182               0.000000000               0.000000000               0.000000000               0.000000000               0.000337990               0.001100786               0.000017669              -0.000010852               0.000370543               0.000359690               0.000000000               0.000000000               0.000000000               0.000000000               0.000335733               0.001071179               0.000014314              -0.000007998               0.000359722               0.000351724               0.000000000               0.000000000               0.000000000               0.000000000               0.000323985               0.001061590               0.000011621              -0.000011204               0.000357595               0.000346390               0.000000000               0.000000000               0.000000000               0.000000000               0.000305837               0.001065688               0.000011646              -0.000018522               0.000361400               0.000342878               0.000000000               0.000000000               0.000000000               0.000000000               0.000283875               0.001076903               0.000016175              -0.000028160               0.000368351               0.000340191               0.000000000               0.000000000               0.000000000               0.000000000               0.000257619               0.001088330               0.000020896              -0.000039434               0.000375918               0.000336484               0.000000000               0.000000000               0.000000000               0.000000000               0.000226958               0.001103919               0.000019657              -0.000052880               0.000385596               0.000332716               0.000000000               0.000000000               0.000000000               0.000000000               0.000190814               0.001125668               0.000018180              -0.000069153               0.000398270               0.000329117               0.000000000               0.000000000               0.000000000               0.000000000               0.000147866               0.001148774               0.000017996              -0.000088147               0.000412303               0.000324156               0.000000000               0.000000000               0.000000000               0.000000000               0.000100705               0.001174679               0.000014162              -0.000109070               0.000427912               0.000318842               0.000000000               0.000000000               0.000000000               0.000000000               0.000051272               0.001204392               0.000008093              -0.000131322               0.000445234               0.000313912               0.000000000               0.000000000               0.000000000               0.000000000               0.000029670               0.001229561               0.000005566              -0.000142569               0.000457372               0.000314804               0.000000000               0.000000000               0.000000000               0.000000000               0.000212518               0.001814471               0.000286757              -0.000147115               0.000653856               0.000506741               0.000000000               0.000000000               0.000000000               0.000000000               0.000217349               0.001541067               0.000195918              -0.000111127               0.000550726               0.000439599               0.000000000               0.000000000               0.000000000               0.000000000               0.000282518               0.001334359               0.000102227              -0.000060851               0.000465066               0.000404215               0.000000000               0.000000000               0.000000000               0.000000000               0.000304147               0.001217980               0.000061839              -0.000038192               0.000418720               0.000380528               0.000000000               0.000000000               0.000000000               0.000000000               0.000311708               0.001149241               0.000044442              -0.000026765               0.000391998               0.000365233               0.000000000               0.000000000               0.000000000               0.000000000               0.000312569               0.001108735               0.000035971              -0.000021378               0.000376701               0.000355322               0.000000000               0.000000000               0.000000000               0.000000000               0.000304581               0.001088611               0.000029201              -0.000021858               0.000370153               0.000348294               0.000000000               0.000000000               0.000000000               0.000000000               0.000289831               0.001086240               0.000023942              -0.000027093               0.000371108               0.000344014               0.000000000               0.000000000               0.000000000               0.000000000               0.000271661               0.001091632               0.000023978              -0.000034581               0.000375401               0.000340820               0.000000000               0.000000000               0.000000000               0.000000000               0.000250930               0.001098849               0.000031260              -0.000043257               0.000380698               0.000337441               0.000000000               0.000000000               0.000000000               0.000000000               0.000230115               0.001107034               0.000037428              -0.000052086               0.000386370               0.000334284               0.000000000               0.000000000               0.000000000               0.000000000               0.000204831               0.001119453               0.000033260              -0.000063120               0.000394187               0.000331067               0.000000000               0.000000000               0.000000000               0.000000000               0.000170154               0.001134093               0.000029123              -0.000077954               0.000404012               0.000326058               0.000000000               0.000000000               0.000000000               0.000000000               0.000130218               0.001150186               0.000026431              -0.000094941               0.000415039               0.000320097               0.000000000               0.000000000               0.000000000               0.000000000               0.000089175               0.001169195               0.000019121              -0.000112709               0.000427297               0.000314589               0.000000000               0.000000000               0.000000000               0.000000000               0.000046028               0.001187958               0.000010180              -0.000131234               0.000439727               0.000308493               0.000000000               0.000000000               0.000000000               0.000000000               0.000026243               0.001202746               0.000006672              -0.000140502               0.000447745               0.000307243               0.000000000               0.000000000               0.000000000               0.000000000               0.000259712               0.001681714               0.000396560              -0.000112822               0.000598173               0.000485351               0.000000000               0.000000000               0.000000000               0.000000000               0.000238495               0.001448458               0.000271028              -0.000091622               0.000513355               0.000421733               0.000000000               0.000000000               0.000000000               0.000000000               0.000274456               0.001284195               0.000144130              -0.000057603               0.000447262               0.000389659               0.000000000               0.000000000               0.000000000               0.000000000               0.000283347               0.001193455               0.000090123              -0.000042927               0.000412123               0.000369197               0.000000000               0.000000000               0.000000000               0.000000000               0.000284854               0.001143207               0.000066078              -0.000036081               0.000393092               0.000357011               0.000000000               0.000000000               0.000000000               0.000000000               0.000277443               0.001117283               0.000054359              -0.000035619               0.000384297               0.000348678               0.000000000               0.000000000               0.000000000               0.000000000               0.000263461               0.001112583               0.000044103              -0.000040275               0.000384282               0.000344007               0.000000000               0.000000000               0.000000000               0.000000000               0.000246147               0.001118039               0.000036367              -0.000047450               0.000388493               0.000341043               0.000000000               0.000000000               0.000000000               0.000000000               0.000228372               0.001126528               0.000036974              -0.000055176               0.000393898               0.000338721               0.000000000               0.000000000               0.000000000               0.000000000               0.000210830               0.001130748               0.000044541              -0.000062282               0.000397673               0.000335391               0.000000000               0.000000000               0.000000000               0.000000000               0.000192770               0.001136109               0.000047875              -0.000069725               0.000401941               0.000332216               0.000000000               0.000000000               0.000000000               0.000000000               0.000171067               0.001147562               0.000040046              -0.000079295               0.000408949               0.000329654               0.000000000               0.000000000               0.000000000               0.000000000               0.000143232               0.001159328               0.000032412              -0.000091204               0.000416840               0.000325636               0.000000000               0.000000000               0.000000000               0.000000000               0.000112325               0.001172526               0.000025561              -0.000104444               0.000425653               0.000321209               0.000000000               0.000000000               0.000000000               0.000000000               0.000078174               0.001186300               0.000015946              -0.000118972               0.000435087               0.000316115               0.000000000               0.000000000               0.000000000               0.000000000               0.000039505               0.001199531               0.000007477              -0.000135127               0.000444882               0.000309755               0.000000000               0.000000000               0.000000000               0.000000000               0.000022410               0.001211702               0.000005319              -0.000143059               0.000451583               0.000308524               0.000000000               0.000000000               0.000000000               0.000000000               0.000313620               0.001518125               0.000473121              -0.000072158               0.000530089               0.000457931               0.000000000               0.000000000               0.000000000               0.000000000               0.000260312               0.001335685               0.000326221              -0.000069344               0.000468338               0.000398995               0.000000000               0.000000000               0.000000000               0.000000000               0.000264145               0.001225619               0.000178375              -0.000054148               0.000426585               0.000372437               0.000000000               0.000000000               0.000000000               0.000000000               0.000262015               0.001164578               0.000115694              -0.000047317               0.000403961               0.000356644               0.000000000               0.000000000               0.000000000               0.000000000               0.000255840               0.001133610               0.000088128              -0.000045761               0.000393120               0.000347359               0.000000000               0.000000000               0.000000000               0.000000000               0.000243522               0.001125226               0.000071571              -0.000049333               0.000391516               0.000342183               0.000000000               0.000000000               0.000000000               0.000000000               0.000224279               0.001135076               0.000057752              -0.000057780               0.000397615               0.000339835               0.000000000               0.000000000               0.000000000               0.000000000               0.000203220               0.001149620               0.000049171              -0.000067495               0.000405701               0.000338206               0.000000000               0.000000000               0.000000000               0.000000000               0.000187549               0.001160312               0.000049539              -0.000074708               0.000411670               0.000336962               0.000000000               0.000000000               0.000000000               0.000000000               0.000172721               0.001166692               0.000056847              -0.000081066               0.000415915               0.000334849               0.000000000               0.000000000               0.000000000               0.000000000               0.000156986               0.001178034               0.000055071              -0.000088384               0.000422136               0.000333751               0.000000000               0.000000000               0.000000000               0.000000000               0.000139412               0.001195488               0.000043449              -0.000097156               0.000430877               0.000333721               0.000000000               0.000000000               0.000000000               0.000000000               0.000118068               0.001211710               0.000034410              -0.000107188               0.000439629               0.000332441               0.000000000               0.000000000               0.000000000               0.000000000               0.000091065               0.001228327               0.000026824              -0.000119391               0.000449235               0.000329844               0.000000000               0.000000000               0.000000000               0.000000000               0.000060431               0.001245879               0.000018072              -0.000133073               0.000459647               0.000326574               0.000000000               0.000000000               0.000000000               0.000000000               0.000030903               0.001266187               0.000009035              -0.000146684               0.000470953               0.000324269               0.000000000               0.000000000               0.000000000               0.000000000               0.000020965               0.001284652               0.000007005              -0.000152719               0.000479119               0.000326400               0.000000000               0.000000000               0.000000000               0.000000000               0.000361334               0.001338901               0.000515672              -0.000031863               0.000456917               0.000425054               0.000000000               0.000000000               0.000000000               0.000000000               0.000278361               0.001212718               0.000360463              -0.000047205               0.000419970               0.000372765               0.000000000               0.000000000               0.000000000               0.000000000               0.000251981               0.001163138               0.000204860              -0.000050899               0.000404675               0.000353776               0.000000000               0.000000000               0.000000000               0.000000000               0.000241589               0.001133275               0.000139510              -0.000051063               0.000394776               0.000343712               0.000000000               0.000000000               0.000000000               0.000000000               0.000232346               0.001122966               0.000108113              -0.000053241               0.000392065               0.000338824               0.000000000               0.000000000               0.000000000               0.000000000               0.000215982               0.001131811               0.000087205              -0.000060483               0.000397428               0.000336945               0.000000000               0.000000000               0.000000000               0.000000000               0.000194651               0.001154151               0.000070521              -0.000071274               0.000408471               0.000337197               0.000000000               0.000000000               0.000000000               0.000000000               0.000174322               0.001174843               0.000061309              -0.000081484               0.000418772               0.000337287               0.000000000               0.000000000               0.000000000               0.000000000               0.000160101               0.001191039               0.000061811              -0.000088842               0.000426623               0.000337781               0.000000000               0.000000000               0.000000000               0.000000000               0.000148459               0.001208298               0.000065027              -0.000095365               0.000434550               0.000339185               0.000000000               0.000000000               0.000000000               0.000000000               0.000134940               0.001235361               0.000058333              -0.000103817               0.000446389               0.000342571               0.000000000               0.000000000               0.000000000               0.000000000               0.000117595               0.001267956               0.000045502              -0.000114396               0.000460780               0.000346384               0.000000000               0.000000000               0.000000000               0.000000000               0.000096969               0.001300824               0.000036909              -0.000126239               0.000475683               0.000349444               0.000000000               0.000000000               0.000000000               0.000000000               0.000070458               0.001332990               0.000028473              -0.000140202               0.000491060               0.000350858               0.000000000               0.000000000               0.000000000               0.000000000               0.000043618               0.001367759               0.000019564              -0.000154613               0.000507453               0.000352840               0.000000000               0.000000000               0.000000000               0.000000000               0.000021884               0.001403689               0.000010569              -0.000167254               0.000523643               0.000356389               0.000000000               0.000000000               0.000000000               0.000000000               0.000017122               0.001429490               0.000008710              -0.000172265               0.000533914               0.000361648               0.000000000               0.000000000               0.000000000               0.000000000               0.000395171               0.001151423               0.000526765               0.000004260               0.000382384               0.000386644               0.000000000               0.000000000               0.000000000               0.000000000               0.000289871               0.001089845               0.000376578              -0.000027529               0.000372454               0.000344925               0.000000000               0.000000000               0.000000000               0.000000000               0.000239640               0.001103763               0.000224918              -0.000048105               0.000383952               0.000335847               0.000000000               0.000000000               0.000000000               0.000000000               0.000225303               0.001104801               0.000159539              -0.000053612               0.000386134               0.000332522               0.000000000               0.000000000               0.000000000               0.000000000               0.000213704               0.001114382               0.000124858              -0.000059159               0.000391177               0.000332018               0.000000000               0.000000000               0.000000000               0.000000000               0.000195991               0.001140522               0.000100583              -0.000069068               0.000403193               0.000334124               0.000000000               0.000000000               0.000000000               0.000000000               0.000175119               0.001173122               0.000082773              -0.000080970               0.000418027               0.000337057               0.000000000               0.000000000               0.000000000               0.000000000               0.000159811               0.001200577               0.000072432              -0.000090143               0.000430236               0.000340093               0.000000000               0.000000000               0.000000000               0.000000000               0.000152153               0.001229104               0.000069280              -0.000096580               0.000441891               0.000345310               0.000000000               0.000000000               0.000000000               0.000000000               0.000144215               0.001267205               0.000066921              -0.000104320               0.000457171               0.000352851               0.000000000               0.000000000               0.000000000               0.000000000               0.000131371               0.001319590               0.000054527              -0.000115684               0.000478420               0.000362736               0.000000000               0.000000000               0.000000000               0.000000000               0.000113372               0.001377629               0.000040162              -0.000129689               0.000502435               0.000372746               0.000000000               0.000000000               0.000000000               0.000000000               0.000091241               0.001433468               0.000033253              -0.000144968               0.000526141               0.000381173               0.000000000               0.000000000               0.000000000               0.000000000               0.000064626               0.001485865               0.000025324              -0.000161498               0.000549116               0.000387618               0.000000000               0.000000000               0.000000000               0.000000000               0.000037259               0.001536340               0.000015889              -0.000178070               0.000571465               0.000393395               0.000000000               0.000000000               0.000000000               0.000000000               0.000015921               0.001585339               0.000009341              -0.000192197               0.000592507               0.000400310               0.000000000               0.000000000               0.000000000               0.000000000               0.000012945               0.001619117               0.000009905              -0.000197535               0.000605545               0.000408010               0.000000000               0.000000000               0.000000000               0.000000000               0.000414789               0.000968317               0.000507461               0.000034505               0.000311267               0.000345772               0.000000000               0.000000000               0.000000000               0.000000000               0.000295907               0.000976445               0.000376520              -0.000011091               0.000329175               0.000318084               0.000000000               0.000000000               0.000000000               0.000000000               0.000228994               0.001049816               0.000238913              -0.000045354               0.000365053               0.000319699               0.000000000               0.000000000               0.000000000               0.000000000               0.000212748               0.001079431               0.000174377              -0.000055148               0.000378190               0.000323041               0.000000000               0.000000000               0.000000000               0.000000000               0.000199166               0.001111800               0.000137036              -0.000064288               0.000392025               0.000327738               0.000000000               0.000000000               0.000000000               0.000000000               0.000179861               0.001156655               0.000111486              -0.000077134               0.000411259               0.000334125               0.000000000               0.000000000               0.000000000               0.000000000               0.000163430               0.001200073               0.000091731              -0.000088723               0.000429595               0.000340872               0.000000000               0.000000000               0.000000000               0.000000000               0.000156708               0.001244198               0.000078530              -0.000096759               0.000446982               0.000350222               0.000000000               0.000000000               0.000000000               0.000000000               0.000157042               0.001296697               0.000068672              -0.000103196               0.000466627               0.000363431               0.000000000               0.000000000               0.000000000               0.000000000               0.000154870               0.001367487               0.000058277              -0.000112859               0.000493444               0.000380585               0.000000000               0.000000000               0.000000000               0.000000000               0.000141689               0.001446002               0.000042834              -0.000127616               0.000524535               0.000396918               0.000000000               0.000000000               0.000000000               0.000000000               0.000119931               0.001520651               0.000030200              -0.000145107               0.000555248               0.000410141               0.000000000               0.000000000               0.000000000               0.000000000               0.000095146               0.001590551               0.000025449              -0.000163139               0.000584558               0.000421419               0.000000000               0.000000000               0.000000000               0.000000000               0.000069637               0.001657846               0.000019830              -0.000181117               0.000612982               0.000431865               0.000000000               0.000000000               0.000000000               0.000000000               0.000043204               0.001719560               0.000011946              -0.000198743               0.000639429               0.000440686               0.000000000               0.000000000               0.000000000               0.000000000               0.000020725               0.001777922               0.000005921              -0.000214468               0.000664124               0.000449656               0.000000000               0.000000000               0.000000000               0.000000000               0.000015608               0.001816298               0.000006583              -0.000221184               0.000679155               0.000457971               0.000000000               0.000000000               0.000000000               0.000000000               0.000422660               0.000807616               0.000466740               0.000057545               0.000250021               0.000307566               0.000000000               0.000000000               0.000000000               0.000000000               0.000301109               0.000875162               0.000367284               0.000003520               0.000290544               0.000294064               0.000000000               0.000000000               0.000000000               0.000000000               0.000224591               0.000999801               0.000252245              -0.000040754               0.000346848               0.000306095               0.000000000               0.000000000               0.000000000               0.000000000               0.000207720               0.001058200               0.000188006              -0.000054380               0.000370857               0.000316476               0.000000000               0.000000000               0.000000000               0.000000000               0.000192211               0.001113629               0.000148698              -0.000067124               0.000393581               0.000326456               0.000000000               0.000000000               0.000000000               0.000000000               0.000173102               0.001173308               0.000122254              -0.000081750               0.000418349               0.000336599               0.000000000               0.000000000               0.000000000               0.000000000               0.000161749               0.001233259               0.000099849              -0.000093501               0.000442249               0.000348748               0.000000000               0.000000000               0.000000000               0.000000000               0.000163175               0.001298403               0.000079964              -0.000101110               0.000466500               0.000365390               0.000000000               0.000000000               0.000000000               0.000000000               0.000172952               0.001379536               0.000062737              -0.000107585               0.000495702               0.000388117               0.000000000               0.000000000               0.000000000               0.000000000               0.000175000               0.001470061               0.000047593              -0.000118132               0.000529393               0.000411260               0.000000000               0.000000000               0.000000000               0.000000000               0.000159570               0.001559688               0.000035457              -0.000135122               0.000564932               0.000429810               0.000000000               0.000000000               0.000000000               0.000000000               0.000137743               0.001644267               0.000026027              -0.000153879               0.000599377               0.000445497               0.000000000               0.000000000               0.000000000               0.000000000               0.000115659               0.001721661               0.000020133              -0.000171835               0.000631160               0.000459324               0.000000000               0.000000000               0.000000000               0.000000000               0.000091181               0.001793483               0.000013604              -0.000189992               0.000661152               0.000471160               0.000000000               0.000000000               0.000000000               0.000000000               0.000067933               0.001864105               0.000005871              -0.000207538               0.000690541               0.000483004               0.000000000               0.000000000               0.000000000               0.000000000               0.000049369               0.001929212              -0.000000101              -0.000222638               0.000717277               0.000494639               0.000000000               0.000000000               0.000000000               0.000000000               0.000041092               0.001964041              -0.000000949              -0.000230095               0.000731372               0.000501277               0.000000000               0.000000000               0.000000000               0.000000000               0.000418131               0.000649550               0.000416256               0.000075604               0.000191313               0.000266917               0.000000000               0.000000000               0.000000000               0.000000000               0.000307399               0.000752759               0.000354245               0.000021179               0.000243857               0.000265037               0.000000000               0.000000000               0.000000000               0.000000000               0.000227854               0.000917284               0.000270407              -0.000029216               0.000315497               0.000286281               0.000000000               0.000000000               0.000000000               0.000000000               0.000210804               0.001005966               0.000207954              -0.000046694               0.000350883               0.000304189               0.000000000               0.000000000               0.000000000               0.000000000               0.000198071               0.001077889               0.000167815              -0.000060460               0.000379446               0.000318986               0.000000000               0.000000000               0.000000000               0.000000000               0.000181960               0.001150980               0.000140605              -0.000075637               0.000408869               0.000333231               0.000000000               0.000000000               0.000000000               0.000000000               0.000171784               0.001228998               0.000115794              -0.000089205               0.000439397               0.000350192               0.000000000               0.000000000               0.000000000               0.000000000               0.000175639               0.001314073               0.000093890              -0.000098394               0.000470818               0.000372424               0.000000000               0.000000000               0.000000000               0.000000000               0.000190147               0.001405122               0.000075036              -0.000104335               0.000503148               0.000398813               0.000000000               0.000000000               0.000000000               0.000000000               0.000201006               0.001497586               0.000057047              -0.000111821               0.000536464               0.000424643               0.000000000               0.000000000               0.000000000               0.000000000               0.000199093               0.001595139               0.000043795              -0.000124732               0.000573285               0.000448553               0.000000000               0.000000000               0.000000000               0.000000000               0.000185865               0.001690026               0.000035117              -0.000141553               0.000610521               0.000468967               0.000000000               0.000000000               0.000000000               0.000000000               0.000164916               0.001767415               0.000026394              -0.000159083               0.000642160               0.000483077               0.000000000               0.000000000               0.000000000               0.000000000               0.000139801               0.001837604               0.000015751              -0.000177275               0.000671620               0.000494346               0.000000000               0.000000000               0.000000000               0.000000000               0.000114653               0.001909356               0.000006503              -0.000195674               0.000701670               0.000505996               0.000000000               0.000000000               0.000000000               0.000000000               0.000096618               0.001982930               0.000001569              -0.000211634               0.000731515               0.000519881               0.000000000               0.000000000               0.000000000               0.000000000               0.000084735               0.002018819              -0.000001843              -0.000220576               0.000746458               0.000525882               0.000000000               0.000000000               0.000000000               0.000000000               0.000395113               0.000500594               0.000356172               0.000085592               0.000138332               0.000223924               0.000000000               0.000000000               0.000000000               0.000000000               0.000312896               0.000629725               0.000331774               0.000038620               0.000197033               0.000235653               0.000000000               0.000000000               0.000000000               0.000000000               0.000242257               0.000822249               0.000282095              -0.000011935               0.000278059               0.000266124               0.000000000               0.000000000               0.000000000               0.000000000               0.000222923               0.000935856               0.000227027              -0.000033386               0.000323078               0.000289692               0.000000000               0.000000000               0.000000000               0.000000000               0.000213505               0.001025662               0.000187020              -0.000048143               0.000357932               0.000309788               0.000000000               0.000000000               0.000000000               0.000000000               0.000202078               0.001112527               0.000159634              -0.000063286               0.000391934               0.000328648               0.000000000               0.000000000               0.000000000               0.000000000               0.000194447               0.001203191               0.000135351              -0.000077481               0.000426887               0.000349406               0.000000000               0.000000000               0.000000000               0.000000000               0.000199935               0.001300934               0.000114883              -0.000087641               0.000462854               0.000375213               0.000000000               0.000000000               0.000000000               0.000000000               0.000215583               0.001400236               0.000094084              -0.000094186               0.000498136               0.000403950               0.000000000               0.000000000               0.000000000               0.000000000               0.000233733               0.001502957               0.000072784              -0.000100219               0.000534387               0.000434168               0.000000000               0.000000000               0.000000000               0.000000000               0.000243239               0.001602916               0.000056531              -0.000109150               0.000570683               0.000461534               0.000000000               0.000000000               0.000000000               0.000000000               0.000237897               0.001692490               0.000045140              -0.000122349               0.000604941               0.000482591               0.000000000               0.000000000               0.000000000               0.000000000               0.000221651               0.001770598               0.000032618              -0.000138205               0.000636262               0.000498057               0.000000000               0.000000000               0.000000000               0.000000000               0.000200952               0.001842919               0.000018841              -0.000155007               0.000665969               0.000510962               0.000000000               0.000000000               0.000000000               0.000000000               0.000178048               0.001909717               0.000009521              -0.000171946               0.000693881               0.000521935               0.000000000               0.000000000               0.000000000               0.000000000               0.000157264               0.001982516               0.000004498              -0.000188840               0.000723779               0.000534939               0.000000000               0.000000000               0.000000000               0.000000000               0.000138614               0.002014679              -0.000001940              -0.000199854               0.000738171               0.000538317               0.000000000               0.000000000               0.000000000               0.000000000               0.000350964               0.000365643               0.000287325               0.000085905               0.000093245               0.000179150               0.000000000               0.000000000               0.000000000               0.000000000               0.000309394               0.000509379               0.000295227               0.000052350               0.000152341               0.000204691               0.000000000               0.000000000               0.000000000               0.000000000               0.000259262               0.000714781               0.000276733               0.000007875               0.000235633               0.000243508               0.000000000               0.000000000               0.000000000               0.000000000               0.000243419               0.000850372               0.000234124              -0.000015015               0.000288459               0.000273445               0.000000000               0.000000000               0.000000000               0.000000000               0.000237127               0.000959673               0.000198578              -0.000031037               0.000330233               0.000299197               0.000000000               0.000000000               0.000000000               0.000000000               0.000231575               0.001060272               0.000172913              -0.000045693               0.000368652               0.000322958               0.000000000               0.000000000               0.000000000               0.000000000               0.000228970               0.001164391               0.000151869              -0.000059685               0.000408021               0.000348337               0.000000000               0.000000000               0.000000000               0.000000000               0.000232000               0.001275160               0.000132645              -0.000072395               0.000449181               0.000376786               0.000000000               0.000000000               0.000000000               0.000000000               0.000244007               0.001391288               0.000112165              -0.000082408               0.000491227               0.000408819               0.000000000               0.000000000               0.000000000               0.000000000               0.000263752               0.001503151               0.000090312              -0.000088987               0.000530708               0.000441721               0.000000000               0.000000000               0.000000000               0.000000000               0.000277394               0.001597705               0.000069769              -0.000095690               0.000564460               0.000468770               0.000000000               0.000000000               0.000000000               0.000000000               0.000279526               0.001680995               0.000052934              -0.000105302               0.000595427               0.000490125               0.000000000               0.000000000               0.000000000               0.000000000               0.000272937               0.001763653               0.000038000              -0.000118105               0.000627247               0.000509142               0.000000000               0.000000000               0.000000000               0.000000000               0.000262511               0.001841186               0.000025153              -0.000131706               0.000657625               0.000525918               0.000000000               0.000000000               0.000000000               0.000000000               0.000248152               0.001911563               0.000015442              -0.000145888               0.000685811               0.000539923               0.000000000               0.000000000               0.000000000               0.000000000               0.000227739               0.001984037               0.000006592              -0.000162602               0.000715540               0.000552938               0.000000000               0.000000000               0.000000000               0.000000000               0.000206061               0.002013993              -0.000001458              -0.000174476               0.000729483               0.000555007               0.000000000               0.000000000               0.000000000               0.000000000               0.000291174               0.000251819               0.000215797               0.000077712               0.000058035               0.000135747               0.000000000               0.000000000               0.000000000               0.000000000               0.000295342               0.000397871               0.000245755               0.000061018               0.000112283               0.000173301               0.000000000               0.000000000               0.000000000               0.000000000               0.000276960               0.000604600               0.000252307               0.000028284               0.000192103               0.000220388               0.000000000               0.000000000               0.000000000               0.000000000               0.000270005               0.000756575               0.000224781               0.000006680               0.000249963               0.000256642               0.000000000               0.000000000               0.000000000               0.000000000               0.000268273               0.000882844               0.000197142              -0.000009753               0.000297529               0.000287776               0.000000000               0.000000000               0.000000000               0.000000000               0.000267293               0.000999251               0.000175468              -0.000024671               0.000341304               0.000316633               0.000000000               0.000000000               0.000000000               0.000000000               0.000267286               0.001118063               0.000156904              -0.000039526               0.000385859               0.000346334               0.000000000               0.000000000               0.000000000               0.000000000               0.000269976               0.001243813               0.000139810              -0.000054235               0.000432679               0.000378443               0.000000000               0.000000000               0.000000000               0.000000000               0.000280068               0.001372188               0.000123025              -0.000066498               0.000479558               0.000413060               0.000000000               0.000000000               0.000000000               0.000000000               0.000294136               0.001483396               0.000102011              -0.000075123               0.000519501               0.000444378               0.000000000               0.000000000               0.000000000               0.000000000               0.000304951               0.001571133               0.000079293              -0.000082035               0.000551051               0.000469016               0.000000000               0.000000000               0.000000000               0.000000000               0.000312937               0.001655304               0.000059035              -0.000089561               0.000581616               0.000492055               0.000000000               0.000000000               0.000000000               0.000000000               0.000318117               0.001745509               0.000043327              -0.000098895               0.000614796               0.000515901               0.000000000               0.000000000               0.000000000               0.000000000               0.000321232               0.001835410               0.000031964              -0.000108964               0.000648119               0.000539155               0.000000000               0.000000000               0.000000000               0.000000000               0.000318386               0.001917983               0.000019983              -0.000120353               0.000679439               0.000559086               0.000000000               0.000000000               0.000000000               0.000000000               0.000307599               0.001990912               0.000008391              -0.000133514               0.000708135               0.000574621               0.000000000               0.000000000               0.000000000               0.000000000               0.000292062               0.002020021               0.000000935              -0.000142979               0.000720993               0.000578014               0.000000000               0.000000000               0.000000000               0.000000000               0.000225053               0.000167763               0.000147255               0.000063424               0.000034779               0.000098203               0.000000000               0.000000000               0.000000000               0.000000000               0.000272500               0.000303225               0.000187581               0.000064284               0.000079646               0.000143930               0.000000000               0.000000000               0.000000000               0.000000000               0.000293940               0.000501582               0.000209849               0.000047529               0.000151349               0.000198878               0.000000000               0.000000000               0.000000000               0.000000000               0.000299052               0.000664767               0.000195240               0.000029048               0.000211904               0.000240952               0.000000000               0.000000000               0.000000000               0.000000000               0.000302679               0.000805286               0.000176913               0.000012844               0.000264145               0.000276989               0.000000000               0.000000000               0.000000000               0.000000000               0.000305788               0.000937267               0.000160928              -0.000002488               0.000313249               0.000310761               0.000000000               0.000000000               0.000000000               0.000000000               0.000307387               0.001069033               0.000145072              -0.000018359               0.000362460               0.000344101               0.000000000               0.000000000               0.000000000               0.000000000               0.000313467               0.001203074               0.000132185              -0.000032834               0.000411965               0.000379131               0.000000000               0.000000000               0.000000000               0.000000000               0.000320746               0.001331202               0.000118714              -0.000046120               0.000459103               0.000412983               0.000000000               0.000000000               0.000000000               0.000000000               0.000325680               0.001439104               0.000099505              -0.000057758               0.000498949               0.000441191               0.000000000               0.000000000               0.000000000               0.000000000               0.000332858               0.001531591               0.000077906              -0.000066627               0.000532734               0.000466107               0.000000000               0.000000000               0.000000000               0.000000000               0.000344774               0.001626974               0.000058921              -0.000074081               0.000567013               0.000492932               0.000000000               0.000000000               0.000000000               0.000000000               0.000360041               0.001728048               0.000046097              -0.000080990               0.000603007               0.000522017               0.000000000               0.000000000               0.000000000               0.000000000               0.000373725               0.001827482               0.000036130              -0.000088288               0.000638584               0.000550296               0.000000000               0.000000000               0.000000000               0.000000000               0.000380880               0.001915366               0.000022868              -0.000096591               0.000670646               0.000574055               0.000000000               0.000000000               0.000000000               0.000000000               0.000382716               0.001990669               0.000010344              -0.000105315               0.000698655               0.000593340               0.000000000               0.000000000               0.000000000               0.000000000               0.000377218               0.002023290               0.000003654              -0.000111454               0.000711575               0.000600120               0.000000000               0.000000000               0.000000000               0.000000000               0.000164129               0.000111401               0.000087725               0.000047623               0.000021259               0.000068882               0.000000000               0.000000000               0.000000000               0.000000000               0.000249343               0.000232275               0.000125658               0.000064468               0.000055935               0.000120403               0.000000000               0.000000000               0.000000000               0.000000000               0.000305838               0.000418356               0.000150418               0.000062394               0.000118653               0.000181047               0.000000000               0.000000000               0.000000000               0.000000000               0.000325323               0.000585381               0.000144978               0.000048823               0.000178851               0.000227674               0.000000000               0.000000000               0.000000000               0.000000000               0.000336830               0.000739174               0.000135017               0.000033914               0.000235084               0.000268998               0.000000000               0.000000000               0.000000000               0.000000000               0.000341540               0.000882303               0.000124424               0.000017789               0.000288168               0.000305958               0.000000000               0.000000000               0.000000000               0.000000000               0.000347120               0.001018023               0.000114430               0.000002917               0.000338365               0.000341282               0.000000000               0.000000000               0.000000000               0.000000000               0.000353653               0.001155436               0.000105285              -0.000011810               0.000389078               0.000377268               0.000000000               0.000000000               0.000000000               0.000000000               0.000355541               0.001281432               0.000093401              -0.000026851               0.000436090               0.000409239               0.000000000               0.000000000               0.000000000               0.000000000               0.000354951               0.001388587               0.000079051              -0.000040467               0.000476347               0.000435880               0.000000000               0.000000000               0.000000000               0.000000000               0.000361856               0.001494096               0.000064318              -0.000051066               0.000515049               0.000463983               0.000000000               0.000000000               0.000000000               0.000000000               0.000378607               0.001606342               0.000051270              -0.000058815               0.000555047               0.000496232               0.000000000               0.000000000               0.000000000               0.000000000               0.000398147               0.001715476               0.000041657              -0.000065129               0.000593529               0.000528400               0.000000000               0.000000000               0.000000000               0.000000000               0.000413750               0.001812504               0.000031869              -0.000071407               0.000627964               0.000556557               0.000000000               0.000000000               0.000000000               0.000000000               0.000426559               0.001897834               0.000019985              -0.000077269               0.000658361               0.000581092               0.000000000               0.000000000               0.000000000               0.000000000               0.000440117               0.001979366               0.000009501              -0.000082377               0.000687241               0.000604864               0.000000000               0.000000000               0.000000000               0.000000000               0.000444174               0.002018480               0.000004021              -0.000085744               0.000701401               0.000615657               0.000000000               0.000000000               0.000000000               0.000000000               0.000119788               0.000080456               0.000039981               0.000034863               0.000015197               0.000050061               0.000000000               0.000000000               0.000000000               0.000000000               0.000231688               0.000189500               0.000063090               0.000063195               0.000042101               0.000105296               0.000000000               0.000000000               0.000000000               0.000000000               0.000310478               0.000362323               0.000078284               0.000071138               0.000097061               0.000168199               0.000000000               0.000000000               0.000000000               0.000000000               0.000344883               0.000531661               0.000077242               0.000062873               0.000156261               0.000219134               0.000000000               0.000000000               0.000000000               0.000000000               0.000362199               0.000693948               0.000073248               0.000049081               0.000214954               0.000264034               0.000000000               0.000000000               0.000000000               0.000000000               0.000369826               0.000842122               0.000068281               0.000033419               0.000269565               0.000302984               0.000000000               0.000000000               0.000000000               0.000000000               0.000374980               0.000980227               0.000064206               0.000018089               0.000320710               0.000338799               0.000000000               0.000000000               0.000000000               0.000000000               0.000378376               0.001116227               0.000058488               0.000002362               0.000371285               0.000373647               0.000000000               0.000000000               0.000000000               0.000000000               0.000378696               0.001239126               0.000050873              -0.000012880               0.000417331               0.000404451               0.000000000               0.000000000               0.000000000               0.000000000               0.000380691               0.001353983               0.000043979              -0.000026489               0.000460153               0.000433664               0.000000000               0.000000000               0.000000000               0.000000000               0.000389198               0.001472656               0.000038246              -0.000038133               0.000503591               0.000465459               0.000000000               0.000000000               0.000000000               0.000000000               0.000404054               0.001591026               0.000031665              -0.000047358               0.000546123               0.000498765               0.000000000               0.000000000               0.000000000               0.000000000               0.000420465               0.001698191               0.000024536              -0.000054599               0.000584258               0.000529658               0.000000000               0.000000000               0.000000000               0.000000000               0.000436839               0.001794150               0.000017767              -0.000060454               0.000618195               0.000557742               0.000000000               0.000000000               0.000000000               0.000000000               0.000455926               0.001884614               0.000011834              -0.000064604               0.000649733               0.000585129               0.000000000               0.000000000               0.000000000               0.000000000               0.000477833               0.001971583               0.000006296              -0.000067260               0.000679608               0.000612348               0.000000000               0.000000000               0.000000000               0.000000000               0.000488447               0.002013421               0.000002940              -0.000068510               0.000693970               0.000625461               0.000000000               0.000000000               0.000000000               0.000000000               0.000103274               0.000071034              -0.000000000               0.000029848               0.000013728               0.000043576               0.000000000               0.000000000               0.000000000               0.000000000               0.000224929               0.000175023              -0.000000000               0.000062470               0.000037517               0.000099987               0.000000000               0.000000000               0.000000000               0.000000000               0.000311409               0.000341567               0.000000000               0.000074082               0.000089161               0.000163242               0.000000000               0.000000000               0.000000000               0.000000000               0.000352501               0.000513502               0.000000000               0.000067999               0.000148499               0.000216499               0.000000000               0.000000000               0.000000000               0.000000000               0.000371355               0.000677886              -0.000000000               0.000054522               0.000207786               0.000262308               0.000000000               0.000000000               0.000000000               0.000000000               0.000381627               0.000826788              -0.000000000               0.000039761               0.000262340               0.000302101               0.000000000               0.000000000               0.000000000               0.000000000               0.000383878               0.000967560               0.000000000               0.000023009               0.000314847               0.000337856               0.000000000               0.000000000               0.000000000               0.000000000               0.000385702               0.001100819               0.000000000               0.000007036               0.000364591               0.000371626               0.000000000               0.000000000               0.000000000               0.000000000               0.000387636               0.001220924              -0.000000000              -0.000007252               0.000409388               0.000402136               0.000000000               0.000000000               0.000000000               0.000000000               0.000392620               0.001343607               0.000000000              -0.000020718               0.000454771               0.000434052               0.000000000               0.000000000               0.000000000               0.000000000               0.000400827               0.001466644               0.000000000              -0.000033020               0.000499883               0.000466863               0.000000000               0.000000000               0.000000000               0.000000000               0.000411588               0.001582388               0.000000000              -0.000043453               0.000541942               0.000498489               0.000000000               0.000000000               0.000000000               0.000000000               0.000426886               0.001689829               0.000000000              -0.000051146               0.000580319               0.000529173               0.000000000               0.000000000               0.000000000               0.000000000               0.000445661               0.001788030               0.000000000              -0.000056381               0.000614798               0.000558417               0.000000000               0.000000000               0.000000000               0.000000000               0.000467142               0.001879980              -0.000000000              -0.000059819               0.000646593               0.000586774               0.000000000               0.000000000               0.000000000               0.000000000               0.000490902               0.001967819               0.000000000              -0.000061889               0.000676563               0.000614674               0.000000000               0.000000000               0.000000000               0.000000000               0.000503660               0.002010458               0.000000000              -0.000062434               0.000690958               0.000628523               0.000000000               0.000000000               0.000000000               0.000000000               0.000167360               0.001930254               0.000000000              -0.000178521               0.000702919               0.000524397               0.000000000               0.000000000               0.000000000               0.000000000               0.000196408               0.001626500               0.000000000              -0.000129659               0.000585381               0.000455722               0.000000000               0.000000000               0.000000000               0.000000000               0.000286455               0.001378513              -0.000000000              -0.000064893               0.000481131               0.000416237               0.000000000               0.000000000               0.000000000               0.000000000               0.000323204               0.001240546              -0.000000000              -0.000033867               0.000424800               0.000390933               0.000000000               0.000000000               0.000000000               0.000000000               0.000340355               0.001153280              -0.000000000              -0.000016527               0.000389932               0.000373405               0.000000000               0.000000000               0.000000000               0.000000000               0.000347432               0.001098131              -0.000000000              -0.000006979               0.000368367               0.000361387               0.000000000               0.000000000               0.000000000               0.000000000               0.000346841               0.001064707               0.000000000              -0.000003023               0.000355906               0.000352884               0.000000000               0.000000000               0.000000000               0.000000000               0.000337767               0.001052253               0.000000000              -0.000004869               0.000352370               0.000347502               0.000000000               0.000000000               0.000000000               0.000000000               0.000318687               0.001056250               0.000000000              -0.000012523               0.000356254               0.000343731               0.000000000               0.000000000               0.000000000               0.000000000               0.000294155               0.001068527               0.000000000              -0.000023258               0.000363925               0.000340667               0.000000000               0.000000000               0.000000000               0.000000000               0.000266621               0.001082023               0.000000000              -0.000035270               0.000372427               0.000337157               0.000000000               0.000000000               0.000000000               0.000000000               0.000236838               0.001099611               0.000000000              -0.000048637               0.000382746               0.000334109               0.000000000               0.000000000               0.000000000               0.000000000               0.000200049               0.001124406               0.000000000              -0.000065532               0.000396642               0.000331110               0.000000000               0.000000000               0.000000000               0.000000000               0.000151383               0.001149953               0.000000000              -0.000086975               0.000412306               0.000325330               0.000000000               0.000000000               0.000000000               0.000000000               0.000100597               0.001179378              -0.000000000              -0.000109698               0.000429688               0.000319990               0.000000000               0.000000000               0.000000000               0.000000000               0.000051796               0.001216397              -0.000000000              -0.000132626               0.000449670               0.000317044               0.000000000               0.000000000               0.000000000               0.000000000               0.000031329               0.001248059              -0.000000000              -0.000144259               0.000464102               0.000319843               0.000000000               0.000000000               0.000000000               0.000000000               0.000179713               0.001900407              -0.000150182              -0.000170158               0.000690182               0.000520024               0.000000000               0.000000000               0.000000000               0.000000000               0.000201840               0.001603789              -0.000103184              -0.000124783               0.000576185               0.000451402               0.000000000               0.000000000               0.000000000               0.000000000               0.000285847               0.001367462              -0.000053491              -0.000063740               0.000477063               0.000413323               0.000000000               0.000000000               0.000000000               0.000000000               0.000318620               0.001234998              -0.000031216              -0.000034892               0.000423293               0.000388400               0.000000000               0.000000000               0.000000000               0.000000000               0.000332142               0.001152602              -0.000021959              -0.000019522               0.000390704               0.000371182               0.000000000               0.000000000               0.000000000               0.000000000               0.000337990               0.001100786              -0.000017669              -0.000010852               0.000370543               0.000359690               0.000000000               0.000000000               0.000000000               0.000000000               0.000335733               0.001071179              -0.000014314              -0.000007998               0.000359722               0.000351724               0.000000000               0.000000000               0.000000000               0.000000000               0.000323985               0.001061590              -0.000011621              -0.000011204               0.000357595               0.000346390               0.000000000               0.000000000               0.000000000               0.000000000               0.000305837               0.001065688              -0.000011646              -0.000018522               0.000361400               0.000342878               0.000000000               0.000000000               0.000000000               0.000000000               0.000283875               0.001076903              -0.000016175              -0.000028160               0.000368351               0.000340191               0.000000000               0.000000000               0.000000000               0.000000000               0.000257619               0.001088330              -0.000020896              -0.000039434               0.000375918               0.000336484               0.000000000               0.000000000               0.000000000               0.000000000               0.000226958               0.001103919              -0.000019657              -0.000052880               0.000385596               0.000332716               0.000000000               0.000000000               0.000000000               0.000000000               0.000190814               0.001125668              -0.000018180              -0.000069153               0.000398270               0.000329117               0.000000000               0.000000000               0.000000000               0.000000000               0.000147866               0.001148774              -0.000017996              -0.000088147               0.000412303               0.000324156               0.000000000               0.000000000               0.000000000               0.000000000               0.000100705               0.001174679              -0.000014162              -0.000109070               0.000427912               0.000318842               0.000000000               0.000000000               0.000000000               0.000000000               0.000051272               0.001204392              -0.000008093              -0.000131322               0.000445234               0.000313912               0.000000000               0.000000000               0.000000000               0.000000000               0.000029670               0.001229561              -0.000005566              -0.000142569               0.000457372               0.000314804               0.000000000               0.000000000               0.000000000               0.000000000               0.000212518               0.001814471              -0.000286757              -0.000147115               0.000653856               0.000506741               0.000000000               0.000000000               0.000000000               0.000000000               0.000217349               0.001541067              -0.000195918              -0.000111127               0.000550726               0.000439599               0.000000000               0.000000000               0.000000000               0.000000000               0.000282518               0.001334359              -0.000102227              -0.000060851               0.000465066               0.000404215               0.000000000               0.000000000               0.000000000               0.000000000               0.000304147               0.001217980              -0.000061839              -0.000038192               0.000418720               0.000380528               0.000000000               0.000000000               0.000000000               0.000000000               0.000311708               0.001149241              -0.000044442              -0.000026765               0.000391998               0.000365233               0.000000000               0.000000000               0.000000000               0.000000000               0.000312569               0.001108735              -0.000035971              -0.000021378               0.000376701               0.000355322               0.000000000               0.000000000               0.000000000               0.000000000               0.000304581               0.001088611              -0.000029201              -0.000021858               0.000370153               0.000348294               0.000000000               0.000000000               0.000000000               0.000000000               0.000289831               0.001086240              -0.000023942              -0.000027093               0.000371108               0.000344014               0.000000000               0.000000000               0.000000000               0.000000000               0.000271661               0.001091632              -0.000023978              -0.000034581               0.000375401               0.000340820               0.000000000               0.000000000               0.000000000               0.000000000               0.000250930               0.001098849              -0.000031260              -0.000043257               0.000380698               0.000337441               0.000000000               0.000000000               0.000000000               0.000000000               0.000230115               0.001107034              -0.000037428              -0.000052086               0.000386370               0.000334284               0.000000000               0.000000000               0.000000000               0.000000000               0.000204831               0.001119453              -0.000033260              -0.000063120               0.000394187               0.000331067               0.000000000               0.000000000               0.000000000               0.000000000               0.000170154               0.001134093              -0.000029123              -0.000077954               0.000404012               0.000326058               0.000000000               0.000000000               0.000000000               0.000000000               0.000130218               0.001150186              -0.000026431              -0.000094941               0.000415039               0.000320097               0.000000000               0.000000000               0.000000000               0.000000000               0.000089175               0.001169195              -0.000019121              -0.000112709               0.000427297               0.000314589               0.000000000               0.000000000               0.000000000               0.000000000               0.000046028               0.001187958              -0.000010180              -0.000131234               0.000439727               0.000308493               0.000000000               0.000000000               0.000000000               0.000000000               0.000026243               0.001202746              -0.000006672              -0.000140502               0.000447745               0.000307243               0.000000000               0.000000000               0.000000000               0.000000000               0.000259712               0.001681714              -0.000396560              -0.000112822               0.000598173               0.000485351               0.000000000               0.000000000               0.000000000               0.000000000               0.000238495               0.001448458              -0.000271028              -0.000091622               0.000513355               0.000421733               0.000000000               0.000000000               0.000000000               0.000000000               0.000274456               0.001284195              -0.000144130              -0.000057603               0.000447262               0.000389659               0.000000000               0.000000000               0.000000000               0.000000000               0.000283347               0.001193455              -0.000090123              -0.000042927               0.000412123               0.000369197               0.000000000               0.000000000               0.000000000               0.000000000               0.000284854               0.001143207              -0.000066078              -0.000036081               0.000393092               0.000357011               0.000000000               0.000000000               0.000000000               0.000000000               0.000277443               0.001117283              -0.000054359              -0.000035619               0.000384297               0.000348678               0.000000000               0.000000000               0.000000000               0.000000000               0.000263461               0.001112583              -0.000044103              -0.000040275               0.000384282               0.000344007               0.000000000               0.000000000               0.000000000               0.000000000               0.000246147               0.001118039              -0.000036367              -0.000047450               0.000388493               0.000341043               0.000000000               0.000000000               0.000000000               0.000000000               0.000228372               0.001126528              -0.000036974              -0.000055176               0.000393898               0.000338721               0.000000000               0.000000000               0.000000000               0.000000000               0.000210830               0.001130748              -0.000044541              -0.000062282               0.000397673               0.000335391               0.000000000               0.000000000               0.000000000               0.000000000               0.000192770               0.001136109              -0.000047875              -0.000069725               0.000401941               0.000332216               0.000000000               0.000000000               0.000000000               0.000000000               0.000171067               0.001147562              -0.000040046              -0.000079295               0.000408949               0.000329654               0.000000000               0.000000000               0.000000000               0.000000000               0.000143232               0.001159328              -0.000032412              -0.000091204               0.000416840               0.000325636               0.000000000               0.000000000               0.000000000               0.000000000               0.000112325               0.001172526              -0.000025561              -0.000104444               0.000425653               0.000321209               0.000000000               0.000000000               0.000000000               0.000000000               0.000078174               0.001186300              -0.000015946              -0.000118972               0.000435087               0.000316115               0.000000000               0.000000000               0.000000000               0.000000000               0.000039505               0.001199531              -0.000007477              -0.000135127               0.000444882               0.000309755               0.000000000               0.000000000               0.000000000               0.000000000               0.000022410               0.001211702              -0.000005319              -0.000143059               0.000451583               0.000308524               0.000000000               0.000000000               0.000000000               0.000000000               0.000313620               0.001518125              -0.000473121              -0.000072158               0.000530089               0.000457931               0.000000000               0.000000000               0.000000000               0.000000000               0.000260312               0.001335685              -0.000326221              -0.000069344               0.000468338               0.000398995               0.000000000               0.000000000               0.000000000               0.000000000               0.000264145               0.001225619              -0.000178375              -0.000054148               0.000426585               0.000372437               0.000000000               0.000000000               0.000000000               0.000000000               0.000262015               0.001164578              -0.000115694              -0.000047317               0.000403961               0.000356644               0.000000000               0.000000000               0.000000000               0.000000000               0.000255840               0.001133610              -0.000088128              -0.000045761               0.000393120               0.000347359               0.000000000               0.000000000               0.000000000               0.000000000               0.000243522               0.001125226              -0.000071571              -0.000049333               0.000391516               0.000342183               0.000000000               0.000000000               0.000000000               0.000000000               0.000224279               0.001135076              -0.000057752              -0.000057780               0.000397615               0.000339835               0.000000000               0.000000000               0.000000000               0.000000000               0.000203220               0.001149620              -0.000049171              -0.000067495               0.000405701               0.000338206               0.000000000               0.000000000               0.000000000               0.000000000               0.000187549               0.001160312              -0.000049539              -0.000074708               0.000411670               0.000336962               0.000000000               0.000000000               0.000000000               0.000000000               0.000172721               0.001166692              -0.000056847              -0.000081066               0.000415915               0.000334849               0.000000000               0.000000000               0.000000000               0.000000000               0.000156986               0.001178034              -0.000055071              -0.000088384               0.000422136               0.000333751               0.000000000               0.000000000               0.000000000               0.000000000               0.000139412               0.001195488              -0.000043449              -0.000097156               0.000430877               0.000333721               0.000000000               0.000000000               0.000000000               0.000000000               0.000118068               0.001211710              -0.000034410              -0.000107188               0.000439629               0.000332441               0.000000000               0.000000000               0.000000000               0.000000000               0.000091065               0.001228327              -0.000026824              -0.000119391               0.000449235               0.000329844               0.000000000               0.000000000               0.000000000               0.000000000               0.000060431               0.001245879              -0.000018072              -0.000133073               0.000459647               0.000326574               0.000000000               0.000000000               0.000000000               0.000000000               0.000030903               0.001266187              -0.000009035              -0.000146684               0.000470953               0.000324269               0.000000000               0.000000000               0.000000000               0.000000000               0.000020965               0.001284652              -0.000007005              -0.000152719               0.000479119               0.000326400               0.000000000               0.000000000               0.000000000               0.000000000               0.000361334               0.001338901              -0.000515672              -0.000031863               0.000456917               0.000425054               0.000000000               0.000000000               0.000000000               0.000000000               0.000278361               0.001212718              -0.000360463              -0.000047205               0.000419970               0.000372765               0.000000000               0.000000000               0.000000000               0.000000000               0.000251981               0.001163138              -0.000204860              -0.000050899               0.000404675               0.000353776               0.000000000               0.000000000               0.000000000               0.000000000               0.000241589               0.001133275              -0.000139510              -0.000051063               0.000394776               0.000343712               0.000000000               0.000000000               0.000000000               0.000000000               0.000232346               0.001122966              -0.000108113              -0.000053241               0.000392065               0.000338824               0.000000000               0.000000000               0.000000000               0.000000000               0.000215982               0.001131811              -0.000087205              -0.000060483               0.000397428               0.000336945               0.000000000               0.000000000               0.000000000               0.000000000               0.000194651               0.001154151              -0.000070521              -0.000071274               0.000408471               0.000337197               0.000000000               0.000000000               0.000000000               0.000000000               0.000174322               0.001174843              -0.000061309              -0.000081484               0.000418772               0.000337287               0.000000000               0.000000000               0.000000000               0.000000000               0.000160101               0.001191039              -0.000061811              -0.000088842               0.000426623               0.000337781               0.000000000               0.000000000               0.000000000               0.000000000               0.000148459               0.001208298              -0.000065027              -0.000095365               0.000434550               0.000339185               0.000000000               0.000000000               0.000000000               0.000000000               0.000134940               0.001235361              -0.000058333              -0.000103817               0.000446389               0.000342571               0.000000000               0.000000000               0.000000000               0.000000000               0.000117595               0.001267956              -0.000045502              -0.000114396               0.000460780               0.000346384               0.000000000               0.000000000               0.000000000               0.000000000               0.000096969               0.001300824              -0.000036909              -0.000126239               0.000475683               0.000349444               0.000000000               0.000000000               0.000000000               0.000000000               0.000070458               0.001332990              -0.000028473              -0.000140202               0.000491060               0.000350858               0.000000000               0.000000000               0.000000000               0.000000000               0.000043618               0.001367759              -0.000019564              -0.000154613               0.000507453               0.000352840               0.000000000               0.000000000               0.000000000               0.000000000               0.000021884               0.001403689              -0.000010569              -0.000167254               0.000523643               0.000356389               0.000000000               0.000000000               0.000000000               0.000000000               0.000017122               0.001429490              -0.000008710              -0.000172265               0.000533914               0.000361648               0.000000000               0.000000000               0.000000000               0.000000000               0.000395171               0.001151423              -0.000526765               0.000004260               0.000382384               0.000386644               0.000000000               0.000000000               0.000000000               0.000000000               0.000289871               0.001089845              -0.000376578              -0.000027529               0.000372454               0.000344925               0.000000000               0.000000000               0.000000000               0.000000000               0.000239640               0.001103763              -0.000224918              -0.000048105               0.000383952               0.000335847               0.000000000               0.000000000               0.000000000               0.000000000               0.000225303               0.001104801              -0.000159539              -0.000053612               0.000386134               0.000332522               0.000000000               0.000000000               0.000000000               0.000000000               0.000213704               0.001114382              -0.000124858              -0.000059159               0.000391177               0.000332018               0.000000000               0.000000000               0.000000000               0.000000000               0.000195991               0.001140522              -0.000100583              -0.000069068               0.000403193               0.000334124               0.000000000               0.000000000               0.000000000               0.000000000               0.000175119               0.001173122              -0.000082773              -0.000080970               0.000418027               0.000337057               0.000000000               0.000000000               0.000000000               0.000000000               0.000159811               0.001200577              -0.000072432              -0.000090143               0.000430236               0.000340093               0.000000000               0.000000000               0.000000000               0.000000000               0.000152153               0.001229104              -0.000069280              -0.000096580               0.000441891               0.000345310               0.000000000               0.000000000               0.000000000               0.000000000               0.000144215               0.001267205              -0.000066921              -0.000104320               0.000457171               0.000352851               0.000000000               0.000000000               0.000000000               0.000000000               0.000131371               0.001319590              -0.000054527              -0.000115684               0.000478420               0.000362736               0.000000000               0.000000000               0.000000000               0.000000000               0.000113372               0.001377629              -0.000040162              -0.000129689               0.000502435               0.000372746               0.000000000               0.000000000               0.000000000               0.000000000               0.000091241               0.001433468              -0.000033253              -0.000144968               0.000526141               0.000381173               0.000000000               0.000000000               0.000000000               0.000000000               0.000064626               0.001485865              -0.000025324              -0.000161498               0.000549116               0.000387618               0.000000000               0.000000000               0.000000000               0.000000000               0.000037259               0.001536340              -0.000015889              -0.000178070               0.000571465               0.000393395               0.000000000               0.000000000               0.000000000               0.000000000               0.000015921               0.001585339              -0.000009341              -0.000192197               0.000592507               0.000400310               0.000000000               0.000000000               0.000000000               0.000000000               0.000012945               0.001619117              -0.000009905              -0.000197535               0.000605545               0.000408010               0.000000000               0.000000000               0.000000000               0.000000000               0.000414789               0.000968317              -0.000507461               0.000034505               0.000311267               0.000345772               0.000000000               0.000000000               0.000000000               0.000000000               0.000295907               0.000976445              -0.000376520              -0.000011091               0.000329175               0.000318084               0.000000000               0.000000000               0.000000000               0.000000000               0.000228994               0.001049816              -0.000238913              -0.000045354               0.000365053               0.000319699               0.000000000               0.000000000               0.000000000               0.000000000               0.000212748               0.001079431              -0.000174377              -0.000055148               0.000378190               0.000323041               0.000000000               0.000000000               0.000000000               0.000000000               0.000199166               0.001111800              -0.000137036              -0.000064288               0.000392025               0.000327738               0.000000000               0.000000000               0.000000000               0.000000000               0.000179861               0.001156655              -0.000111486              -0.000077134               0.000411259               0.000334125               0.000000000               0.000000000               0.000000000               0.000000000               0.000163430               0.001200073              -0.000091731              -0.000088723               0.000429595               0.000340872               0.000000000               0.000000000               0.000000000               0.000000000               0.000156708               0.001244198              -0.000078530              -0.000096759               0.000446982               0.000350222               0.000000000               0.000000000               0.000000000               0.000000000               0.000157042               0.001296697              -0.000068672              -0.000103196               0.000466627               0.000363431               0.000000000               0.000000000               0.000000000               0.000000000               0.000154870               0.001367487              -0.000058277              -0.000112859               0.000493444               0.000380585               0.000000000               0.000000000               0.000000000               0.000000000               0.000141689               0.001446002              -0.000042834              -0.000127616               0.000524535               0.000396918               0.000000000               0.000000000               0.000000000               0.000000000               0.000119931               0.001520651              -0.000030200              -0.000145107               0.000555248               0.000410141               0.000000000               0.000000000               0.000000000               0.000000000               0.000095146               0.001590551              -0.000025449              -0.000163139               0.000584558               0.000421419               0.000000000               0.000000000               0.000000000               0.000000000               0.000069637               0.001657846              -0.000019830              -0.000181117               0.000612982               0.000431865               0.000000000               0.000000000               0.000000000               0.000000000               0.000043204               0.001719560              -0.000011946              -0.000198743               0.000639429               0.000440686               0.000000000               0.000000000               0.000000000               0.000000000               0.000020725               0.001777922              -0.000005921              -0.000214468               0.000664124               0.000449656               0.000000000               0.000000000               0.000000000               0.000000000               0.000015608               0.001816298              -0.000006583              -0.000221184               0.000679155               0.000457971               0.000000000               0.000000000               0.000000000               0.000000000               0.000422660               0.000807616              -0.000466740               0.000057545               0.000250021               0.000307566               0.000000000               0.000000000               0.000000000               0.000000000               0.000301109               0.000875162              -0.000367284               0.000003520               0.000290544               0.000294064               0.000000000               0.000000000               0.000000000               0.000000000               0.000224591               0.000999801              -0.000252245              -0.000040754               0.000346848               0.000306095               0.000000000               0.000000000               0.000000000               0.000000000               0.000207720               0.001058200              -0.000188006              -0.000054380               0.000370857               0.000316476               0.000000000               0.000000000               0.000000000               0.000000000               0.000192211               0.001113629              -0.000148698              -0.000067124               0.000393581               0.000326456               0.000000000               0.000000000               0.000000000               0.000000000               0.000173102               0.001173308              -0.000122254              -0.000081750               0.000418349               0.000336599               0.000000000               0.000000000               0.000000000               0.000000000               0.000161749               0.001233259              -0.000099849              -0.000093501               0.000442249               0.000348748               0.000000000               0.000000000               0.000000000               0.000000000               0.000163175               0.001298403              -0.000079964              -0.000101110               0.000466500               0.000365390               0.000000000               0.000000000               0.000000000               0.000000000               0.000172952               0.001379536              -0.000062737              -0.000107585               0.000495702               0.000388117               0.000000000               0.000000000               0.000000000               0.000000000               0.000175000               0.001470061              -0.000047593              -0.000118132               0.000529393               0.000411260               0.000000000               0.000000000               0.000000000               0.000000000               0.000159570               0.001559688              -0.000035457              -0.000135122               0.000564932               0.000429810               0.000000000               0.000000000               0.000000000               0.000000000               0.000137743               0.001644267              -0.000026027              -0.000153879               0.000599377               0.000445497               0.000000000               0.000000000               0.000000000               0.000000000               0.000115659               0.001721661              -0.000020133              -0.000171835               0.000631160               0.000459324               0.000000000               0.000000000               0.000000000               0.000000000               0.000091181               0.001793483              -0.000013604              -0.000189992               0.000661152               0.000471160               0.000000000               0.000000000               0.000000000               0.000000000               0.000067933               0.001864105              -0.000005871              -0.000207538               0.000690541               0.000483004               0.000000000               0.000000000               0.000000000               0.000000000               0.000049369               0.001929212               0.000000101              -0.000222638               0.000717277               0.000494639               0.000000000               0.000000000               0.000000000               0.000000000               0.000041092               0.001964041               0.000000949              -0.000230095               0.000731372               0.000501277               0.000000000               0.000000000               0.000000000               0.000000000               0.000418131               0.000649550              -0.000416256               0.000075604               0.000191313               0.000266917               0.000000000               0.000000000               0.000000000               0.000000000               0.000307399               0.000752759              -0.000354245               0.000021179               0.000243857               0.000265037               0.000000000               0.000000000               0.000000000               0.000000000               0.000227854               0.000917284              -0.000270407              -0.000029216               0.000315497               0.000286281               0.000000000               0.000000000               0.000000000               0.000000000               0.000210804               0.001005966              -0.000207954              -0.000046694               0.000350883               0.000304189               0.000000000               0.000000000               0.000000000               0.000000000               0.000198071               0.001077889              -0.000167815              -0.000060460               0.000379446               0.000318986               0.000000000               0.000000000               0.000000000               0.000000000               0.000181960               0.001150980              -0.000140605              -0.000075637               0.000408869               0.000333231               0.000000000               0.000000000               0.000000000               0.000000000               0.000171784               0.001228998              -0.000115794              -0.000089205               0.000439397               0.000350192               0.000000000               0.000000000               0.000000000               0.000000000               0.000175639               0.001314073              -0.000093890              -0.000098394               0.000470818               0.000372424               0.000000000               0.000000000               0.000000000               0.000000000               0.000190147               0.001405122              -0.000075036              -0.000104335               0.000503148               0.000398813               0.000000000               0.000000000               0.000000000               0.000000000               0.000201006               0.001497586              -0.000057047              -0.000111821               0.000536464               0.000424643               0.000000000               0.000000000               0.000000000               0.000000000               0.000199093               0.001595139              -0.000043795              -0.000124732               0.000573285               0.000448553               0.000000000               0.000000000               0.000000000               0.000000000               0.000185865               0.001690026              -0.000035117              -0.000141553               0.000610521               0.000468967               0.000000000               0.000000000               0.000000000               0.000000000               0.000164916               0.001767415              -0.000026394              -0.000159083               0.000642160               0.000483077               0.000000000               0.000000000               0.000000000               0.000000000               0.000139801               0.001837604              -0.000015751              -0.000177275               0.000671620               0.000494346               0.000000000               0.000000000               0.000000000               0.000000000               0.000114653               0.001909356              -0.000006503              -0.000195674               0.000701670               0.000505996               0.000000000               0.000000000               0.000000000               0.000000000               0.000096618               0.001982930              -0.000001569              -0.000211634               0.000731515               0.000519881               0.000000000               0.000000000               0.000000000               0.000000000               0.000084735               0.002018819               0.000001843              -0.000220576               0.000746458               0.000525882               0.000000000               0.000000000               0.000000000               0.000000000               0.000395113               0.000500594              -0.000356172               0.000085592               0.000138332               0.000223924               0.000000000               0.000000000               0.000000000               0.000000000               0.000312896               0.000629725              -0.000331774               0.000038620               0.000197033               0.000235653               0.000000000               0.000000000               0.000000000               0.000000000               0.000242257               0.000822249              -0.000282095              -0.000011935               0.000278059               0.000266124               0.000000000               0.000000000               0.000000000               0.000000000               0.000222923               0.000935856              -0.000227027              -0.000033386               0.000323078               0.000289692               0.000000000               0.000000000               0.000000000               0.000000000               0.000213505               0.001025662              -0.000187020              -0.000048143               0.000357932               0.000309788               0.000000000               0.000000000               0.000000000               0.000000000               0.000202078               0.001112527              -0.000159634              -0.000063286               0.000391934               0.000328648               0.000000000               0.000000000               0.000000000               0.000000000               0.000194447               0.001203191              -0.000135351              -0.000077481               0.000426887               0.000349406               0.000000000               0.000000000               0.000000000               0.000000000               0.000199935               0.001300934              -0.000114883              -0.000087641               0.000462854               0.000375213               0.000000000               0.000000000               0.000000000               0.000000000               0.000215583               0.001400236              -0.000094084              -0.000094186               0.000498136               0.000403950               0.000000000               0.000000000               0.000000000               0.000000000               0.000233733               0.001502957              -0.000072784              -0.000100219               0.000534387               0.000434168               0.000000000               0.000000000               0.000000000               0.000000000               0.000243239               0.001602916              -0.000056531              -0.000109150               0.000570683               0.000461534               0.000000000               0.000000000               0.000000000               0.000000000               0.000237897               0.001692490              -0.000045140              -0.000122349               0.000604941               0.000482591               0.000000000               0.000000000               0.000000000               0.000000000               0.000221651               0.001770598              -0.000032618              -0.000138205               0.000636262               0.000498057               0.000000000               0.000000000               0.000000000               0.000000000               0.000200952               0.001842919              -0.000018841              -0.000155007               0.000665969               0.000510962               0.000000000               0.000000000               0.000000000               0.000000000               0.000178048               0.001909717              -0.000009521              -0.000171946               0.000693881               0.000521935               0.000000000               0.000000000               0.000000000               0.000000000               0.000157264               0.001982516              -0.000004498              -0.000188840               0.000723779               0.000534939               0.000000000               0.000000000               0.000000000               0.000000000               0.000138614               0.002014679               0.000001940              -0.000199854               0.000738171               0.000538317               0.000000000               0.000000000               0.000000000               0.000000000               0.000350964               0.000365643              -0.000287325               0.000085905               0.000093245               0.000179150               0.000000000               0.000000000               0.000000000               0.000000000               0.000309394               0.000509379              -0.000295227               0.000052350               0.000152341               0.000204691               0.000000000               0.000000000               0.000000000               0.000000000               0.000259262               0.000714781              -0.000276733               0.000007875               0.000235633               0.000243508               0.000000000               0.000000000               0.000000000               0.000000000               0.000243419               0.000850372              -0.000234124              -0.000015015               0.000288459               0.000273445               0.000000000               0.000000000               0.000000000               0.000000000               0.000237127               0.000959673              -0.000198578              -0.000031037               0.000330233               0.000299197               0.000000000               0.000000000               0.000000000               0.000000000               0.000231575               0.001060272              -0.000172913              -0.000045693               0.000368652               0.000322958               0.000000000               0.000000000               0.000000000               0.000000000               0.000228970               0.001164391              -0.000151869              -0.000059685               0.000408021               0.000348337               0.000000000               0.000000000               0.000000000               0.000000000               0.000232000               0.001275160              -0.000132645              -0.000072395               0.000449181               0.000376786               0.000000000               0.000000000               0.000000000               0.000000000               0.000244007               0.001391288              -0.000112165              -0.000082408               0.000491227               0.000408819               0.000000000               0.000000000               0.000000000               0.000000000               0.000263752               0.001503151              -0.000090312              -0.000088987               0.000530708               0.000441721               0.000000000               0.000000000               0.000000000               0.000000000               0.000277394               0.001597705              -0.000069769              -0.000095690               0.000564460               0.000468770               0.000000000               0.000000000               0.000000000               0.000000000               0.000279526               0.001680995              -0.000052934              -0.000105302               0.000595427               0.000490125               0.000000000               0.000000000               0.000000000               0.000000000               0.000272937               0.001763653              -0.000038000              -0.000118105               0.000627247               0.000509142               0.000000000               0.000000000               0.000000000               0.000000000               0.000262511               0.001841186              -0.000025153              -0.000131706               0.000657625               0.000525918               0.000000000               0.000000000               0.000000000               0.000000000               0.000248152               0.001911563              -0.000015442              -0.000145888               0.000685811               0.000539923               0.000000000               0.000000000               0.000000000               0.000000000               0.000227739               0.001984037              -0.000006592              -0.000162602               0.000715540               0.000552938               0.000000000               0.000000000               0.000000000               0.000000000               0.000206061               0.002013993               0.000001458              -0.000174476               0.000729483               0.000555007               0.000000000               0.000000000               0.000000000               0.000000000               0.000291174               0.000251819              -0.000215797               0.000077712               0.000058035               0.000135747               0.000000000               0.000000000               0.000000000               0.000000000               0.000295342               0.000397871              -0.000245755               0.000061018               0.000112283               0.000173301               0.000000000               0.000000000               0.000000000               0.000000000               0.000276960               0.000604600              -0.000252307               0.000028284               0.000192103               0.000220388               0.000000000               0.000000000               0.000000000               0.000000000               0.000270005               0.000756575              -0.000224781               0.000006680               0.000249963               0.000256642               0.000000000               0.000000000               0.000000000               0.000000000               0.000268273               0.000882844              -0.000197142              -0.000009753               0.000297529               0.000287776               0.000000000               0.000000000               0.000000000               0.000000000               0.000267293               0.000999251              -0.000175468              -0.000024671               0.000341304               0.000316633               0.000000000               0.000000000               0.000000000               0.000000000               0.000267286               0.001118063              -0.000156904              -0.000039526               0.000385859               0.000346334               0.000000000               0.000000000               0.000000000               0.000000000               0.000269976               0.001243813              -0.000139810              -0.000054235               0.000432679               0.000378443               0.000000000               0.000000000               0.000000000               0.000000000               0.000280068               0.001372188              -0.000123025              -0.000066498               0.000479558               0.000413060               0.000000000               0.000000000               0.000000000               0.000000000               0.000294136               0.001483396              -0.000102011              -0.000075123               0.000519501               0.000444378               0.000000000               0.000000000               0.000000000               0.000000000               0.000304951               0.001571133              -0.000079293              -0.000082035               0.000551051               0.000469016               0.000000000               0.000000000               0.000000000               0.000000000               0.000312937               0.001655304              -0.000059035              -0.000089561               0.000581616               0.000492055               0.000000000               0.000000000               0.000000000               0.000000000               0.000318117               0.001745509              -0.000043327              -0.000098895               0.000614796               0.000515901               0.000000000               0.000000000               0.000000000               0.000000000               0.000321232               0.001835410              -0.000031964              -0.000108964               0.000648119               0.000539155               0.000000000               0.000000000               0.000000000               0.000000000               0.000318386               0.001917983              -0.000019983              -0.000120353               0.000679439               0.000559086               0.000000000               0.000000000               0.000000000               0.000000000               0.000307599               0.001990912              -0.000008391              -0.000133514               0.000708135               0.000574621               0.000000000               0.000000000               0.000000000               0.000000000               0.000292062               0.002020021              -0.000000935              -0.000142979               0.000720993               0.000578014               0.000000000               0.000000000               0.000000000               0.000000000               0.000225053               0.000167763              -0.000147255               0.000063424               0.000034779               0.000098203               0.000000000               0.000000000               0.000000000               0.000000000               0.000272500               0.000303225              -0.000187581               0.000064284               0.000079646               0.000143930               0.000000000               0.000000000               0.000000000               0.000000000               0.000293940               0.000501582              -0.000209849               0.000047529               0.000151349               0.000198878               0.000000000               0.000000000               0.000000000               0.000000000               0.000299052               0.000664767              -0.000195240               0.000029048               0.000211904               0.000240952               0.000000000               0.000000000               0.000000000               0.000000000               0.000302679               0.000805286              -0.000176913               0.000012844               0.000264145               0.000276989               0.000000000               0.000000000               0.000000000               0.000000000               0.000305788               0.000937267              -0.000160928              -0.000002488               0.000313249               0.000310761               0.000000000               0.000000000               0.000000000               0.000000000               0.000307387               0.001069033              -0.000145072              -0.000018359               0.000362460               0.000344101               0.000000000               0.000000000               0.000000000               0.000000000               0.000313467               0.001203074              -0.000132185              -0.000032834               0.000411965               0.000379131               0.000000000               0.000000000               0.000000000               0.000000000               0.000320746               0.001331202              -0.000118714              -0.000046120               0.000459103               0.000412983               0.000000000               0.000000000               0.000000000               0.000000000               0.000325680               0.001439104              -0.000099505              -0.000057758               0.000498949               0.000441191               0.000000000               0.000000000               0.000000000               0.000000000               0.000332858               0.001531591              -0.000077906              -0.000066627               0.000532734               0.000466107               0.000000000               0.000000000               0.000000000               0.000000000               0.000344774               0.001626974              -0.000058921              -0.000074081               0.000567013               0.000492932               0.000000000               0.000000000               0.000000000               0.000000000               0.000360041               0.001728048              -0.000046097              -0.000080990               0.000603007               0.000522017               0.000000000               0.000000000               0.000000000               0.000000000               0.000373725               0.001827482              -0.000036130              -0.000088288               0.000638584               0.000550296               0.000000000               0.000000000               0.000000000               0.000000000               0.000380880               0.001915366              -0.000022868              -0.000096591               0.000670646               0.000574055               0.000000000               0.000000000               0.000000000               0.000000000               0.000382716               0.001990669              -0.000010344              -0.000105315               0.000698655               0.000593340               0.000000000               0.000000000               0.000000000               0.000000000               0.000377218               0.002023290              -0.000003654              -0.000111454               0.000711575               0.000600120               0.000000000               0.000000000               0.000000000               0.000000000               0.000164129               0.000111401              -0.000087725               0.000047623               0.000021259               0.000068882               0.000000000               0.000000000               0.000000000               0.000000000               0.000249343               0.000232275              -0.000125658               0.000064468               0.000055935               0.000120403               0.000000000               0.000000000               0.000000000               0.000000000               0.000305838               0.000418356              -0.000150418               0.000062394               0.000118653               0.000181047               0.000000000               0.000000000               0.000000000               0.000000000               0.000325323               0.000585381              -0.000144978               0.000048823               0.000178851               0.000227674               0.000000000               0.000000000               0.000000000               0.000000000               0.000336830               0.000739174              -0.000135017               0.000033914               0.000235084               0.000268998               0.000000000               0.000000000               0.000000000               0.000000000               0.000341540               0.000882303              -0.000124424               0.000017789               0.000288168               0.000305958               0.000000000               0.000000000               0.000000000               0.000000000               0.000347120               0.001018023              -0.000114430               0.000002917               0.000338365               0.000341282               0.000000000               0.000000000               0.000000000               0.000000000               0.000353653               0.001155436              -0.000105285              -0.000011810               0.000389078               0.000377268               0.000000000               0.000000000               0.000000000               0.000000000               0.000355541               0.001281432              -0.000093401              -0.000026851               0.000436090               0.000409239               0.000000000               0.000000000               0.000000000               0.000000000               0.000354951               0.001388587              -0.000079051              -0.000040467               0.000476347               0.000435880               0.000000000               0.000000000               0.000000000               0.000000000               0.000361856               0.001494096              -0.000064318              -0.000051066               0.000515049               0.000463983               0.000000000               0.000000000               0.000000000               0.000000000               0.000378607               0.001606342              -0.000051270              -0.000058815               0.000555047               0.000496232               0.000000000               0.000000000               0.000000000               0.000000000               0.000398147               0.001715476              -0.000041657              -0.000065129               0.000593529               0.000528400               0.000000000               0.000000000               0.000000000               0.000000000               0.000413750               0.001812504              -0.000031869              -0.000071407               0.000627964               0.000556557               0.000000000               0.000000000               0.000000000               0.000000000               0.000426559               0.001897834              -0.000019985              -0.000077269               0.000658361               0.000581092               0.000000000               0.000000000               0.000000000               0.000000000               0.000440117               0.001979366              -0.000009501              -0.000082377               0.000687241               0.000604864               0.000000000               0.000000000               0.000000000               0.000000000               0.000444174               0.002018480              -0.000004021              -0.000085744               0.000701401               0.000615657               0.000000000               0.000000000               0.000000000               0.000000000               0.000119788               0.000080456              -0.000039981               0.000034863               0.000015197               0.000050061               0.000000000               0.000000000               0.000000000               0.000000000               0.000231688               0.000189500              -0.000063090               0.000063195               0.000042101               0.000105296               0.000000000               0.000000000               0.000000000               0.000000000               0.000310478               0.000362323              -0.000078284               0.000071138               0.000097061               0.000168199               0.000000000               0.000000000               0.000000000               0.000000000               0.000344883               0.000531661              -0.000077242               0.000062873               0.000156261               0.000219134               0.000000000               0.000000000               0.000000000               0.000000000               0.000362199               0.000693948              -0.000073248               0.000049081               0.000214954               0.000264034               0.000000000               0.000000000               0.000000000               0.000000000               0.000369826               0.000842122              -0.000068281               0.000033419               0.000269565               0.000302984               0.000000000               0.000000000               0.000000000               0.000000000               0.000374980               0.000980227              -0.000064206               0.000018089               0.000320710               0.000338799               0.000000000               0.000000000               0.000000000               0.000000000               0.000378376               0.001116227              -0.000058488               0.000002362               0.000371285               0.000373647               0.000000000               0.000000000               0.000000000               0.000000000               0.000378696               0.001239126              -0.000050873              -0.000012880               0.000417331               0.000404451               0.000000000               0.000000000               0.000000000               0.000000000               0.000380691               0.001353983              -0.000043979              -0.000026489               0.000460153               0.000433664               0.000000000               0.000000000               0.000000000               0.000000000               0.000389198               0.001472656              -0.000038246              -0.000038133               0.000503591               0.000465459               0.000000000               0.000000000               0.000000000               0.000000000               0.000404054               0.001591026              -0.000031665              -0.000047358               0.000546123               0.000498765               0.000000000               0.000000000               0.000000000               0.000000000               0.000420465               0.001698191              -0.000024536              -0.000054599               0.000584258               0.000529658               0.000000000               0.000000000               0.000000000               0.000000000               0.000436839               0.001794150              -0.000017767              -0.000060454               0.000618195               0.000557742               0.000000000               0.000000000               0.000000000               0.000000000               0.000455926               0.001884614              -0.000011834              -0.000064604               0.000649733               0.000585129               0.000000000               0.000000000               0.000000000               0.000000000               0.000477833               0.001971583              -0.000006296              -0.000067260               0.000679608               0.000612348               0.000000000               0.000000000               0.000000000               0.000000000               0.000488447               0.002013421              -0.000002940              -0.000068510               0.000693970               0.000625461               0.000000000               0.000000000               0.000000000               0.000000000               0.000000000               0.000000000               0.000000000               0.000000000               0.000000000               0.000000000               0.000000000               0.000000000               0.000000000               0.000000000               0.000000000               0.000000000               0.000000000               0.000000000               0.000000000               0.000000000               0.000000000               0.000000000               0.000000000               0.000000000               0.000000000               0.000000000               0.000000000               0.000000000               0.000000000               0.000000000               0.000000000               0.000000000               0.000000000               0.000000000               0.000000000               0.000000000               0.000000000               0.000000000               0.000000000               0.000000000               0.000000000               0.000000000               0.000000000               0.000000000               0.000000000               0.000000000               0.000000000               0.000000000               0.000000000               0.000000000               0.000000000               0.000000000               0.000000000               0.000000000               0.000000000               0.000000000               0.000000000               0.000000000               0.000000000               0.000000000               0.000000000               0.000000000               0.000000000               0.000000000               0.000000000               0.000000000               0.000000000               0.000000000               0.000000000               0.000000000               0.000000000               0.000000000               0.000000000               0.000000000               0.000000000               0.000000000               0.000000000               0.000000000               0.000000000               0.000000000               0.000000000               0.000000000               0.000000000               0.000000000               0.000000000               0.000000000               0.000000000               0.000000000               0.000000000               0.000000000               0.000000000               0.000000000               0.000000000               0.000000000               0.000000000               0.000000000               0.000000000               0.000000000               0.000000000               0.000000000               0.000000000               0.000000000               0.000000000               0.000000000               0.000000000               0.000000000               0.000000000               0.000000000               0.000000000               0.000000000               0.000000000               0.000000000               0.000000000               0.000000000               0.000000000               0.000000000               0.000000000               0.000000000               0.000000000               0.000000000               0.000000000               0.000000000               0.000000000               0.000000000               0.000000000               0.000000000               0.000000000               0.000000000               0.000000000               0.000000000               0.000000000               0.000000000               0.000000000               0.000000000               0.000000000               0.000000000               0.000000000               0.000000000               0.000000000               0.000000000               0.000000000               0.000000000               0.000000000               0.000000000               0.000000000               0.000000000               0.000000000               0.000000000               0.000000000               0.000000000               0.000000000               0.000000000               0.000000000               0.000000000               0.000000000               0.000000000               0.000000000               0.000000000               0.000000000               0.000000000               0.000000000               0.000000000               0.000000000               0.000000000               0.000000000               0.000000000               0.000000000               0.000000000               0.000000000               0.000000000               0.000000000               0.000000000               0.000000000               0.000000000               0.000000000               0.000000000               0.000000000               0.000000000               0.000000000               0.000000000               0.000000000               0.000000000               0.000000000               0.000000000               0.000000000               0.000000000               0.000000000               0.000000000               0.000000000               0.000000000               0.000000000               0.000000000               0.000000000               0.000000000               0.000000000               0.000000000               0.000000000               0.000000000               0.000000000               0.000000000               0.000000000               0.000000000               0.000000000               0.000000000               0.000000000               0.000000000               0.000000000               0.000000000               0.000000000               0.000000000               0.000000000               0.000000000               0.000000000               0.000000000               0.000000000               0.000000000               0.000000000               0.000000000               0.000000000               0.000000000               0.000000000               0.000000000               0.000000000               0.000000000               0.000000000               0.000000000               0.000000000               0.000000000               0.000000000               0.000000000               0.000000000               0.000000000               0.000000000               0.000000000               0.000000000               0.000000000               0.000000000               0.000000000               0.000000000               0.000000000               0.000000000               0.000000000               0.000000000               0.000000000               0.000000000               0.000000000               0.000000000               0.000000000               0.000000000               0.000000000               0.000000000               0.000000000               0.000000000               0.000000000               0.000000000               0.000000000               0.000000000               0.000000000               0.000000000               0.000000000               0.000000000               0.000000000               0.000000000               0.000000000               0.000000000               0.000000000               0.000000000               0.000000000               0.000000000               0.000000000               0.000000000               0.000000000               0.000000000               0.000000000               0.000000000               0.000000000               0.000000000               0.000000000               0.000000000               0.000000000               0.000000000               0.000000000               0.000000000               0.000000000               0.000000000               0.000000000               0.000000000               0.000000000               0.000000000               0.000000000               0.000000000               0.000000000               0.000000000               0.000000000               0.000000000               0.000000000               0.000000000               0.000000000               0.000000000               0.000000000               0.000000000               0.000000000               0.000000000               0.000000000               0.000000000               0.000000000               0.000000000               0.000000000               0.000000000               0.000000000               0.000000000               0.000000000               0.000000000               0.000000000               0.000000000               0.000000000               0.000000000               0.000000000               0.000000000               0.000000000               0.000000000               0.000000000               0.000000000               0.000000000               0.000000000               0.000000000               0.000000000               0.000000000               0.000000000               0.000000000               0.000000000               0.000000000               0.000000000               0.000000000               0.000000000               0.000000000               0.000000000               0.000000000               0.000000000               0.000000000               0.000000000               0.000000000               0.000000000               0.000000000               0.000179713               0.001900407               0.000150182              -0.000170158               0.000690182               0.000520024               0.000000000               0.000000000               0.000000000               0.000000000               0.000201840               0.001603789               0.000103184              -0.000124783               0.000576185               0.000451402               0.000000000               0.000000000               0.000000000               0.000000000               0.000285847               0.001367462               0.000053491              -0.000063740               0.000477063               0.000413323               0.000000000               0.000000000               0.000000000               0.000000000               0.000318620               0.001234998               0.000031216              -0.000034892               0.000423293               0.000388400               0.000000000               0.000000000               0.000000000               0.000000000               0.000332142               0.001152602               0.000021959              -0.000019522               0.000390704               0.000371182               0.000000000               0.000000000               0.000000000               0.000000000               0.000337990               0.001100786               0.000017669              -0.000010852               0.000370543               0.000359690               0.000000000               0.000000000               0.000000000               0.000000000               0.000335733               0.001071179               0.000014314              -0.000007998               0.000359722               0.000351724               0.000000000               0.000000000               0.000000000               0.000000000               0.000323985               0.001061590               0.000011621              -0.000011204               0.000357595               0.000346390               0.000000000               0.000000000               0.000000000               0.000000000               0.000305837               0.001065688               0.000011646              -0.000018522               0.000361400               0.000342878               0.000000000               0.000000000               0.000000000               0.000000000               0.000283875               0.001076903               0.000016175              -0.000028160               0.000368351               0.000340191               0.000000000               0.000000000               0.000000000               0.000000000               0.000257619               0.001088330               0.000020896              -0.000039434               0.000375918               0.000336484               0.000000000               0.000000000               0.000000000               0.000000000               0.000226958               0.001103919               0.000019657              -0.000052880               0.000385596               0.000332716               0.000000000               0.000000000               0.000000000               0.000000000               0.000190814               0.001125668               0.000018180              -0.000069153               0.000398270               0.000329117               0.000000000               0.000000000               0.000000000               0.000000000               0.000147866               0.001148774               0.000017996              -0.000088147               0.000412303               0.000324156               0.000000000               0.000000000               0.000000000               0.000000000               0.000100705               0.001174679               0.000014162              -0.000109070               0.000427912               0.000318842               0.000000000               0.000000000               0.000000000               0.000000000               0.000051272               0.001204392               0.000008093              -0.000131322               0.000445234               0.000313912               0.000000000               0.000000000               0.000000000               0.000000000               0.000029670               0.001229561               0.000005566              -0.000142569               0.000457372               0.000314804               0.000000000               0.000000000               0.000000000               0.000000000               0.000212518               0.001814471               0.000286757              -0.000147115               0.000653856               0.000506741               0.000000000               0.000000000               0.000000000               0.000000000               0.000217349               0.001541067               0.000195918              -0.000111127               0.000550726               0.000439599               0.000000000               0.000000000               0.000000000               0.000000000               0.000282518               0.001334359               0.000102227              -0.000060851               0.000465066               0.000404215               0.000000000               0.000000000               0.000000000               0.000000000               0.000304147               0.001217980               0.000061839              -0.000038192               0.000418720               0.000380528               0.000000000               0.000000000               0.000000000               0.000000000               0.000311708               0.001149241               0.000044442              -0.000026765               0.000391998               0.000365233               0.000000000               0.000000000               0.000000000               0.000000000               0.000312569               0.001108735               0.000035971              -0.000021378               0.000376701               0.000355322               0.000000000               0.000000000               0.000000000               0.000000000               0.000304581               0.001088611               0.000029201              -0.000021858               0.000370153               0.000348294               0.000000000               0.000000000               0.000000000               0.000000000               0.000289831               0.001086240               0.000023942              -0.000027093               0.000371108               0.000344014               0.000000000               0.000000000               0.000000000               0.000000000               0.000271661               0.001091632               0.000023978              -0.000034581               0.000375401               0.000340820               0.000000000               0.000000000               0.000000000               0.000000000               0.000250930               0.001098849               0.000031260              -0.000043257               0.000380698               0.000337441               0.000000000               0.000000000               0.000000000               0.000000000               0.000230115               0.001107034               0.000037428              -0.000052086               0.000386370               0.000334284               0.000000000               0.000000000               0.000000000               0.000000000               0.000204831               0.001119453               0.000033260              -0.000063120               0.000394187               0.000331067               0.000000000               0.000000000               0.000000000               0.000000000               0.000170154               0.001134093               0.000029123              -0.000077954               0.000404012               0.000326058               0.000000000               0.000000000               0.000000000               0.000000000               0.000130218               0.001150186               0.000026431              -0.000094941               0.000415039               0.000320097               0.000000000               0.000000000               0.000000000               0.000000000               0.000089175               0.001169195               0.000019121              -0.000112709               0.000427297               0.000314589               0.000000000               0.000000000               0.000000000               0.000000000               0.000046028               0.001187958               0.000010180              -0.000131234               0.000439727               0.000308493               0.000000000               0.000000000               0.000000000               0.000000000               0.000026243               0.001202746               0.000006672              -0.000140502               0.000447745               0.000307243               0.000000000               0.000000000               0.000000000               0.000000000               0.000259712               0.001681714               0.000396560              -0.000112822               0.000598173               0.000485351               0.000000000               0.000000000               0.000000000               0.000000000               0.000238495               0.001448458               0.000271028              -0.000091622               0.000513355               0.000421733               0.000000000               0.000000000               0.000000000               0.000000000               0.000274456               0.001284195               0.000144130              -0.000057603               0.000447262               0.000389659               0.000000000               0.000000000               0.000000000               0.000000000               0.000283347               0.001193455               0.000090123              -0.000042927               0.000412123               0.000369197               0.000000000               0.000000000               0.000000000               0.000000000               0.000284854               0.001143207               0.000066078              -0.000036081               0.000393092               0.000357011               0.000000000               0.000000000               0.000000000               0.000000000               0.000277443               0.001117283               0.000054359              -0.000035619               0.000384297               0.000348678               0.000000000               0.000000000               0.000000000               0.000000000               0.000263461               0.001112583               0.000044103              -0.000040275               0.000384282               0.000344007               0.000000000               0.000000000               0.000000000               0.000000000               0.000246147               0.001118039               0.000036367              -0.000047450               0.000388493               0.000341043               0.000000000               0.000000000               0.000000000               0.000000000               0.000228372               0.001126528               0.000036974              -0.000055176               0.000393898               0.000338721               0.000000000               0.000000000               0.000000000               0.000000000               0.000210830               0.001130748               0.000044541              -0.000062282               0.000397673               0.000335391               0.000000000               0.000000000               0.000000000               0.000000000               0.000192770               0.001136109               0.000047875              -0.000069725               0.000401941               0.000332216               0.000000000               0.000000000               0.000000000               0.000000000               0.000171067               0.001147562               0.000040046              -0.000079295               0.000408949               0.000329654               0.000000000               0.000000000               0.000000000               0.000000000               0.000143232               0.001159328               0.000032412              -0.000091204               0.000416840               0.000325636               0.000000000               0.000000000               0.000000000               0.000000000               0.000112325               0.001172526               0.000025561              -0.000104444               0.000425653               0.000321209               0.000000000               0.000000000               0.000000000               0.000000000               0.000078174               0.001186300               0.000015946              -0.000118972               0.000435087               0.000316115               0.000000000               0.000000000               0.000000000               0.000000000               0.000039505               0.001199531               0.000007477              -0.000135127               0.000444882               0.000309755               0.000000000               0.000000000               0.000000000               0.000000000               0.000022410               0.001211702               0.000005319              -0.000143059               0.000451583               0.000308524               0.000000000               0.000000000               0.000000000               0.000000000               0.000313620               0.001518125               0.000473121              -0.000072158               0.000530089               0.000457931               0.000000000               0.000000000               0.000000000               0.000000000               0.000260312               0.001335685               0.000326221              -0.000069344               0.000468338               0.000398995               0.000000000               0.000000000               0.000000000               0.000000000               0.000264145               0.001225619               0.000178375              -0.000054148               0.000426585               0.000372437               0.000000000               0.000000000               0.000000000               0.000000000               0.000262015               0.001164578               0.000115694              -0.000047317               0.000403961               0.000356644               0.000000000               0.000000000               0.000000000               0.000000000               0.000255840               0.001133610               0.000088128              -0.000045761               0.000393120               0.000347359               0.000000000               0.000000000               0.000000000               0.000000000               0.000243522               0.001125226               0.000071571              -0.000049333               0.000391516               0.000342183               0.000000000               0.000000000               0.000000000               0.000000000               0.000224279               0.001135076               0.000057752              -0.000057780               0.000397615               0.000339835               0.000000000               0.000000000               0.000000000               0.000000000               0.000203220               0.001149620               0.000049171              -0.000067495               0.000405701               0.000338206               0.000000000               0.000000000               0.000000000               0.000000000               0.000187549               0.001160312               0.000049539              -0.000074708               0.000411670               0.000336962               0.000000000               0.000000000               0.000000000               0.000000000               0.000172721               0.001166692               0.000056847              -0.000081066               0.000415915               0.000334849               0.000000000               0.000000000               0.000000000               0.000000000               0.000156986               0.001178034               0.000055071              -0.000088384               0.000422136               0.000333751               0.000000000               0.000000000               0.000000000               0.000000000               0.000139412               0.001195488               0.000043449              -0.000097156               0.000430877               0.000333721               0.000000000               0.000000000               0.000000000               0.000000000               0.000118068               0.001211710               0.000034410              -0.000107188               0.000439629               0.000332441               0.000000000               0.000000000               0.000000000               0.000000000               0.000091065               0.001228327               0.000026824              -0.000119391               0.000449235               0.000329844               0.000000000               0.000000000               0.000000000               0.000000000               0.000060431               0.001245879               0.000018072              -0.000133073               0.000459647               0.000326574               0.000000000               0.000000000               0.000000000               0.000000000               0.000030903               0.001266187               0.000009035              -0.000146684               0.000470953               0.000324269               0.000000000               0.000000000               0.000000000               0.000000000               0.000020965               0.001284652               0.000007005              -0.000152719               0.000479119               0.000326400               0.000000000               0.000000000               0.000000000               0.000000000               0.000361334               0.001338901               0.000515672              -0.000031863               0.000456917               0.000425054               0.000000000               0.000000000               0.000000000               0.000000000               0.000278361               0.001212718               0.000360463              -0.000047205               0.000419970               0.000372765               0.000000000               0.000000000               0.000000000               0.000000000               0.000251981               0.001163138               0.000204860              -0.000050899               0.000404675               0.000353776               0.000000000               0.000000000               0.000000000               0.000000000               0.000241589               0.001133275               0.000139510              -0.000051063               0.000394776               0.000343712               0.000000000               0.000000000               0.000000000               0.000000000               0.000232346               0.001122966               0.000108113              -0.000053241               0.000392065               0.000338824               0.000000000               0.000000000               0.000000000               0.000000000               0.000215982               0.001131811               0.000087205              -0.000060483               0.000397428               0.000336945               0.000000000               0.000000000               0.000000000               0.000000000               0.000194651               0.001154151               0.000070521              -0.000071274               0.000408471               0.000337197               0.000000000               0.000000000               0.000000000               0.000000000               0.000174322               0.001174843               0.000061309              -0.000081484               0.000418772               0.000337287               0.000000000               0.000000000               0.000000000               0.000000000               0.000160101               0.001191039               0.000061811              -0.000088842               0.000426623               0.000337781               0.000000000               0.000000000               0.000000000               0.000000000               0.000148459               0.001208298               0.000065027              -0.000095365               0.000434550               0.000339185               0.000000000               0.000000000               0.000000000               0.000000000               0.000134940               0.001235361               0.000058333              -0.000103817               0.000446389               0.000342571               0.000000000               0.000000000               0.000000000               0.000000000               0.000117595               0.001267956               0.000045502              -0.000114396               0.000460780               0.000346384               0.000000000               0.000000000               0.000000000               0.000000000               0.000096969               0.001300824               0.000036909              -0.000126239               0.000475683               0.000349444               0.000000000               0.000000000               0.000000000               0.000000000               0.000070458               0.001332990               0.000028473              -0.000140202               0.000491060               0.000350858               0.000000000               0.000000000               0.000000000               0.000000000               0.000043618               0.001367759               0.000019564              -0.000154613               0.000507453               0.000352840               0.000000000               0.000000000               0.000000000               0.000000000               0.000021884               0.001403689               0.000010569              -0.000167254               0.000523643               0.000356389               0.000000000               0.000000000               0.000000000               0.000000000               0.000017122               0.001429490               0.000008710              -0.000172265               0.000533914               0.000361648               0.000000000               0.000000000               0.000000000               0.000000000               0.000395171               0.001151423               0.000526765               0.000004260               0.000382384               0.000386644               0.000000000               0.000000000               0.000000000               0.000000000               0.000289871               0.001089845               0.000376578              -0.000027529               0.000372454               0.000344925               0.000000000               0.000000000               0.000000000               0.000000000               0.000239640               0.001103763               0.000224918              -0.000048105               0.000383952               0.000335847               0.000000000               0.000000000               0.000000000               0.000000000               0.000225303               0.001104801               0.000159539              -0.000053612               0.000386134               0.000332522               0.000000000               0.000000000               0.000000000               0.000000000               0.000213704               0.001114382               0.000124858              -0.000059159               0.000391177               0.000332018               0.000000000               0.000000000               0.000000000               0.000000000               0.000195991               0.001140522               0.000100583              -0.000069068               0.000403193               0.000334124               0.000000000               0.000000000               0.000000000               0.000000000               0.000175119               0.001173122               0.000082773              -0.000080970               0.000418027               0.000337057               0.000000000               0.000000000               0.000000000               0.000000000               0.000159811               0.001200577               0.000072432              -0.000090143               0.000430236               0.000340093               0.000000000               0.000000000               0.000000000               0.000000000               0.000152153               0.001229104               0.000069280              -0.000096580               0.000441891               0.000345310               0.000000000               0.000000000               0.000000000               0.000000000               0.000144215               0.001267205               0.000066921              -0.000104320               0.000457171               0.000352851               0.000000000               0.000000000               0.000000000               0.000000000               0.000131371               0.001319590               0.000054527              -0.000115684               0.000478420               0.000362736               0.000000000               0.000000000               0.000000000               0.000000000               0.000113372               0.001377629               0.000040162              -0.000129689               0.000502435               0.000372746               0.000000000               0.000000000               0.000000000               0.000000000               0.000091241               0.001433468               0.000033253              -0.000144968               0.000526141               0.000381173               0.000000000               0.000000000               0.000000000               0.000000000               0.000064626               0.001485865               0.000025324              -0.000161498               0.000549116               0.000387618               0.000000000               0.000000000               0.000000000               0.000000000               0.000037259               0.001536340               0.000015889              -0.000178070               0.000571465               0.000393395               0.000000000               0.000000000               0.000000000               0.000000000               0.000015921               0.001585339               0.000009341              -0.000192197               0.000592507               0.000400310               0.000000000               0.000000000               0.000000000               0.000000000               0.000012945               0.001619117               0.000009905              -0.000197535               0.000605545               0.000408010               0.000000000               0.000000000               0.000000000               0.000000000               0.000414789               0.000968317               0.000507461               0.000034505               0.000311267               0.000345772               0.000000000               0.000000000               0.000000000               0.000000000               0.000295907               0.000976445               0.000376520              -0.000011091               0.000329175               0.000318084               0.000000000               0.000000000               0.000000000               0.000000000               0.000228994               0.001049816               0.000238913              -0.000045354               0.000365053               0.000319699               0.000000000               0.000000000               0.000000000               0.000000000               0.000212748               0.001079431               0.000174377              -0.000055148               0.000378190               0.000323041               0.000000000               0.000000000               0.000000000               0.000000000               0.000199166               0.001111800               0.000137036              -0.000064288               0.000392025               0.000327738               0.000000000               0.000000000               0.000000000               0.000000000               0.000179861               0.001156655               0.000111486              -0.000077134               0.000411259               0.000334125               0.000000000               0.000000000               0.000000000               0.000000000               0.000163430               0.001200073               0.000091731              -0.000088723               0.000429595               0.000340872               0.000000000               0.000000000               0.000000000               0.000000000               0.000156708               0.001244198               0.000078530              -0.000096759               0.000446982               0.000350222               0.000000000               0.000000000               0.000000000               0.000000000               0.000157042               0.001296697               0.000068672              -0.000103196               0.000466627               0.000363431               0.000000000               0.000000000               0.000000000               0.000000000               0.000154870               0.001367487               0.000058277              -0.000112859               0.000493444               0.000380585               0.000000000               0.000000000               0.000000000               0.000000000               0.000141689               0.001446002               0.000042834              -0.000127616               0.000524535               0.000396918               0.000000000               0.000000000               0.000000000               0.000000000               0.000119931               0.001520651               0.000030200              -0.000145107               0.000555248               0.000410141               0.000000000               0.000000000               0.000000000               0.000000000               0.000095146               0.001590551               0.000025449              -0.000163139               0.000584558               0.000421419               0.000000000               0.000000000               0.000000000               0.000000000               0.000069637               0.001657846               0.000019830              -0.000181117               0.000612982               0.000431865               0.000000000               0.000000000               0.000000000               0.000000000               0.000043204               0.001719560               0.000011946              -0.000198743               0.000639429               0.000440686               0.000000000               0.000000000               0.000000000               0.000000000               0.000020725               0.001777922               0.000005921              -0.000214468               0.000664124               0.000449656               0.000000000               0.000000000               0.000000000               0.000000000               0.000015608               0.001816298               0.000006583              -0.000221184               0.000679155               0.000457971               0.000000000               0.000000000               0.000000000               0.000000000               0.000422660               0.000807616               0.000466740               0.000057545               0.000250021               0.000307566               0.000000000               0.000000000               0.000000000               0.000000000               0.000301109               0.000875162               0.000367284               0.000003520               0.000290544               0.000294064               0.000000000               0.000000000               0.000000000               0.000000000               0.000224591               0.000999801               0.000252245              -0.000040754               0.000346848               0.000306095               0.000000000               0.000000000               0.000000000               0.000000000               0.000207720               0.001058200               0.000188006              -0.000054380               0.000370857               0.000316476               0.000000000               0.000000000               0.000000000               0.000000000               0.000192211               0.001113629               0.000148698              -0.000067124               0.000393581               0.000326456               0.000000000               0.000000000               0.000000000               0.000000000               0.000173102               0.001173308               0.000122254              -0.000081750               0.000418349               0.000336599               0.000000000               0.000000000               0.000000000               0.000000000               0.000161749               0.001233259               0.000099849              -0.000093501               0.000442249               0.000348748               0.000000000               0.000000000               0.000000000               0.000000000               0.000163175               0.001298403               0.000079964              -0.000101110               0.000466500               0.000365390               0.000000000               0.000000000               0.000000000               0.000000000               0.000172952               0.001379536               0.000062737              -0.000107585               0.000495702               0.000388117               0.000000000               0.000000000               0.000000000               0.000000000               0.000175000               0.001470061               0.000047593              -0.000118132               0.000529393               0.000411260               0.000000000               0.000000000               0.000000000               0.000000000               0.000159570               0.001559688               0.000035457              -0.000135122               0.000564932               0.000429810               0.000000000               0.000000000               0.000000000               0.000000000               0.000137743               0.001644267               0.000026027              -0.000153879               0.000599377               0.000445497               0.000000000               0.000000000               0.000000000               0.000000000               0.000115659               0.001721661               0.000020133              -0.000171835               0.000631160               0.000459324               0.000000000               0.000000000               0.000000000               0.000000000               0.000091181               0.001793483               0.000013604              -0.000189992               0.000661152               0.000471160               0.000000000               0.000000000               0.000000000               0.000000000               0.000067933               0.001864105               0.000005871              -0.000207538               0.000690541               0.000483004               0.000000000               0.000000000               0.000000000               0.000000000               0.000049369               0.001929212              -0.000000101              -0.000222638               0.000717277               0.000494639               0.000000000               0.000000000               0.000000000               0.000000000               0.000041092               0.001964041              -0.000000949              -0.000230095               0.000731372               0.000501277               0.000000000               0.000000000               0.000000000               0.000000000               0.000418131               0.000649550               0.000416256               0.000075604               0.000191313               0.000266917               0.000000000               0.000000000               0.000000000               0.000000000               0.000307399               0.000752759               0.000354245               0.000021179               0.000243857               0.000265037               0.000000000               0.000000000               0.000000000               0.000000000               0.000227854               0.000917284               0.000270407              -0.000029216               0.000315497               0.000286281               0.000000000               0.000000000               0.000000000               0.000000000               0.000210804               0.001005966               0.000207954              -0.000046694               0.000350883               0.000304189               0.000000000               0.000000000               0.000000000               0.000000000               0.000198071               0.001077889               0.000167815              -0.000060460               0.000379446               0.000318986               0.000000000               0.000000000               0.000000000               0.000000000               0.000181960               0.001150980               0.000140605              -0.000075637               0.000408869               0.000333231               0.000000000               0.000000000               0.000000000               0.000000000               0.000171784               0.001228998               0.000115794              -0.000089205               0.000439397               0.000350192               0.000000000               0.000000000               0.000000000               0.000000000               0.000175639               0.001314073               0.000093890              -0.000098394               0.000470818               0.000372424               0.000000000               0.000000000               0.000000000               0.000000000               0.000190147               0.001405122               0.000075036              -0.000104335               0.000503148               0.000398813               0.000000000               0.000000000               0.000000000               0.000000000               0.000201006               0.001497586               0.000057047              -0.000111821               0.000536464               0.000424643               0.000000000               0.000000000               0.000000000               0.000000000               0.000199093               0.001595139               0.000043795              -0.000124732               0.000573285               0.000448553               0.000000000               0.000000000               0.000000000               0.000000000               0.000185865               0.001690026               0.000035117              -0.000141553               0.000610521               0.000468967               0.000000000               0.000000000               0.000000000               0.000000000               0.000164916               0.001767415               0.000026394              -0.000159083               0.000642160               0.000483077               0.000000000               0.000000000               0.000000000               0.000000000               0.000139801               0.001837604               0.000015751              -0.000177275               0.000671620               0.000494346               0.000000000               0.000000000               0.000000000               0.000000000               0.000114653               0.001909356               0.000006503              -0.000195674               0.000701670               0.000505996               0.000000000               0.000000000               0.000000000               0.000000000               0.000096618               0.001982930               0.000001569              -0.000211634               0.000731515               0.000519881               0.000000000               0.000000000               0.000000000               0.000000000               0.000084735               0.002018819              -0.000001843              -0.000220576               0.000746458               0.000525882               0.000000000               0.000000000               0.000000000               0.000000000               0.000395113               0.000500594               0.000356172               0.000085592               0.000138332               0.000223924               0.000000000               0.000000000               0.000000000               0.000000000               0.000312896               0.000629725               0.000331774               0.000038620               0.000197033               0.000235653               0.000000000               0.000000000               0.000000000               0.000000000               0.000242257               0.000822249               0.000282095              -0.000011935               0.000278059               0.000266124               0.000000000               0.000000000               0.000000000               0.000000000               0.000222923               0.000935856               0.000227027              -0.000033386               0.000323078               0.000289692               0.000000000               0.000000000               0.000000000               0.000000000               0.000213505               0.001025662               0.000187020              -0.000048143               0.000357932               0.000309788               0.000000000               0.000000000               0.000000000               0.000000000               0.000202078               0.001112527               0.000159634              -0.000063286               0.000391934               0.000328648               0.000000000               0.000000000               0.000000000               0.000000000               0.000194447               0.001203191               0.000135351              -0.000077481               0.000426887               0.000349406               0.000000000               0.000000000               0.000000000               0.000000000               0.000199935               0.001300934               0.000114883              -0.000087641               0.000462854               0.000375213               0.000000000               0.000000000               0.000000000               0.000000000               0.000215583               0.001400236               0.000094084              -0.000094186               0.000498136               0.000403950               0.000000000               0.000000000               0.000000000               0.000000000               0.000233733               0.001502957               0.000072784              -0.000100219               0.000534387               0.000434168               0.000000000               0.000000000               0.000000000               0.000000000               0.000243239               0.001602916               0.000056531              -0.000109150               0.000570683               0.000461534               0.000000000               0.000000000               0.000000000               0.000000000               0.000237897               0.001692490               0.000045140              -0.000122349               0.000604941               0.000482591               0.000000000               0.000000000               0.000000000               0.000000000               0.000221651               0.001770598               0.000032618              -0.000138205               0.000636262               0.000498057               0.000000000               0.000000000               0.000000000               0.000000000               0.000200952               0.001842919               0.000018841              -0.000155007               0.000665969               0.000510962               0.000000000               0.000000000               0.000000000               0.000000000               0.000178048               0.001909717               0.000009521              -0.000171946               0.000693881               0.000521935               0.000000000               0.000000000               0.000000000               0.000000000               0.000157264               0.001982516               0.000004498              -0.000188840               0.000723779               0.000534939               0.000000000               0.000000000               0.000000000               0.000000000               0.000138614               0.002014679              -0.000001940              -0.000199854               0.000738171               0.000538317               0.000000000               0.000000000               0.000000000               0.000000000               0.000350964               0.000365643               0.000287325               0.000085905               0.000093245               0.000179150               0.000000000               0.000000000               0.000000000               0.000000000               0.000309394               0.000509379               0.000295227               0.000052350               0.000152341               0.000204691               0.000000000               0.000000000               0.000000000               0.000000000               0.000259262               0.000714781               0.000276733               0.000007875               0.000235633               0.000243508               0.000000000               0.000000000               0.000000000               0.000000000               0.000243419               0.000850372               0.000234124              -0.000015015               0.000288459               0.000273445               0.000000000               0.000000000               0.000000000               0.000000000               0.000237127               0.000959673               0.000198578              -0.000031037               0.000330233               0.000299197               0.000000000               0.000000000               0.000000000               0.000000000               0.000231575               0.001060272               0.000172913              -0.000045693               0.000368652               0.000322958               0.000000000               0.000000000               0.000000000               0.000000000               0.000228970               0.001164391               0.000151869              -0.000059685               0.000408021               0.000348337               0.000000000               0.000000000               0.000000000               0.000000000               0.000232000               0.001275160               0.000132645              -0.000072395               0.000449181               0.000376786               0.000000000               0.000000000               0.000000000               0.000000000               0.000244007               0.001391288               0.000112165              -0.000082408               0.000491227               0.000408819               0.000000000               0.000000000               0.000000000               0.000000000               0.000263752               0.001503151               0.000090312              -0.000088987               0.000530708               0.000441721               0.000000000               0.000000000               0.000000000               0.000000000               0.000277394               0.001597705               0.000069769              -0.000095690               0.000564460               0.000468770               0.000000000               0.000000000               0.000000000               0.000000000               0.000279526               0.001680995               0.000052934              -0.000105302               0.000595427               0.000490125               0.000000000               0.000000000               0.000000000               0.000000000               0.000272937               0.001763653               0.000038000              -0.000118105               0.000627247               0.000509142               0.000000000               0.000000000               0.000000000               0.000000000               0.000262511               0.001841186               0.000025153              -0.000131706               0.000657625               0.000525918               0.000000000               0.000000000               0.000000000               0.000000000               0.000248152               0.001911563               0.000015442              -0.000145888               0.000685811               0.000539923               0.000000000               0.000000000               0.000000000               0.000000000               0.000227739               0.001984037               0.000006592              -0.000162602               0.000715540               0.000552938               0.000000000               0.000000000               0.000000000               0.000000000               0.000206061               0.002013993              -0.000001458              -0.000174476               0.000729483               0.000555007               0.000000000               0.000000000               0.000000000               0.000000000               0.000291174               0.000251819               0.000215797               0.000077712               0.000058035               0.000135747               0.000000000               0.000000000               0.000000000               0.000000000               0.000295342               0.000397871               0.000245755               0.000061018               0.000112283               0.000173301               0.000000000               0.000000000               0.000000000               0.000000000               0.000276960               0.000604600               0.000252307               0.000028284               0.000192103               0.000220388               0.000000000               0.000000000               0.000000000               0.000000000               0.000270005               0.000756575               0.000224781               0.000006680               0.000249963               0.000256642               0.000000000               0.000000000               0.000000000               0.000000000               0.000268273               0.000882844               0.000197142              -0.000009753               0.000297529               0.000287776               0.000000000               0.000000000               0.000000000               0.000000000               0.000267293               0.000999251               0.000175468              -0.000024671               0.000341304               0.000316633               0.000000000               0.000000000               0.000000000               0.000000000               0.000267286               0.001118063               0.000156904              -0.000039526               0.000385859               0.000346334               0.000000000               0.000000000               0.000000000               0.000000000               0.000269976               0.001243813               0.000139810              -0.000054235               0.000432679               0.000378443               0.000000000               0.000000000               0.000000000               0.000000000               0.000280068               0.001372188               0.000123025              -0.000066498               0.000479558               0.000413060               0.000000000               0.000000000               0.000000000               0.000000000               0.000294136               0.001483396               0.000102011              -0.000075123               0.000519501               0.000444378               0.000000000               0.000000000               0.000000000               0.000000000               0.000304951               0.001571133               0.000079293              -0.000082035               0.000551051               0.000469016               0.000000000               0.000000000               0.000000000               0.000000000               0.000312937               0.001655304               0.000059035              -0.000089561               0.000581616               0.000492055               0.000000000               0.000000000               0.000000000               0.000000000               0.000318117               0.001745509               0.000043327              -0.000098895               0.000614796               0.000515901               0.000000000               0.000000000               0.000000000               0.000000000               0.000321232               0.001835410               0.000031964              -0.000108964               0.000648119               0.000539155               0.000000000               0.000000000               0.000000000               0.000000000               0.000318386               0.001917983               0.000019983              -0.000120353               0.000679439               0.000559086               0.000000000               0.000000000               0.000000000               0.000000000               0.000307599               0.001990912               0.000008391              -0.000133514               0.000708135               0.000574621               0.000000000               0.000000000               0.000000000               0.000000000               0.000292062               0.002020021               0.000000935              -0.000142979               0.000720993               0.000578014               0.000000000               0.000000000               0.000000000               0.000000000               0.000225053               0.000167763               0.000147255               0.000063424               0.000034779               0.000098203               0.000000000               0.000000000               0.000000000               0.000000000               0.000272500               0.000303225               0.000187581               0.000064284               0.000079646               0.000143930               0.000000000               0.000000000               0.000000000               0.000000000               0.000293940               0.000501582               0.000209849               0.000047529               0.000151349               0.000198878               0.000000000               0.000000000               0.000000000               0.000000000               0.000299052               0.000664767               0.000195240               0.000029048               0.000211904               0.000240952               0.000000000               0.000000000               0.000000000               0.000000000               0.000302679               0.000805286               0.000176913               0.000012844               0.000264145               0.000276989               0.000000000               0.000000000               0.000000000               0.000000000               0.000305788               0.000937267               0.000160928              -0.000002488               0.000313249               0.000310761               0.000000000               0.000000000               0.000000000               0.000000000               0.000307387               0.001069033               0.000145072              -0.000018359               0.000362460               0.000344101               0.000000000               0.000000000               0.000000000               0.000000000               0.000313467               0.001203074               0.000132185              -0.000032834               0.000411965               0.000379131               0.000000000               0.000000000               0.000000000               0.000000000               0.000320746               0.001331202               0.000118714              -0.000046120               0.000459103               0.000412983               0.000000000               0.000000000               0.000000000               0.000000000               0.000325680               0.001439104               0.000099505              -0.000057758               0.000498949               0.000441191               0.000000000               0.000000000               0.000000000               0.000000000               0.000332858               0.001531591               0.000077906              -0.000066627               0.000532734               0.000466107               0.000000000               0.000000000               0.000000000               0.000000000               0.000344774               0.001626974               0.000058921              -0.000074081               0.000567013               0.000492932               0.000000000               0.000000000               0.000000000               0.000000000               0.000360041               0.001728048               0.000046097              -0.000080990               0.000603007               0.000522017               0.000000000               0.000000000               0.000000000               0.000000000               0.000373725               0.001827482               0.000036130              -0.000088288               0.000638584               0.000550296               0.000000000               0.000000000               0.000000000               0.000000000               0.000380880               0.001915366               0.000022868              -0.000096591               0.000670646               0.000574055               0.000000000               0.000000000               0.000000000               0.000000000               0.000382716               0.001990669               0.000010344              -0.000105315               0.000698655               0.000593340               0.000000000               0.000000000               0.000000000               0.000000000               0.000377218               0.002023290               0.000003654              -0.000111454               0.000711575               0.000600120               0.000000000               0.000000000               0.000000000               0.000000000               0.000164129               0.000111401               0.000087725               0.000047623               0.000021259               0.000068882               0.000000000               0.000000000               0.000000000               0.000000000               0.000249343               0.000232275               0.000125658               0.000064468               0.000055935               0.000120403               0.000000000               0.000000000               0.000000000               0.000000000               0.000305838               0.000418356               0.000150418               0.000062394               0.000118653               0.000181047               0.000000000               0.000000000               0.000000000               0.000000000               0.000325323               0.000585381               0.000144978               0.000048823               0.000178851               0.000227674               0.000000000               0.000000000               0.000000000               0.000000000               0.000336830               0.000739174               0.000135017               0.000033914               0.000235084               0.000268998               0.000000000               0.000000000               0.000000000               0.000000000               0.000341540               0.000882303               0.000124424               0.000017789               0.000288168               0.000305958               0.000000000               0.000000000               0.000000000               0.000000000               0.000347120               0.001018023               0.000114430               0.000002917               0.000338365               0.000341282               0.000000000               0.000000000               0.000000000               0.000000000               0.000353653               0.001155436               0.000105285              -0.000011810               0.000389078               0.000377268               0.000000000               0.000000000               0.000000000               0.000000000               0.000355541               0.001281432               0.000093401              -0.000026851               0.000436090               0.000409239               0.000000000               0.000000000               0.000000000               0.000000000               0.000354951               0.001388587               0.000079051              -0.000040467               0.000476347               0.000435880               0.000000000               0.000000000               0.000000000               0.000000000               0.000361856               0.001494096               0.000064318              -0.000051066               0.000515049               0.000463983               0.000000000               0.000000000               0.000000000               0.000000000               0.000378607               0.001606342               0.000051270              -0.000058815               0.000555047               0.000496232               0.000000000               0.000000000               0.000000000               0.000000000               0.000398147               0.001715476               0.000041657              -0.000065129               0.000593529               0.000528400               0.000000000               0.000000000               0.000000000               0.000000000               0.000413750               0.001812504               0.000031869              -0.000071407               0.000627964               0.000556557               0.000000000               0.000000000               0.000000000               0.000000000               0.000426559               0.001897834               0.000019985              -0.000077269               0.000658361               0.000581092               0.000000000               0.000000000               0.000000000               0.000000000               0.000440117               0.001979366               0.000009501              -0.000082377               0.000687241               0.000604864               0.000000000               0.000000000               0.000000000               0.000000000               0.000444174               0.002018480               0.000004021              -0.000085744               0.000701401               0.000615657               0.000000000               0.000000000               0.000000000               0.000000000               0.000119788               0.000080456               0.000039981               0.000034863               0.000015197               0.000050061               0.000000000               0.000000000               0.000000000               0.000000000               0.000231688               0.000189500               0.000063090               0.000063195               0.000042101               0.000105296               0.000000000               0.000000000               0.000000000               0.000000000               0.000310478               0.000362323               0.000078284               0.000071138               0.000097061               0.000168199               0.000000000               0.000000000               0.000000000               0.000000000               0.000344883               0.000531661               0.000077242               0.000062873               0.000156261               0.000219134               0.000000000               0.000000000               0.000000000               0.000000000               0.000362199               0.000693948               0.000073248               0.000049081               0.000214954               0.000264034               0.000000000               0.000000000               0.000000000               0.000000000               0.000369826               0.000842122               0.000068281               0.000033419               0.000269565               0.000302984               0.000000000               0.000000000               0.000000000               0.000000000               0.000374980               0.000980227               0.000064206               0.000018089               0.000320710               0.000338799               0.000000000               0.000000000               0.000000000               0.000000000               0.000378376               0.001116227               0.000058488               0.000002362               0.000371285               0.000373647               0.000000000               0.000000000               0.000000000               0.000000000               0.000378696               0.001239126               0.000050873              -0.000012880               0.000417331               0.000404451               0.000000000               0.000000000               0.000000000               0.000000000               0.000380691               0.001353983               0.000043979              -0.000026489               0.000460153               0.000433664               0.000000000               0.000000000               0.000000000               0.000000000               0.000389198               0.001472656               0.000038246              -0.000038133               0.000503591               0.000465459               0.000000000               0.000000000               0.000000000               0.000000000               0.000404054               0.001591026               0.000031665              -0.000047358               0.000546123               0.000498765               0.000000000               0.000000000               0.000000000               0.000000000               0.000420465               0.001698191               0.000024536              -0.000054599               0.000584258               0.000529658               0.000000000               0.000000000               0.000000000               0.000000000               0.000436839               0.001794150               0.000017767              -0.000060454               0.000618195               0.000557742               0.000000000               0.000000000               0.000000000               0.000000000               0.000455926               0.001884614               0.000011834              -0.000064604               0.000649733               0.000585129               0.000000000               0.000000000               0.000000000               0.000000000               0.000477833               0.001971583               0.000006296              -0.000067260               0.000679608               0.000612348               0.000000000               0.000000000               0.000000000               0.000000000               0.000488447               0.002013421               0.000002940              -0.000068510               0.000693970               0.000625461               0.000000000               0.000000000               0.000000000               0.000000000               0.000000000               0.000000000               0.000000000               0.000000000               0.000000000               0.000000000               0.000000000               0.000000000               0.000000000               0.000000000               0.000000000               0.000000000               0.000000000               0.000000000               0.000000000               0.000000000               0.000000000               0.000000000               0.000000000               0.000000000               0.000000000               0.000000000               0.000000000               0.000000000               0.000000000               0.000000000               0.000000000               0.000000000               0.000000000               0.000000000               0.000000000               0.000000000               0.000000000               0.000000000               0.000000000               0.000000000               0.000000000               0.000000000               0.000000000               0.000000000               0.000000000               0.000000000               0.000000000               0.000000000               0.000000000               0.000000000               0.000000000               0.000000000               0.000000000               0.000000000               0.000000000               0.000000000               0.000000000               0.000000000               0.000000000               0.000000000               0.000000000               0.000000000               0.000000000               0.000000000               0.000000000               0.000000000               0.000000000               0.000000000               0.000000000               0.000000000               0.000000000               0.000000000               0.000000000               0.000000000               0.000000000               0.000000000               0.000000000               0.000000000               0.000000000               0.000000000               0.000000000               0.000000000               0.000000000               0.000000000               0.000000000               0.000000000               0.000000000               0.000000000               0.000000000               0.000000000               0.000000000               0.000000000               0.000000000               0.000000000               0.000000000               0.000000000               0.000000000               0.000000000               0.000000000               0.000000000               0.000000000               0.000000000               0.000000000               0.000000000               0.000000000               0.000000000               0.000000000               0.000000000               0.000000000               0.000000000               0.000000000               0.000000000               0.000000000               0.000000000               0.000000000               0.000000000               0.000000000               0.000000000               0.000000000               0.000000000               0.000000000               0.000000000               0.000000000               0.000000000               0.000000000               0.000000000               0.000000000               0.000000000               0.000000000               0.000000000               0.000000000               0.000000000               0.000000000               0.000000000               0.000000000               0.000000000               0.000000000               0.000000000               0.000000000               0.000000000               0.000000000               0.000000000               0.000000000               0.000000000               0.000000000               0.000000000               0.000000000               0.000000000               0.000000000               0.000000000               0.000000000               0.000000000               0.000000000               0.000000000               0.000000000               0.000000000               0.000000000               0.000000000               0.000000000               0.000000000               0.000000000               0.000000000               0.000000000               0.000000000               0.000000000               0.000000000               0.000000000               0.000000000               0.000000000               0.000000000               0.000000000               0.000000000               0.000000000               0.000000000 </DataArray>
</PointData>
</Piece>
</UnstructuredGrid> </VTKFile>
