<?xml version="1.0"?>
<VTKFile type="UnstructuredGrid" version="0.1">
<UnstructuredGrid>
<Piece NumberOfPoints="      1156" NumberOfCells="      1024">
<Points>
<DataArray type="Float64"                                    Name="coordinates"                                                      NumberOfComponents=" 3" format="ascii">
              0.133000000               0.000000000               0.000000000               0.155937500               0.000000000               0.000000000               0.178875000               0.000000000               0.000000000               0.201812500               0.000000000               0.000000000               0.224750000               0.000000000               0.000000000               0.247687500               0.000000000               0.000000000               0.270625000               0.000000000               0.000000000               0.293562500               0.000000000               0.000000000               0.316500000               0.000000000               0.000000000               0.339437500               0.000000000               0.000000000               0.362375000               0.000000000               0.000000000               0.385312500               0.000000000               0.000000000               0.408250000               0.000000000               0.000000000               0.431187500               0.000000000               0.000000000               0.454125000               0.000000000               0.000000000               0.477062500               0.000000000               0.000000000               0.500000000               0.000000000               0.000000000               0.132359569               0.013036280               0.000000000               0.155337096               0.016127762               0.000000000               0.178314623               0.019219245               0.000000000               0.201292150               0.022310727               0.000000000               0.224269676               0.025402210               0.000000000               0.247247203               0.028493692               0.000000000               0.270224730               0.031585175               0.000000000               0.293202257               0.034676657               0.000000000               0.316179784               0.037768140               0.000000000               0.339157311               0.040859622               0.000000000               0.362134838               0.043951105               0.000000000               0.385112365               0.047042587               0.000000000               0.408089892               0.050134070               0.000000000               0.431067419               0.053225552               0.000000000               0.454044946               0.056317035               0.000000000               0.477022473               0.059408517               0.000000000               0.500000000               0.062500000               0.000000000               0.130444442               0.025947013               0.000000000               0.153541665               0.032137825               0.000000000               0.176638887               0.038328636               0.000000000               0.199736109               0.044519448               0.000000000               0.222833332               0.050710260               0.000000000               0.245930554               0.056901071               0.000000000               0.269027776               0.063091883               0.000000000               0.292124999               0.069282695               0.000000000               0.315222221               0.075473506               0.000000000               0.338319444               0.081664318               0.000000000               0.361416666               0.087855130               0.000000000               0.384513888               0.094045942               0.000000000               0.407611111               0.100236753               0.000000000               0.430708333               0.106427565               0.000000000               0.453805555               0.112618377               0.000000000               0.476902778               0.118809188               0.000000000               0.500000000               0.125000000               0.000000000               0.127273065               0.038607862               0.000000000               0.150568498               0.047913621               0.000000000               0.173863932               0.057219379               0.000000000               0.197159365               0.066525138               0.000000000               0.220454798               0.075830897               0.000000000               0.243750232               0.085136655               0.000000000               0.267045665               0.094442414               0.000000000               0.290341099               0.103748172               0.000000000               0.313636532               0.113053931               0.000000000               0.336931966               0.122359690               0.000000000               0.360227399               0.131665448               0.000000000               0.383522833               0.140971207               0.000000000               0.406818266               0.150276966               0.000000000               0.430113700               0.159582724               0.000000000               0.453409133               0.168888483               0.000000000               0.476704567               0.178194241               0.000000000               0.500000000               0.187500000               0.000000000               0.122875978               0.050896897               0.000000000               0.146446229               0.063340840               0.000000000               0.170016481               0.075784784               0.000000000               0.193586732               0.088228728               0.000000000               0.217156983               0.100672672               0.000000000               0.240727235               0.113116616               0.000000000               0.264297486               0.125560560               0.000000000               0.287867738               0.138004504               0.000000000               0.311437989               0.150448448               0.000000000               0.335008240               0.162892392               0.000000000               0.358578492               0.175336336               0.000000000               0.382148743               0.187780280               0.000000000               0.405718994               0.200224224               0.000000000               0.429289246               0.212668168               0.000000000               0.452859497               0.225112112               0.000000000               0.476429749               0.237556056               0.000000000               0.500000000               0.250000000               0.000000000               0.117295528               0.062695766               0.000000000               0.141214558               0.078308531               0.000000000               0.165133587               0.093921295               0.000000000               0.189052617               0.109534060               0.000000000               0.212971646               0.125146824               0.000000000               0.236890676               0.140759589               0.000000000               0.260809705               0.156372354               0.000000000               0.284728735               0.171985118               0.000000000               0.308647764               0.187597883               0.000000000               0.332566794               0.203210648               0.000000000               0.356485823               0.218823412               0.000000000               0.380404853               0.234436177               0.000000000               0.404323882               0.250048941               0.000000000               0.428242912               0.265661706               0.000000000               0.452161941               0.281274471               0.000000000               0.476080971               0.296887235               0.000000000               0.500000000               0.312500000               0.000000000               0.110585458               0.073890841               0.000000000               0.134923867               0.092710163               0.000000000               0.159262276               0.111529486               0.000000000               0.183600685               0.130348808               0.000000000               0.207939094               0.149168131               0.000000000               0.232277503               0.167987453               0.000000000               0.256615912               0.186806776               0.000000000               0.280954320               0.205626098               0.000000000               0.305292729               0.224445420               0.000000000               0.329631138               0.243264743               0.000000000               0.353969547               0.262084065               0.000000000               0.378307956               0.280903388               0.000000000               0.402646365               0.299722710               0.000000000               0.426984773               0.318542033               0.000000000               0.451323182               0.337361355               0.000000000               0.475661591               0.356180678               0.000000000               0.500000000               0.375000000               0.000000000               0.102810390               0.084374307               0.000000000               0.127634741               0.106444663               0.000000000               0.152459092               0.128515018               0.000000000               0.177283442               0.150585374               0.000000000               0.202107793               0.172655730               0.000000000               0.226932143               0.194726086               0.000000000               0.251756494               0.216796442               0.000000000               0.276580845               0.238866798               0.000000000               0.301405195               0.260937153               0.000000000               0.326229546               0.283007509               0.000000000               0.351053896               0.305077865               0.000000000               0.375878247               0.327148221               0.000000000               0.400702598               0.349218577               0.000000000               0.425526948               0.371288933               0.000000000               0.450351299               0.393359288               0.000000000               0.475175649               0.415429644               0.000000000               0.500000000               0.437500000               0.000000000               0.094045202               0.094045202               0.000000000               0.119417377               0.119417377               0.000000000               0.144789552               0.144789552               0.000000000               0.170161727               0.170161727               0.000000000               0.195533901               0.195533901               0.000000000               0.220906076               0.220906076               0.000000000               0.246278251               0.246278251               0.000000000               0.271650426               0.271650426               0.000000000               0.297022601               0.297022601               0.000000000               0.322394776               0.322394776               0.000000000               0.347766951               0.347766951               0.000000000               0.373139126               0.373139126               0.000000000               0.398511300               0.398511300               0.000000000               0.423883475               0.423883475               0.000000000               0.449255650               0.449255650               0.000000000               0.474627825               0.474627825               0.000000000               0.500000000               0.500000000               0.000000000               0.084374307               0.102810390               0.000000000               0.106444663               0.127634741               0.000000000               0.128515018               0.152459092               0.000000000               0.150585374               0.177283442               0.000000000               0.172655730               0.202107793               0.000000000               0.194726086               0.226932143               0.000000000               0.216796442               0.251756494               0.000000000               0.238866798               0.276580845               0.000000000               0.260937153               0.301405195               0.000000000               0.283007509               0.326229546               0.000000000               0.305077865               0.351053896               0.000000000               0.327148221               0.375878247               0.000000000               0.349218577               0.400702598               0.000000000               0.371288933               0.425526948               0.000000000               0.393359288               0.450351299               0.000000000               0.415429644               0.475175649               0.000000000               0.437500000               0.500000000               0.000000000               0.073890841               0.110585458               0.000000000               0.092710163               0.134923867               0.000000000               0.111529486               0.159262276               0.000000000               0.130348808               0.183600685               0.000000000               0.149168131               0.207939094               0.000000000               0.167987453               0.232277503               0.000000000               0.186806776               0.256615912               0.000000000               0.205626098               0.280954320               0.000000000               0.224445420               0.305292729               0.000000000               0.243264743               0.329631138               0.000000000               0.262084065               0.353969547               0.000000000               0.280903388               0.378307956               0.000000000               0.299722710               0.402646365               0.000000000               0.318542033               0.426984773               0.000000000               0.337361355               0.451323182               0.000000000               0.356180678               0.475661591               0.000000000               0.375000000               0.500000000               0.000000000               0.062695766               0.117295528               0.000000000               0.078308531               0.141214558               0.000000000               0.093921295               0.165133587               0.000000000               0.109534060               0.189052617               0.000000000               0.125146824               0.212971646               0.000000000               0.140759589               0.236890676               0.000000000               0.156372354               0.260809705               0.000000000               0.171985118               0.284728735               0.000000000               0.187597883               0.308647764               0.000000000               0.203210648               0.332566794               0.000000000               0.218823412               0.356485823               0.000000000               0.234436177               0.380404853               0.000000000               0.250048941               0.404323882               0.000000000               0.265661706               0.428242912               0.000000000               0.281274471               0.452161941               0.000000000               0.296887235               0.476080971               0.000000000               0.312500000               0.500000000               0.000000000               0.050896897               0.122875978               0.000000000               0.063340840               0.146446229               0.000000000               0.075784784               0.170016481               0.000000000               0.088228728               0.193586732               0.000000000               0.100672672               0.217156983               0.000000000               0.113116616               0.240727235               0.000000000               0.125560560               0.264297486               0.000000000               0.138004504               0.287867738               0.000000000               0.150448448               0.311437989               0.000000000               0.162892392               0.335008240               0.000000000               0.175336336               0.358578492               0.000000000               0.187780280               0.382148743               0.000000000               0.200224224               0.405718994               0.000000000               0.212668168               0.429289246               0.000000000               0.225112112               0.452859497               0.000000000               0.237556056               0.476429749               0.000000000               0.250000000               0.500000000               0.000000000               0.038607862               0.127273065               0.000000000               0.047913621               0.150568498               0.000000000               0.057219379               0.173863932               0.000000000               0.066525138               0.197159365               0.000000000               0.075830897               0.220454798               0.000000000               0.085136655               0.243750232               0.000000000               0.094442414               0.267045665               0.000000000               0.103748172               0.290341099               0.000000000               0.113053931               0.313636532               0.000000000               0.122359690               0.336931966               0.000000000               0.131665448               0.360227399               0.000000000               0.140971207               0.383522833               0.000000000               0.150276966               0.406818266               0.000000000               0.159582724               0.430113700               0.000000000               0.168888483               0.453409133               0.000000000               0.178194241               0.476704567               0.000000000               0.187500000               0.500000000               0.000000000               0.025947013               0.130444442               0.000000000               0.032137825               0.153541665               0.000000000               0.038328636               0.176638887               0.000000000               0.044519448               0.199736109               0.000000000               0.050710260               0.222833332               0.000000000               0.056901071               0.245930554               0.000000000               0.063091883               0.269027776               0.000000000               0.069282695               0.292124999               0.000000000               0.075473506               0.315222221               0.000000000               0.081664318               0.338319444               0.000000000               0.087855130               0.361416666               0.000000000               0.094045942               0.384513888               0.000000000               0.100236753               0.407611111               0.000000000               0.106427565               0.430708333               0.000000000               0.112618377               0.453805555               0.000000000               0.118809188               0.476902778               0.000000000               0.125000000               0.500000000               0.000000000               0.013036280               0.132359569               0.000000000               0.016127762               0.155337096               0.000000000               0.019219245               0.178314623               0.000000000               0.022310727               0.201292150               0.000000000               0.025402210               0.224269676               0.000000000               0.028493692               0.247247203               0.000000000               0.031585175               0.270224730               0.000000000               0.034676657               0.293202257               0.000000000               0.037768140               0.316179784               0.000000000               0.040859622               0.339157311               0.000000000               0.043951105               0.362134838               0.000000000               0.047042587               0.385112365               0.000000000               0.050134070               0.408089892               0.000000000               0.053225552               0.431067419               0.000000000               0.056317035               0.454044946               0.000000000               0.059408517               0.477022473               0.000000000               0.062500000               0.500000000               0.000000000               0.000000000               0.133000000               0.000000000               0.000000000               0.155937500               0.000000000               0.000000000               0.178875000               0.000000000               0.000000000               0.201812500               0.000000000               0.000000000               0.224750000               0.000000000               0.000000000               0.247687500               0.000000000               0.000000000               0.270625000               0.000000000               0.000000000               0.293562500               0.000000000               0.000000000               0.316500000               0.000000000               0.000000000               0.339437500               0.000000000               0.000000000               0.362375000               0.000000000               0.000000000               0.385312500               0.000000000               0.000000000               0.408250000               0.000000000               0.000000000               0.431187500               0.000000000               0.000000000               0.454125000               0.000000000               0.000000000               0.477062500               0.000000000               0.000000000               0.500000000               0.000000000               0.133000000               0.000000000               0.000000000               0.155937500               0.000000000               0.000000000               0.178875000               0.000000000               0.000000000               0.201812500               0.000000000               0.000000000               0.224750000               0.000000000               0.000000000               0.247687500               0.000000000               0.000000000               0.270625000               0.000000000               0.000000000               0.293562500               0.000000000               0.000000000               0.316500000               0.000000000               0.000000000               0.339437500               0.000000000               0.000000000               0.362375000               0.000000000               0.000000000               0.385312500               0.000000000               0.000000000               0.408250000               0.000000000               0.000000000               0.431187500               0.000000000               0.000000000               0.454125000               0.000000000               0.000000000               0.477062500               0.000000000               0.000000000               0.500000000               0.000000000               0.000000000               0.132359569              -0.013036280               0.000000000               0.155337096              -0.016127762               0.000000000               0.178314623              -0.019219245               0.000000000               0.201292150              -0.022310727               0.000000000               0.224269676              -0.025402210               0.000000000               0.247247203              -0.028493692               0.000000000               0.270224730              -0.031585175               0.000000000               0.293202257              -0.034676657               0.000000000               0.316179784              -0.037768140               0.000000000               0.339157311              -0.040859622               0.000000000               0.362134838              -0.043951105               0.000000000               0.385112365              -0.047042587               0.000000000               0.408089892              -0.050134070               0.000000000               0.431067419              -0.053225552               0.000000000               0.454044946              -0.056317035               0.000000000               0.477022473              -0.059408517               0.000000000               0.500000000              -0.062500000               0.000000000               0.130444442              -0.025947013               0.000000000               0.153541665              -0.032137825               0.000000000               0.176638887              -0.038328636               0.000000000               0.199736109              -0.044519448               0.000000000               0.222833332              -0.050710260               0.000000000               0.245930554              -0.056901071               0.000000000               0.269027776              -0.063091883               0.000000000               0.292124999              -0.069282695               0.000000000               0.315222221              -0.075473506               0.000000000               0.338319444              -0.081664318               0.000000000               0.361416666              -0.087855130               0.000000000               0.384513888              -0.094045942               0.000000000               0.407611111              -0.100236753               0.000000000               0.430708333              -0.106427565               0.000000000               0.453805555              -0.112618377               0.000000000               0.476902778              -0.118809188               0.000000000               0.500000000              -0.125000000               0.000000000               0.127273065              -0.038607862               0.000000000               0.150568498              -0.047913621               0.000000000               0.173863932              -0.057219379               0.000000000               0.197159365              -0.066525138               0.000000000               0.220454798              -0.075830897               0.000000000               0.243750232              -0.085136655               0.000000000               0.267045665              -0.094442414               0.000000000               0.290341099              -0.103748172               0.000000000               0.313636532              -0.113053931               0.000000000               0.336931966              -0.122359690               0.000000000               0.360227399              -0.131665448               0.000000000               0.383522833              -0.140971207               0.000000000               0.406818266              -0.150276966               0.000000000               0.430113700              -0.159582724               0.000000000               0.453409133              -0.168888483               0.000000000               0.476704567              -0.178194241               0.000000000               0.500000000              -0.187500000               0.000000000               0.122875978              -0.050896897               0.000000000               0.146446229              -0.063340840               0.000000000               0.170016481              -0.075784784               0.000000000               0.193586732              -0.088228728               0.000000000               0.217156983              -0.100672672               0.000000000               0.240727235              -0.113116616               0.000000000               0.264297486              -0.125560560               0.000000000               0.287867738              -0.138004504               0.000000000               0.311437989              -0.150448448               0.000000000               0.335008240              -0.162892392               0.000000000               0.358578492              -0.175336336               0.000000000               0.382148743              -0.187780280               0.000000000               0.405718994              -0.200224224               0.000000000               0.429289246              -0.212668168               0.000000000               0.452859497              -0.225112112               0.000000000               0.476429749              -0.237556056               0.000000000               0.500000000              -0.250000000               0.000000000               0.117295528              -0.062695766               0.000000000               0.141214558              -0.078308531               0.000000000               0.165133587              -0.093921295               0.000000000               0.189052617              -0.109534060               0.000000000               0.212971646              -0.125146824               0.000000000               0.236890676              -0.140759589               0.000000000               0.260809705              -0.156372354               0.000000000               0.284728735              -0.171985118               0.000000000               0.308647764              -0.187597883               0.000000000               0.332566794              -0.203210648               0.000000000               0.356485823              -0.218823412               0.000000000               0.380404853              -0.234436177               0.000000000               0.404323882              -0.250048941               0.000000000               0.428242912              -0.265661706               0.000000000               0.452161941              -0.281274471               0.000000000               0.476080971              -0.296887235               0.000000000               0.500000000              -0.312500000               0.000000000               0.110585458              -0.073890841               0.000000000               0.134923867              -0.092710163               0.000000000               0.159262276              -0.111529486               0.000000000               0.183600685              -0.130348808               0.000000000               0.207939094              -0.149168131               0.000000000               0.232277503              -0.167987453               0.000000000               0.256615912              -0.186806776               0.000000000               0.280954320              -0.205626098               0.000000000               0.305292729              -0.224445420               0.000000000               0.329631138              -0.243264743               0.000000000               0.353969547              -0.262084065               0.000000000               0.378307956              -0.280903388               0.000000000               0.402646365              -0.299722710               0.000000000               0.426984773              -0.318542033               0.000000000               0.451323182              -0.337361355               0.000000000               0.475661591              -0.356180678               0.000000000               0.500000000              -0.375000000               0.000000000               0.102810390              -0.084374307               0.000000000               0.127634741              -0.106444663               0.000000000               0.152459092              -0.128515018               0.000000000               0.177283442              -0.150585374               0.000000000               0.202107793              -0.172655730               0.000000000               0.226932143              -0.194726086               0.000000000               0.251756494              -0.216796442               0.000000000               0.276580845              -0.238866798               0.000000000               0.301405195              -0.260937153               0.000000000               0.326229546              -0.283007509               0.000000000               0.351053896              -0.305077865               0.000000000               0.375878247              -0.327148221               0.000000000               0.400702598              -0.349218577               0.000000000               0.425526948              -0.371288933               0.000000000               0.450351299              -0.393359288               0.000000000               0.475175649              -0.415429644               0.000000000               0.500000000              -0.437500000               0.000000000               0.094045202              -0.094045202               0.000000000               0.119417377              -0.119417377               0.000000000               0.144789552              -0.144789552               0.000000000               0.170161727              -0.170161727               0.000000000               0.195533901              -0.195533901               0.000000000               0.220906076              -0.220906076               0.000000000               0.246278251              -0.246278251               0.000000000               0.271650426              -0.271650426               0.000000000               0.297022601              -0.297022601               0.000000000               0.322394776              -0.322394776               0.000000000               0.347766951              -0.347766951               0.000000000               0.373139126              -0.373139126               0.000000000               0.398511300              -0.398511300               0.000000000               0.423883475              -0.423883475               0.000000000               0.449255650              -0.449255650               0.000000000               0.474627825              -0.474627825               0.000000000               0.500000000              -0.500000000               0.000000000               0.084374307              -0.102810390               0.000000000               0.106444663              -0.127634741               0.000000000               0.128515018              -0.152459092               0.000000000               0.150585374              -0.177283442               0.000000000               0.172655730              -0.202107793               0.000000000               0.194726086              -0.226932143               0.000000000               0.216796442              -0.251756494               0.000000000               0.238866798              -0.276580845               0.000000000               0.260937153              -0.301405195               0.000000000               0.283007509              -0.326229546               0.000000000               0.305077865              -0.351053896               0.000000000               0.327148221              -0.375878247               0.000000000               0.349218577              -0.400702598               0.000000000               0.371288933              -0.425526948               0.000000000               0.393359288              -0.450351299               0.000000000               0.415429644              -0.475175649               0.000000000               0.437500000              -0.500000000               0.000000000               0.073890841              -0.110585458               0.000000000               0.092710163              -0.134923867               0.000000000               0.111529486              -0.159262276               0.000000000               0.130348808              -0.183600685               0.000000000               0.149168131              -0.207939094               0.000000000               0.167987453              -0.232277503               0.000000000               0.186806776              -0.256615912               0.000000000               0.205626098              -0.280954320               0.000000000               0.224445420              -0.305292729               0.000000000               0.243264743              -0.329631138               0.000000000               0.262084065              -0.353969547               0.000000000               0.280903388              -0.378307956               0.000000000               0.299722710              -0.402646365               0.000000000               0.318542033              -0.426984773               0.000000000               0.337361355              -0.451323182               0.000000000               0.356180678              -0.475661591               0.000000000               0.375000000              -0.500000000               0.000000000               0.062695766              -0.117295528               0.000000000               0.078308531              -0.141214558               0.000000000               0.093921295              -0.165133587               0.000000000               0.109534060              -0.189052617               0.000000000               0.125146824              -0.212971646               0.000000000               0.140759589              -0.236890676               0.000000000               0.156372354              -0.260809705               0.000000000               0.171985118              -0.284728735               0.000000000               0.187597883              -0.308647764               0.000000000               0.203210648              -0.332566794               0.000000000               0.218823412              -0.356485823               0.000000000               0.234436177              -0.380404853               0.000000000               0.250048941              -0.404323882               0.000000000               0.265661706              -0.428242912               0.000000000               0.281274471              -0.452161941               0.000000000               0.296887235              -0.476080971               0.000000000               0.312500000              -0.500000000               0.000000000               0.050896897              -0.122875978               0.000000000               0.063340840              -0.146446229               0.000000000               0.075784784              -0.170016481               0.000000000               0.088228728              -0.193586732               0.000000000               0.100672672              -0.217156983               0.000000000               0.113116616              -0.240727235               0.000000000               0.125560560              -0.264297486               0.000000000               0.138004504              -0.287867738               0.000000000               0.150448448              -0.311437989               0.000000000               0.162892392              -0.335008240               0.000000000               0.175336336              -0.358578492               0.000000000               0.187780280              -0.382148743               0.000000000               0.200224224              -0.405718994               0.000000000               0.212668168              -0.429289246               0.000000000               0.225112112              -0.452859497               0.000000000               0.237556056              -0.476429749               0.000000000               0.250000000              -0.500000000               0.000000000               0.038607862              -0.127273065               0.000000000               0.047913621              -0.150568498               0.000000000               0.057219379              -0.173863932               0.000000000               0.066525138              -0.197159365               0.000000000               0.075830897              -0.220454798               0.000000000               0.085136655              -0.243750232               0.000000000               0.094442414              -0.267045665               0.000000000               0.103748172              -0.290341099               0.000000000               0.113053931              -0.313636532               0.000000000               0.122359690              -0.336931966               0.000000000               0.131665448              -0.360227399               0.000000000               0.140971207              -0.383522833               0.000000000               0.150276966              -0.406818266               0.000000000               0.159582724              -0.430113700               0.000000000               0.168888483              -0.453409133               0.000000000               0.178194241              -0.476704567               0.000000000               0.187500000              -0.500000000               0.000000000               0.025947013              -0.130444442               0.000000000               0.032137825              -0.153541665               0.000000000               0.038328636              -0.176638887               0.000000000               0.044519448              -0.199736109               0.000000000               0.050710260              -0.222833332               0.000000000               0.056901071              -0.245930554               0.000000000               0.063091883              -0.269027776               0.000000000               0.069282695              -0.292124999               0.000000000               0.075473506              -0.315222221               0.000000000               0.081664318              -0.338319444               0.000000000               0.087855130              -0.361416666               0.000000000               0.094045942              -0.384513888               0.000000000               0.100236753              -0.407611111               0.000000000               0.106427565              -0.430708333               0.000000000               0.112618377              -0.453805555               0.000000000               0.118809188              -0.476902778               0.000000000               0.125000000              -0.500000000               0.000000000               0.013036280              -0.132359569               0.000000000               0.016127762              -0.155337096               0.000000000               0.019219245              -0.178314623               0.000000000               0.022310727              -0.201292150               0.000000000               0.025402210              -0.224269676               0.000000000               0.028493692              -0.247247203               0.000000000               0.031585175              -0.270224730               0.000000000               0.034676657              -0.293202257               0.000000000               0.037768140              -0.316179784               0.000000000               0.040859622              -0.339157311               0.000000000               0.043951105              -0.362134838               0.000000000               0.047042587              -0.385112365               0.000000000               0.050134070              -0.408089892               0.000000000               0.053225552              -0.431067419               0.000000000               0.056317035              -0.454044946               0.000000000               0.059408517              -0.477022473               0.000000000               0.062500000              -0.500000000               0.000000000               0.000000000              -0.133000000               0.000000000               0.000000000              -0.155937500               0.000000000               0.000000000              -0.178875000               0.000000000               0.000000000              -0.201812500               0.000000000               0.000000000              -0.224750000               0.000000000               0.000000000              -0.247687500               0.000000000               0.000000000              -0.270625000               0.000000000               0.000000000              -0.293562500               0.000000000               0.000000000              -0.316500000               0.000000000               0.000000000              -0.339437500               0.000000000               0.000000000              -0.362375000               0.000000000               0.000000000              -0.385312500               0.000000000               0.000000000              -0.408250000               0.000000000               0.000000000              -0.431187500               0.000000000               0.000000000              -0.454125000               0.000000000               0.000000000              -0.477062500               0.000000000               0.000000000              -0.500000000               0.000000000              -0.133000000               0.000000000               0.000000000              -0.155937500               0.000000000               0.000000000              -0.178875000               0.000000000               0.000000000              -0.201812500               0.000000000               0.000000000              -0.224750000               0.000000000               0.000000000              -0.247687500               0.000000000               0.000000000              -0.270625000               0.000000000               0.000000000              -0.293562500               0.000000000               0.000000000              -0.316500000               0.000000000               0.000000000              -0.339437500               0.000000000               0.000000000              -0.362375000               0.000000000               0.000000000              -0.385312500               0.000000000               0.000000000              -0.408250000               0.000000000               0.000000000              -0.431187500               0.000000000               0.000000000              -0.454125000               0.000000000               0.000000000              -0.477062500               0.000000000               0.000000000              -0.500000000               0.000000000               0.000000000              -0.132359569              -0.013036280               0.000000000              -0.155337096              -0.016127762               0.000000000              -0.178314623              -0.019219245               0.000000000              -0.201292150              -0.022310727               0.000000000              -0.224269676              -0.025402210               0.000000000              -0.247247203              -0.028493692               0.000000000              -0.270224730              -0.031585175               0.000000000              -0.293202257              -0.034676657               0.000000000              -0.316179784              -0.037768140               0.000000000              -0.339157311              -0.040859622               0.000000000              -0.362134838              -0.043951105               0.000000000              -0.385112365              -0.047042587               0.000000000              -0.408089892              -0.050134070               0.000000000              -0.431067419              -0.053225552               0.000000000              -0.454044946              -0.056317035               0.000000000              -0.477022473              -0.059408517               0.000000000              -0.500000000              -0.062500000               0.000000000              -0.130444442              -0.025947013               0.000000000              -0.153541665              -0.032137825               0.000000000              -0.176638887              -0.038328636               0.000000000              -0.199736109              -0.044519448               0.000000000              -0.222833332              -0.050710260               0.000000000              -0.245930554              -0.056901071               0.000000000              -0.269027776              -0.063091883               0.000000000              -0.292124999              -0.069282695               0.000000000              -0.315222221              -0.075473506               0.000000000              -0.338319444              -0.081664318               0.000000000              -0.361416666              -0.087855130               0.000000000              -0.384513888              -0.094045942               0.000000000              -0.407611111              -0.100236753               0.000000000              -0.430708333              -0.106427565               0.000000000              -0.453805555              -0.112618377               0.000000000              -0.476902778              -0.118809188               0.000000000              -0.500000000              -0.125000000               0.000000000              -0.127273065              -0.038607862               0.000000000              -0.150568498              -0.047913621               0.000000000              -0.173863932              -0.057219379               0.000000000              -0.197159365              -0.066525138               0.000000000              -0.220454798              -0.075830897               0.000000000              -0.243750232              -0.085136655               0.000000000              -0.267045665              -0.094442414               0.000000000              -0.290341099              -0.103748172               0.000000000              -0.313636532              -0.113053931               0.000000000              -0.336931966              -0.122359690               0.000000000              -0.360227399              -0.131665448               0.000000000              -0.383522833              -0.140971207               0.000000000              -0.406818266              -0.150276966               0.000000000              -0.430113700              -0.159582724               0.000000000              -0.453409133              -0.168888483               0.000000000              -0.476704567              -0.178194241               0.000000000              -0.500000000              -0.187500000               0.000000000              -0.122875978              -0.050896897               0.000000000              -0.146446229              -0.063340840               0.000000000              -0.170016481              -0.075784784               0.000000000              -0.193586732              -0.088228728               0.000000000              -0.217156983              -0.100672672               0.000000000              -0.240727235              -0.113116616               0.000000000              -0.264297486              -0.125560560               0.000000000              -0.287867738              -0.138004504               0.000000000              -0.311437989              -0.150448448               0.000000000              -0.335008240              -0.162892392               0.000000000              -0.358578492              -0.175336336               0.000000000              -0.382148743              -0.187780280               0.000000000              -0.405718994              -0.200224224               0.000000000              -0.429289246              -0.212668168               0.000000000              -0.452859497              -0.225112112               0.000000000              -0.476429749              -0.237556056               0.000000000              -0.500000000              -0.250000000               0.000000000              -0.117295528              -0.062695766               0.000000000              -0.141214558              -0.078308531               0.000000000              -0.165133587              -0.093921295               0.000000000              -0.189052617              -0.109534060               0.000000000              -0.212971646              -0.125146824               0.000000000              -0.236890676              -0.140759589               0.000000000              -0.260809705              -0.156372354               0.000000000              -0.284728735              -0.171985118               0.000000000              -0.308647764              -0.187597883               0.000000000              -0.332566794              -0.203210648               0.000000000              -0.356485823              -0.218823412               0.000000000              -0.380404853              -0.234436177               0.000000000              -0.404323882              -0.250048941               0.000000000              -0.428242912              -0.265661706               0.000000000              -0.452161941              -0.281274471               0.000000000              -0.476080971              -0.296887235               0.000000000              -0.500000000              -0.312500000               0.000000000              -0.110585458              -0.073890841               0.000000000              -0.134923867              -0.092710163               0.000000000              -0.159262276              -0.111529486               0.000000000              -0.183600685              -0.130348808               0.000000000              -0.207939094              -0.149168131               0.000000000              -0.232277503              -0.167987453               0.000000000              -0.256615912              -0.186806776               0.000000000              -0.280954320              -0.205626098               0.000000000              -0.305292729              -0.224445420               0.000000000              -0.329631138              -0.243264743               0.000000000              -0.353969547              -0.262084065               0.000000000              -0.378307956              -0.280903388               0.000000000              -0.402646365              -0.299722710               0.000000000              -0.426984773              -0.318542033               0.000000000              -0.451323182              -0.337361355               0.000000000              -0.475661591              -0.356180678               0.000000000              -0.500000000              -0.375000000               0.000000000              -0.102810390              -0.084374307               0.000000000              -0.127634741              -0.106444663               0.000000000              -0.152459092              -0.128515018               0.000000000              -0.177283442              -0.150585374               0.000000000              -0.202107793              -0.172655730               0.000000000              -0.226932143              -0.194726086               0.000000000              -0.251756494              -0.216796442               0.000000000              -0.276580845              -0.238866798               0.000000000              -0.301405195              -0.260937153               0.000000000              -0.326229546              -0.283007509               0.000000000              -0.351053896              -0.305077865               0.000000000              -0.375878247              -0.327148221               0.000000000              -0.400702598              -0.349218577               0.000000000              -0.425526948              -0.371288933               0.000000000              -0.450351299              -0.393359288               0.000000000              -0.475175649              -0.415429644               0.000000000              -0.500000000              -0.437500000               0.000000000              -0.094045202              -0.094045202               0.000000000              -0.119417377              -0.119417377               0.000000000              -0.144789552              -0.144789552               0.000000000              -0.170161727              -0.170161727               0.000000000              -0.195533901              -0.195533901               0.000000000              -0.220906076              -0.220906076               0.000000000              -0.246278251              -0.246278251               0.000000000              -0.271650426              -0.271650426               0.000000000              -0.297022601              -0.297022601               0.000000000              -0.322394776              -0.322394776               0.000000000              -0.347766951              -0.347766951               0.000000000              -0.373139126              -0.373139126               0.000000000              -0.398511300              -0.398511300               0.000000000              -0.423883475              -0.423883475               0.000000000              -0.449255650              -0.449255650               0.000000000              -0.474627825              -0.474627825               0.000000000              -0.500000000              -0.500000000               0.000000000              -0.084374307              -0.102810390               0.000000000              -0.106444663              -0.127634741               0.000000000              -0.128515018              -0.152459092               0.000000000              -0.150585374              -0.177283442               0.000000000              -0.172655730              -0.202107793               0.000000000              -0.194726086              -0.226932143               0.000000000              -0.216796442              -0.251756494               0.000000000              -0.238866798              -0.276580845               0.000000000              -0.260937153              -0.301405195               0.000000000              -0.283007509              -0.326229546               0.000000000              -0.305077865              -0.351053896               0.000000000              -0.327148221              -0.375878247               0.000000000              -0.349218577              -0.400702598               0.000000000              -0.371288933              -0.425526948               0.000000000              -0.393359288              -0.450351299               0.000000000              -0.415429644              -0.475175649               0.000000000              -0.437500000              -0.500000000               0.000000000              -0.073890841              -0.110585458               0.000000000              -0.092710163              -0.134923867               0.000000000              -0.111529486              -0.159262276               0.000000000              -0.130348808              -0.183600685               0.000000000              -0.149168131              -0.207939094               0.000000000              -0.167987453              -0.232277503               0.000000000              -0.186806776              -0.256615912               0.000000000              -0.205626098              -0.280954320               0.000000000              -0.224445420              -0.305292729               0.000000000              -0.243264743              -0.329631138               0.000000000              -0.262084065              -0.353969547               0.000000000              -0.280903388              -0.378307956               0.000000000              -0.299722710              -0.402646365               0.000000000              -0.318542033              -0.426984773               0.000000000              -0.337361355              -0.451323182               0.000000000              -0.356180678              -0.475661591               0.000000000              -0.375000000              -0.500000000               0.000000000              -0.062695766              -0.117295528               0.000000000              -0.078308531              -0.141214558               0.000000000              -0.093921295              -0.165133587               0.000000000              -0.109534060              -0.189052617               0.000000000              -0.125146824              -0.212971646               0.000000000              -0.140759589              -0.236890676               0.000000000              -0.156372354              -0.260809705               0.000000000              -0.171985118              -0.284728735               0.000000000              -0.187597883              -0.308647764               0.000000000              -0.203210648              -0.332566794               0.000000000              -0.218823412              -0.356485823               0.000000000              -0.234436177              -0.380404853               0.000000000              -0.250048941              -0.404323882               0.000000000              -0.265661706              -0.428242912               0.000000000              -0.281274471              -0.452161941               0.000000000              -0.296887235              -0.476080971               0.000000000              -0.312500000              -0.500000000               0.000000000              -0.050896897              -0.122875978               0.000000000              -0.063340840              -0.146446229               0.000000000              -0.075784784              -0.170016481               0.000000000              -0.088228728              -0.193586732               0.000000000              -0.100672672              -0.217156983               0.000000000              -0.113116616              -0.240727235               0.000000000              -0.125560560              -0.264297486               0.000000000              -0.138004504              -0.287867738               0.000000000              -0.150448448              -0.311437989               0.000000000              -0.162892392              -0.335008240               0.000000000              -0.175336336              -0.358578492               0.000000000              -0.187780280              -0.382148743               0.000000000              -0.200224224              -0.405718994               0.000000000              -0.212668168              -0.429289246               0.000000000              -0.225112112              -0.452859497               0.000000000              -0.237556056              -0.476429749               0.000000000              -0.250000000              -0.500000000               0.000000000              -0.038607862              -0.127273065               0.000000000              -0.047913621              -0.150568498               0.000000000              -0.057219379              -0.173863932               0.000000000              -0.066525138              -0.197159365               0.000000000              -0.075830897              -0.220454798               0.000000000              -0.085136655              -0.243750232               0.000000000              -0.094442414              -0.267045665               0.000000000              -0.103748172              -0.290341099               0.000000000              -0.113053931              -0.313636532               0.000000000              -0.122359690              -0.336931966               0.000000000              -0.131665448              -0.360227399               0.000000000              -0.140971207              -0.383522833               0.000000000              -0.150276966              -0.406818266               0.000000000              -0.159582724              -0.430113700               0.000000000              -0.168888483              -0.453409133               0.000000000              -0.178194241              -0.476704567               0.000000000              -0.187500000              -0.500000000               0.000000000              -0.025947013              -0.130444442               0.000000000              -0.032137825              -0.153541665               0.000000000              -0.038328636              -0.176638887               0.000000000              -0.044519448              -0.199736109               0.000000000              -0.050710260              -0.222833332               0.000000000              -0.056901071              -0.245930554               0.000000000              -0.063091883              -0.269027776               0.000000000              -0.069282695              -0.292124999               0.000000000              -0.075473506              -0.315222221               0.000000000              -0.081664318              -0.338319444               0.000000000              -0.087855130              -0.361416666               0.000000000              -0.094045942              -0.384513888               0.000000000              -0.100236753              -0.407611111               0.000000000              -0.106427565              -0.430708333               0.000000000              -0.112618377              -0.453805555               0.000000000              -0.118809188              -0.476902778               0.000000000              -0.125000000              -0.500000000               0.000000000              -0.013036280              -0.132359569               0.000000000              -0.016127762              -0.155337096               0.000000000              -0.019219245              -0.178314623               0.000000000              -0.022310727              -0.201292150               0.000000000              -0.025402210              -0.224269676               0.000000000              -0.028493692              -0.247247203               0.000000000              -0.031585175              -0.270224730               0.000000000              -0.034676657              -0.293202257               0.000000000              -0.037768140              -0.316179784               0.000000000              -0.040859622              -0.339157311               0.000000000              -0.043951105              -0.362134838               0.000000000              -0.047042587              -0.385112365               0.000000000              -0.050134070              -0.408089892               0.000000000              -0.053225552              -0.431067419               0.000000000              -0.056317035              -0.454044946               0.000000000              -0.059408517              -0.477022473               0.000000000              -0.062500000              -0.500000000               0.000000000               0.000000000              -0.133000000               0.000000000               0.000000000              -0.155937500               0.000000000               0.000000000              -0.178875000               0.000000000               0.000000000              -0.201812500               0.000000000               0.000000000              -0.224750000               0.000000000               0.000000000              -0.247687500               0.000000000               0.000000000              -0.270625000               0.000000000               0.000000000              -0.293562500               0.000000000               0.000000000              -0.316500000               0.000000000               0.000000000              -0.339437500               0.000000000               0.000000000              -0.362375000               0.000000000               0.000000000              -0.385312500               0.000000000               0.000000000              -0.408250000               0.000000000               0.000000000              -0.431187500               0.000000000               0.000000000              -0.454125000               0.000000000               0.000000000              -0.477062500               0.000000000               0.000000000              -0.500000000               0.000000000              -0.133000000               0.000000000               0.000000000              -0.155937500               0.000000000               0.000000000              -0.178875000               0.000000000               0.000000000              -0.201812500               0.000000000               0.000000000              -0.224750000               0.000000000               0.000000000              -0.247687500               0.000000000               0.000000000              -0.270625000               0.000000000               0.000000000              -0.293562500               0.000000000               0.000000000              -0.316500000               0.000000000               0.000000000              -0.339437500               0.000000000               0.000000000              -0.362375000               0.000000000               0.000000000              -0.385312500               0.000000000               0.000000000              -0.408250000               0.000000000               0.000000000              -0.431187500               0.000000000               0.000000000              -0.454125000               0.000000000               0.000000000              -0.477062500               0.000000000               0.000000000              -0.500000000               0.000000000               0.000000000              -0.132359569               0.013036280               0.000000000              -0.155337096               0.016127762               0.000000000              -0.178314623               0.019219245               0.000000000              -0.201292150               0.022310727               0.000000000              -0.224269676               0.025402210               0.000000000              -0.247247203               0.028493692               0.000000000              -0.270224730               0.031585175               0.000000000              -0.293202257               0.034676657               0.000000000              -0.316179784               0.037768140               0.000000000              -0.339157311               0.040859622               0.000000000              -0.362134838               0.043951105               0.000000000              -0.385112365               0.047042587               0.000000000              -0.408089892               0.050134070               0.000000000              -0.431067419               0.053225552               0.000000000              -0.454044946               0.056317035               0.000000000              -0.477022473               0.059408517               0.000000000              -0.500000000               0.062500000               0.000000000              -0.130444442               0.025947013               0.000000000              -0.153541665               0.032137825               0.000000000              -0.176638887               0.038328636               0.000000000              -0.199736109               0.044519448               0.000000000              -0.222833332               0.050710260               0.000000000              -0.245930554               0.056901071               0.000000000              -0.269027776               0.063091883               0.000000000              -0.292124999               0.069282695               0.000000000              -0.315222221               0.075473506               0.000000000              -0.338319444               0.081664318               0.000000000              -0.361416666               0.087855130               0.000000000              -0.384513888               0.094045942               0.000000000              -0.407611111               0.100236753               0.000000000              -0.430708333               0.106427565               0.000000000              -0.453805555               0.112618377               0.000000000              -0.476902778               0.118809188               0.000000000              -0.500000000               0.125000000               0.000000000              -0.127273065               0.038607862               0.000000000              -0.150568498               0.047913621               0.000000000              -0.173863932               0.057219379               0.000000000              -0.197159365               0.066525138               0.000000000              -0.220454798               0.075830897               0.000000000              -0.243750232               0.085136655               0.000000000              -0.267045665               0.094442414               0.000000000              -0.290341099               0.103748172               0.000000000              -0.313636532               0.113053931               0.000000000              -0.336931966               0.122359690               0.000000000              -0.360227399               0.131665448               0.000000000              -0.383522833               0.140971207               0.000000000              -0.406818266               0.150276966               0.000000000              -0.430113700               0.159582724               0.000000000              -0.453409133               0.168888483               0.000000000              -0.476704567               0.178194241               0.000000000              -0.500000000               0.187500000               0.000000000              -0.122875978               0.050896897               0.000000000              -0.146446229               0.063340840               0.000000000              -0.170016481               0.075784784               0.000000000              -0.193586732               0.088228728               0.000000000              -0.217156983               0.100672672               0.000000000              -0.240727235               0.113116616               0.000000000              -0.264297486               0.125560560               0.000000000              -0.287867738               0.138004504               0.000000000              -0.311437989               0.150448448               0.000000000              -0.335008240               0.162892392               0.000000000              -0.358578492               0.175336336               0.000000000              -0.382148743               0.187780280               0.000000000              -0.405718994               0.200224224               0.000000000              -0.429289246               0.212668168               0.000000000              -0.452859497               0.225112112               0.000000000              -0.476429749               0.237556056               0.000000000              -0.500000000               0.250000000               0.000000000              -0.117295528               0.062695766               0.000000000              -0.141214558               0.078308531               0.000000000              -0.165133587               0.093921295               0.000000000              -0.189052617               0.109534060               0.000000000              -0.212971646               0.125146824               0.000000000              -0.236890676               0.140759589               0.000000000              -0.260809705               0.156372354               0.000000000              -0.284728735               0.171985118               0.000000000              -0.308647764               0.187597883               0.000000000              -0.332566794               0.203210648               0.000000000              -0.356485823               0.218823412               0.000000000              -0.380404853               0.234436177               0.000000000              -0.404323882               0.250048941               0.000000000              -0.428242912               0.265661706               0.000000000              -0.452161941               0.281274471               0.000000000              -0.476080971               0.296887235               0.000000000              -0.500000000               0.312500000               0.000000000              -0.110585458               0.073890841               0.000000000              -0.134923867               0.092710163               0.000000000              -0.159262276               0.111529486               0.000000000              -0.183600685               0.130348808               0.000000000              -0.207939094               0.149168131               0.000000000              -0.232277503               0.167987453               0.000000000              -0.256615912               0.186806776               0.000000000              -0.280954320               0.205626098               0.000000000              -0.305292729               0.224445420               0.000000000              -0.329631138               0.243264743               0.000000000              -0.353969547               0.262084065               0.000000000              -0.378307956               0.280903388               0.000000000              -0.402646365               0.299722710               0.000000000              -0.426984773               0.318542033               0.000000000              -0.451323182               0.337361355               0.000000000              -0.475661591               0.356180678               0.000000000              -0.500000000               0.375000000               0.000000000              -0.102810390               0.084374307               0.000000000              -0.127634741               0.106444663               0.000000000              -0.152459092               0.128515018               0.000000000              -0.177283442               0.150585374               0.000000000              -0.202107793               0.172655730               0.000000000              -0.226932143               0.194726086               0.000000000              -0.251756494               0.216796442               0.000000000              -0.276580845               0.238866798               0.000000000              -0.301405195               0.260937153               0.000000000              -0.326229546               0.283007509               0.000000000              -0.351053896               0.305077865               0.000000000              -0.375878247               0.327148221               0.000000000              -0.400702598               0.349218577               0.000000000              -0.425526948               0.371288933               0.000000000              -0.450351299               0.393359288               0.000000000              -0.475175649               0.415429644               0.000000000              -0.500000000               0.437500000               0.000000000              -0.094045202               0.094045202               0.000000000              -0.119417377               0.119417377               0.000000000              -0.144789552               0.144789552               0.000000000              -0.170161727               0.170161727               0.000000000              -0.195533901               0.195533901               0.000000000              -0.220906076               0.220906076               0.000000000              -0.246278251               0.246278251               0.000000000              -0.271650426               0.271650426               0.000000000              -0.297022601               0.297022601               0.000000000              -0.322394776               0.322394776               0.000000000              -0.347766951               0.347766951               0.000000000              -0.373139126               0.373139126               0.000000000              -0.398511300               0.398511300               0.000000000              -0.423883475               0.423883475               0.000000000              -0.449255650               0.449255650               0.000000000              -0.474627825               0.474627825               0.000000000              -0.500000000               0.500000000               0.000000000              -0.084374307               0.102810390               0.000000000              -0.106444663               0.127634741               0.000000000              -0.128515018               0.152459092               0.000000000              -0.150585374               0.177283442               0.000000000              -0.172655730               0.202107793               0.000000000              -0.194726086               0.226932143               0.000000000              -0.216796442               0.251756494               0.000000000              -0.238866798               0.276580845               0.000000000              -0.260937153               0.301405195               0.000000000              -0.283007509               0.326229546               0.000000000              -0.305077865               0.351053896               0.000000000              -0.327148221               0.375878247               0.000000000              -0.349218577               0.400702598               0.000000000              -0.371288933               0.425526948               0.000000000              -0.393359288               0.450351299               0.000000000              -0.415429644               0.475175649               0.000000000              -0.437500000               0.500000000               0.000000000              -0.073890841               0.110585458               0.000000000              -0.092710163               0.134923867               0.000000000              -0.111529486               0.159262276               0.000000000              -0.130348808               0.183600685               0.000000000              -0.149168131               0.207939094               0.000000000              -0.167987453               0.232277503               0.000000000              -0.186806776               0.256615912               0.000000000              -0.205626098               0.280954320               0.000000000              -0.224445420               0.305292729               0.000000000              -0.243264743               0.329631138               0.000000000              -0.262084065               0.353969547               0.000000000              -0.280903388               0.378307956               0.000000000              -0.299722710               0.402646365               0.000000000              -0.318542033               0.426984773               0.000000000              -0.337361355               0.451323182               0.000000000              -0.356180678               0.475661591               0.000000000              -0.375000000               0.500000000               0.000000000              -0.062695766               0.117295528               0.000000000              -0.078308531               0.141214558               0.000000000              -0.093921295               0.165133587               0.000000000              -0.109534060               0.189052617               0.000000000              -0.125146824               0.212971646               0.000000000              -0.140759589               0.236890676               0.000000000              -0.156372354               0.260809705               0.000000000              -0.171985118               0.284728735               0.000000000              -0.187597883               0.308647764               0.000000000              -0.203210648               0.332566794               0.000000000              -0.218823412               0.356485823               0.000000000              -0.234436177               0.380404853               0.000000000              -0.250048941               0.404323882               0.000000000              -0.265661706               0.428242912               0.000000000              -0.281274471               0.452161941               0.000000000              -0.296887235               0.476080971               0.000000000              -0.312500000               0.500000000               0.000000000              -0.050896897               0.122875978               0.000000000              -0.063340840               0.146446229               0.000000000              -0.075784784               0.170016481               0.000000000              -0.088228728               0.193586732               0.000000000              -0.100672672               0.217156983               0.000000000              -0.113116616               0.240727235               0.000000000              -0.125560560               0.264297486               0.000000000              -0.138004504               0.287867738               0.000000000              -0.150448448               0.311437989               0.000000000              -0.162892392               0.335008240               0.000000000              -0.175336336               0.358578492               0.000000000              -0.187780280               0.382148743               0.000000000              -0.200224224               0.405718994               0.000000000              -0.212668168               0.429289246               0.000000000              -0.225112112               0.452859497               0.000000000              -0.237556056               0.476429749               0.000000000              -0.250000000               0.500000000               0.000000000              -0.038607862               0.127273065               0.000000000              -0.047913621               0.150568498               0.000000000              -0.057219379               0.173863932               0.000000000              -0.066525138               0.197159365               0.000000000              -0.075830897               0.220454798               0.000000000              -0.085136655               0.243750232               0.000000000              -0.094442414               0.267045665               0.000000000              -0.103748172               0.290341099               0.000000000              -0.113053931               0.313636532               0.000000000              -0.122359690               0.336931966               0.000000000              -0.131665448               0.360227399               0.000000000              -0.140971207               0.383522833               0.000000000              -0.150276966               0.406818266               0.000000000              -0.159582724               0.430113700               0.000000000              -0.168888483               0.453409133               0.000000000              -0.178194241               0.476704567               0.000000000              -0.187500000               0.500000000               0.000000000              -0.025947013               0.130444442               0.000000000              -0.032137825               0.153541665               0.000000000              -0.038328636               0.176638887               0.000000000              -0.044519448               0.199736109               0.000000000              -0.050710260               0.222833332               0.000000000              -0.056901071               0.245930554               0.000000000              -0.063091883               0.269027776               0.000000000              -0.069282695               0.292124999               0.000000000              -0.075473506               0.315222221               0.000000000              -0.081664318               0.338319444               0.000000000              -0.087855130               0.361416666               0.000000000              -0.094045942               0.384513888               0.000000000              -0.100236753               0.407611111               0.000000000              -0.106427565               0.430708333               0.000000000              -0.112618377               0.453805555               0.000000000              -0.118809188               0.476902778               0.000000000              -0.125000000               0.500000000               0.000000000              -0.013036280               0.132359569               0.000000000              -0.016127762               0.155337096               0.000000000              -0.019219245               0.178314623               0.000000000              -0.022310727               0.201292150               0.000000000              -0.025402210               0.224269676               0.000000000              -0.028493692               0.247247203               0.000000000              -0.031585175               0.270224730               0.000000000              -0.034676657               0.293202257               0.000000000              -0.037768140               0.316179784               0.000000000              -0.040859622               0.339157311               0.000000000              -0.043951105               0.362134838               0.000000000              -0.047042587               0.385112365               0.000000000              -0.050134070               0.408089892               0.000000000              -0.053225552               0.431067419               0.000000000              -0.056317035               0.454044946               0.000000000              -0.059408517               0.477022473               0.000000000              -0.062500000               0.500000000               0.000000000               0.000000000               0.133000000               0.000000000               0.000000000               0.155937500               0.000000000               0.000000000               0.178875000               0.000000000               0.000000000               0.201812500               0.000000000               0.000000000               0.224750000               0.000000000               0.000000000               0.247687500               0.000000000               0.000000000               0.270625000               0.000000000               0.000000000               0.293562500               0.000000000               0.000000000               0.316500000               0.000000000               0.000000000               0.339437500               0.000000000               0.000000000               0.362375000               0.000000000               0.000000000               0.385312500               0.000000000               0.000000000               0.408250000               0.000000000               0.000000000               0.431187500               0.000000000               0.000000000               0.454125000               0.000000000               0.000000000               0.477062500               0.000000000               0.000000000               0.500000000               0.000000000 </DataArray>
</Points>
<Cells>
<DataArray type="Int32"                                    Name="connectivity"                                                      NumberOfComponents=" 1" format="ascii">
         0          1         18         17          1          2         19         18          2          3         20         19          3          4         21         20          4          5         22         21          5          6         23         22          6          7         24         23          7          8         25         24          8          9         26         25          9         10         27         26         10         11         28         27         11         12         29         28         12         13         30         29         13         14         31         30         14         15         32         31         15         16         33         32         17         18         35         34         18         19         36         35         19         20         37         36         20         21         38         37         21         22         39         38         22         23         40         39         23         24         41         40         24         25         42         41         25         26         43         42         26         27         44         43         27         28         45         44         28         29         46         45         29         30         47         46         30         31         48         47         31         32         49         48         32         33         50         49         34         35         52         51         35         36         53         52         36         37         54         53         37         38         55         54         38         39         56         55         39         40         57         56         40         41         58         57         41         42         59         58         42         43         60         59         43         44         61         60         44         45         62         61         45         46         63         62         46         47         64         63         47         48         65         64         48         49         66         65         49         50         67         66         51         52         69         68         52         53         70         69         53         54         71         70         54         55         72         71         55         56         73         72         56         57         74         73         57         58         75         74         58         59         76         75         59         60         77         76         60         61         78         77         61         62         79         78         62         63         80         79         63         64         81         80         64         65         82         81         65         66         83         82         66         67         84         83         68         69         86         85         69         70         87         86         70         71         88         87         71         72         89         88         72         73         90         89         73         74         91         90         74         75         92         91         75         76         93         92         76         77         94         93         77         78         95         94         78         79         96         95         79         80         97         96         80         81         98         97         81         82         99         98         82         83        100         99         83         84        101        100         85         86        103        102         86         87        104        103         87         88        105        104         88         89        106        105         89         90        107        106         90         91        108        107         91         92        109        108         92         93        110        109         93         94        111        110         94         95        112        111         95         96        113        112         96         97        114        113         97         98        115        114         98         99        116        115         99        100        117        116        100        101        118        117        102        103        120        119        103        104        121        120        104        105        122        121        105        106        123        122        106        107        124        123        107        108        125        124        108        109        126        125        109        110        127        126        110        111        128        127        111        112        129        128        112        113        130        129        113        114        131        130        114        115        132        131        115        116        133        132        116        117        134        133        117        118        135        134        119        120        137        136        120        121        138        137        121        122        139        138        122        123        140        139        123        124        141        140        124        125        142        141        125        126        143        142        126        127        144        143        127        128        145        144        128        129        146        145        129        130        147        146        130        131        148        147        131        132        149        148        132        133        150        149        133        134        151        150        134        135        152        151        136        137        154        153        137        138        155        154        138        139        156        155        139        140        157        156        140        141        158        157        141        142        159        158        142        143        160        159        143        144        161        160        144        145        162        161        145        146        163        162        146        147        164        163        147        148        165        164        148        149        166        165        149        150        167        166        150        151        168        167        151        152        169        168        153        154        171        170        154        155        172        171        155        156        173        172        156        157        174        173        157        158        175        174        158        159        176        175        159        160        177        176        160        161        178        177        161        162        179        178        162        163        180        179        163        164        181        180        164        165        182        181        165        166        183        182        166        167        184        183        167        168        185        184        168        169        186        185        170        171        188        187        171        172        189        188        172        173        190        189        173        174        191        190        174        175        192        191        175        176        193        192        176        177        194        193        177        178        195        194        178        179        196        195        179        180        197        196        180        181        198        197        181        182        199        198        182        183        200        199        183        184        201        200        184        185        202        201        185        186        203        202        187        188        205        204        188        189        206        205        189        190        207        206        190        191        208        207        191        192        209        208        192        193        210        209        193        194        211        210        194        195        212        211        195        196        213        212        196        197        214        213        197        198        215        214        198        199        216        215        199        200        217        216        200        201        218        217        201        202        219        218        202        203        220        219        204        205        222        221        205        206        223        222        206        207        224        223        207        208        225        224        208        209        226        225        209        210        227        226        210        211        228        227        211        212        229        228        212        213        230        229        213        214        231        230        214        215        232        231        215        216        233        232        216        217        234        233        217        218        235        234        218        219        236        235        219        220        237        236        221        222        239        238        222        223        240        239        223        224        241        240        224        225        242        241        225        226        243        242        226        227        244        243        227        228        245        244        228        229        246        245        229        230        247        246        230        231        248        247        231        232        249        248        232        233        250        249        233        234        251        250        234        235        252        251        235        236        253        252        236        237        254        253        238        239        256        255        239        240        257        256        240        241        258        257        241        242        259        258        242        243        260        259        243        244        261        260        244        245        262        261        245        246        263        262        246        247        264        263        247        248        265        264        248        249        266        265        249        250        267        266        250        251        268        267        251        252        269        268        252        253        270        269        253        254        271        270        255        256        273        272        256        257        274        273        257        258        275        274        258        259        276        275        259        260        277        276        260        261        278        277        261        262        279        278        262        263        280        279        263        264        281        280        264        265        282        281        265        266        283        282        266        267        284        283        267        268        285        284        268        269        286        285        269        270        287        286        270        271        288        287        306        307          1          0        307        308          2          1        308        309          3          2        309        310          4          3        310        311          5          4        311        312          6          5        312        313          7          6        313        314          8          7        314        315          9          8        315        316         10          9        316        317         11         10        317        318         12         11        318        319         13         12        319        320         14         13        320        321         15         14        321        322         16         15        323        324        307        306        324        325        308        307        325        326        309        308        326        327        310        309        327        328        311        310        328        329        312        311        329        330        313        312        330        331        314        313        331        332        315        314        332        333        316        315        333        334        317        316        334        335        318        317        335        336        319        318        336        337        320        319        337        338        321        320        338        339        322        321        340        341        324        323        341        342        325        324        342        343        326        325        343        344        327        326        344        345        328        327        345        346        329        328        346        347        330        329        347        348        331        330        348        349        332        331        349        350        333        332        350        351        334        333        351        352        335        334        352        353        336        335        353        354        337        336        354        355        338        337        355        356        339        338        357        358        341        340        358        359        342        341        359        360        343        342        360        361        344        343        361        362        345        344        362        363        346        345        363        364        347        346        364        365        348        347        365        366        349        348        366        367        350        349        367        368        351        350        368        369        352        351        369        370        353        352        370        371        354        353        371        372        355        354        372        373        356        355        374        375        358        357        375        376        359        358        376        377        360        359        377        378        361        360        378        379        362        361        379        380        363        362        380        381        364        363        381        382        365        364        382        383        366        365        383        384        367        366        384        385        368        367        385        386        369        368        386        387        370        369        387        388        371        370        388        389        372        371        389        390        373        372        391        392        375        374        392        393        376        375        393        394        377        376        394        395        378        377        395        396        379        378        396        397        380        379        397        398        381        380        398        399        382        381        399        400        383        382        400        401        384        383        401        402        385        384        402        403        386        385        403        404        387        386        404        405        388        387        405        406        389        388        406        407        390        389        408        409        392        391        409        410        393        392        410        411        394        393        411        412        395        394        412        413        396        395        413        414        397        396        414        415        398        397        415        416        399        398        416        417        400        399        417        418        401        400        418        419        402        401        419        420        403        402        420        421        404        403        421        422        405        404        422        423        406        405        423        424        407        406        425        426        409        408        426        427        410        409        427        428        411        410        428        429        412        411        429        430        413        412        430        431        414        413        431        432        415        414        432        433        416        415        433        434        417        416        434        435        418        417        435        436        419        418        436        437        420        419        437        438        421        420        438        439        422        421        439        440        423        422        440        441        424        423        442        443        426        425        443        444        427        426        444        445        428        427        445        446        429        428        446        447        430        429        447        448        431        430        448        449        432        431        449        450        433        432        450        451        434        433        451        452        435        434        452        453        436        435        453        454        437        436        454        455        438        437        455        456        439        438        456        457        440        439        457        458        441        440        459        460        443        442        460        461        444        443        461        462        445        444        462        463        446        445        463        464        447        446        464        465        448        447        465        466        449        448        466        467        450        449        467        468        451        450        468        469        452        451        469        470        453        452        470        471        454        453        471        472        455        454        472        473        456        455        473        474        457        456        474        475        458        457        476        477        460        459        477        478        461        460        478        479        462        461        479        480        463        462        480        481        464        463        481        482        465        464        482        483        466        465        483        484        467        466        484        485        468        467        485        486        469        468        486        487        470        469        487        488        471        470        488        489        472        471        489        490        473        472        490        491        474        473        491        492        475        474        493        494        477        476        494        495        478        477        495        496        479        478        496        497        480        479        497        498        481        480        498        499        482        481        499        500        483        482        500        501        484        483        501        502        485        484        502        503        486        485        503        504        487        486        504        505        488        487        505        506        489        488        506        507        490        489        507        508        491        490        508        509        492        491        510        511        494        493        511        512        495        494        512        513        496        495        513        514        497        496        514        515        498        497        515        516        499        498        516        517        500        499        517        518        501        500        518        519        502        501        519        520        503        502        520        521        504        503        521        522        505        504        522        523        506        505        523        524        507        506        524        525        508        507        525        526        509        508        527        528        511        510        528        529        512        511        529        530        513        512        530        531        514        513        531        532        515        514        532        533        516        515        533        534        517        516        534        535        518        517        535        536        519        518        536        537        520        519        537        538        521        520        538        539        522        521        539        540        523        522        540        541        524        523        541        542        525        524        542        543        526        525        544        545        528        527        545        546        529        528        546        547        530        529        547        548        531        530        548        549        532        531        549        550        533        532        550        551        534        533        551        552        535        534        552        553        536        535        553        554        537        536        554        555        538        537        555        556        539        538        556        557        540        539        557        558        541        540        558        559        542        541        559        560        543        542        561        562        545        544        562        563        546        545        563        564        547        546        564        565        548        547        565        566        549        548        566        567        550        549        567        568        551        550        568        569        552        551        569        570        553        552        570        571        554        553        571        572        555        554        572        573        556        555        573        574        557        556        574        575        558        557        575        576        559        558        576        577        560        559        578        579        596        595        579        580        597        596        580        581        598        597        581        582        599        598        582        583        600        599        583        584        601        600        584        585        602        601        585        586        603        602        586        587        604        603        587        588        605        604        588        589        606        605        589        590        607        606        590        591        608        607        591        592        609        608        592        593        610        609        593        594        611        610        595        596        613        612        596        597        614        613        597        598        615        614        598        599        616        615        599        600        617        616        600        601        618        617        601        602        619        618        602        603        620        619        603        604        621        620        604        605        622        621        605        606        623        622        606        607        624        623        607        608        625        624        608        609        626        625        609        610        627        626        610        611        628        627        612        613        630        629        613        614        631        630        614        615        632        631        615        616        633        632        616        617        634        633        617        618        635        634        618        619        636        635        619        620        637        636        620        621        638        637        621        622        639        638        622        623        640        639        623        624        641        640        624        625        642        641        625        626        643        642        626        627        644        643        627        628        645        644        629        630        647        646        630        631        648        647        631        632        649        648        632        633        650        649        633        634        651        650        634        635        652        651        635        636        653        652        636        637        654        653        637        638        655        654        638        639        656        655        639        640        657        656        640        641        658        657        641        642        659        658        642        643        660        659        643        644        661        660        644        645        662        661        646        647        664        663        647        648        665        664        648        649        666        665        649        650        667        666        650        651        668        667        651        652        669        668        652        653        670        669        653        654        671        670        654        655        672        671        655        656        673        672        656        657        674        673        657        658        675        674        658        659        676        675        659        660        677        676        660        661        678        677        661        662        679        678        663        664        681        680        664        665        682        681        665        666        683        682        666        667        684        683        667        668        685        684        668        669        686        685        669        670        687        686        670        671        688        687        671        672        689        688        672        673        690        689        673        674        691        690        674        675        692        691        675        676        693        692        676        677        694        693        677        678        695        694        678        679        696        695        680        681        698        697        681        682        699        698        682        683        700        699        683        684        701        700        684        685        702        701        685        686        703        702        686        687        704        703        687        688        705        704        688        689        706        705        689        690        707        706        690        691        708        707        691        692        709        708        692        693        710        709        693        694        711        710        694        695        712        711        695        696        713        712        697        698        715        714        698        699        716        715        699        700        717        716        700        701        718        717        701        702        719        718        702        703        720        719        703        704        721        720        704        705        722        721        705        706        723        722        706        707        724        723        707        708        725        724        708        709        726        725        709        710        727        726        710        711        728        727        711        712        729        728        712        713        730        729        714        715        732        731        715        716        733        732        716        717        734        733        717        718        735        734        718        719        736        735        719        720        737        736        720        721        738        737        721        722        739        738        722        723        740        739        723        724        741        740        724        725        742        741        725        726        743        742        726        727        744        743        727        728        745        744        728        729        746        745        729        730        747        746        731        732        749        748        732        733        750        749        733        734        751        750        734        735        752        751        735        736        753        752        736        737        754        753        737        738        755        754        738        739        756        755        739        740        757        756        740        741        758        757        741        742        759        758        742        743        760        759        743        744        761        760        744        745        762        761        745        746        763        762        746        747        764        763        748        749        766        765        749        750        767        766        750        751        768        767        751        752        769        768        752        753        770        769        753        754        771        770        754        755        772        771        755        756        773        772        756        757        774        773        757        758        775        774        758        759        776        775        759        760        777        776        760        761        778        777        761        762        779        778        762        763        780        779        763        764        781        780        765        766        783        782        766        767        784        783        767        768        785        784        768        769        786        785        769        770        787        786        770        771        788        787        771        772        789        788        772        773        790        789        773        774        791        790        774        775        792        791        775        776        793        792        776        777        794        793        777        778        795        794        778        779        796        795        779        780        797        796        780        781        798        797        782        783        800        799        783        784        801        800        784        785        802        801        785        786        803        802        786        787        804        803        787        788        805        804        788        789        806        805        789        790        807        806        790        791        808        807        791        792        809        808        792        793        810        809        793        794        811        810        794        795        812        811        795        796        813        812        796        797        814        813        797        798        815        814        799        800        817        816        800        801        818        817        801        802        819        818        802        803        820        819        803        804        821        820        804        805        822        821        805        806        823        822        806        807        824        823        807        808        825        824        808        809        826        825        809        810        827        826        810        811        828        827        811        812        829        828        812        813        830        829        813        814        831        830        814        815        832        831        816        817        834        833        817        818        835        834        818        819        836        835        819        820        837        836        820        821        838        837        821        822        839        838        822        823        840        839        823        824        841        840        824        825        842        841        825        826        843        842        826        827        844        843        827        828        845        844        828        829        846        845        829        830        847        846        830        831        848        847        831        832        849        848        833        834        562        561        834        835        563        562        835        836        564        563        836        837        565        564        837        838        566        565        838        839        567        566        839        840        568        567        840        841        569        568        841        842        570        569        842        843        571        570        843        844        572        571        844        845        573        572        845        846        574        573        846        847        575        574        847        848        576        575        848        849        577        576        884        885        579        578        885        886        580        579        886        887        581        580        887        888        582        581        888        889        583        582        889        890        584        583        890        891        585        584        891        892        586        585        892        893        587        586        893        894        588        587        894        895        589        588        895        896        590        589        896        897        591        590        897        898        592        591        898        899        593        592        899        900        594        593        901        902        885        884        902        903        886        885        903        904        887        886        904        905        888        887        905        906        889        888        906        907        890        889        907        908        891        890        908        909        892        891        909        910        893        892        910        911        894        893        911        912        895        894        912        913        896        895        913        914        897        896        914        915        898        897        915        916        899        898        916        917        900        899        918        919        902        901        919        920        903        902        920        921        904        903        921        922        905        904        922        923        906        905        923        924        907        906        924        925        908        907        925        926        909        908        926        927        910        909        927        928        911        910        928        929        912        911        929        930        913        912        930        931        914        913        931        932        915        914        932        933        916        915        933        934        917        916        935        936        919        918        936        937        920        919        937        938        921        920        938        939        922        921        939        940        923        922        940        941        924        923        941        942        925        924        942        943        926        925        943        944        927        926        944        945        928        927        945        946        929        928        946        947        930        929        947        948        931        930        948        949        932        931        949        950        933        932        950        951        934        933        952        953        936        935        953        954        937        936        954        955        938        937        955        956        939        938        956        957        940        939        957        958        941        940        958        959        942        941        959        960        943        942        960        961        944        943        961        962        945        944        962        963        946        945        963        964        947        946        964        965        948        947        965        966        949        948        966        967        950        949        967        968        951        950        969        970        953        952        970        971        954        953        971        972        955        954        972        973        956        955        973        974        957        956        974        975        958        957        975        976        959        958        976        977        960        959        977        978        961        960        978        979        962        961        979        980        963        962        980        981        964        963        981        982        965        964        982        983        966        965        983        984        967        966        984        985        968        967        986        987        970        969        987        988        971        970        988        989        972        971        989        990        973        972        990        991        974        973        991        992        975        974        992        993        976        975        993        994        977        976        994        995        978        977        995        996        979        978        996        997        980        979        997        998        981        980        998        999        982        981        999       1000        983        982       1000       1001        984        983       1001       1002        985        984       1003       1004        987        986       1004       1005        988        987       1005       1006        989        988       1006       1007        990        989       1007       1008        991        990       1008       1009        992        991       1009       1010        993        992       1010       1011        994        993       1011       1012        995        994       1012       1013        996        995       1013       1014        997        996       1014       1015        998        997       1015       1016        999        998       1016       1017       1000        999       1017       1018       1001       1000       1018       1019       1002       1001       1020       1021       1004       1003       1021       1022       1005       1004       1022       1023       1006       1005       1023       1024       1007       1006       1024       1025       1008       1007       1025       1026       1009       1008       1026       1027       1010       1009       1027       1028       1011       1010       1028       1029       1012       1011       1029       1030       1013       1012       1030       1031       1014       1013       1031       1032       1015       1014       1032       1033       1016       1015       1033       1034       1017       1016       1034       1035       1018       1017       1035       1036       1019       1018       1037       1038       1021       1020       1038       1039       1022       1021       1039       1040       1023       1022       1040       1041       1024       1023       1041       1042       1025       1024       1042       1043       1026       1025       1043       1044       1027       1026       1044       1045       1028       1027       1045       1046       1029       1028       1046       1047       1030       1029       1047       1048       1031       1030       1048       1049       1032       1031       1049       1050       1033       1032       1050       1051       1034       1033       1051       1052       1035       1034       1052       1053       1036       1035       1054       1055       1038       1037       1055       1056       1039       1038       1056       1057       1040       1039       1057       1058       1041       1040       1058       1059       1042       1041       1059       1060       1043       1042       1060       1061       1044       1043       1061       1062       1045       1044       1062       1063       1046       1045       1063       1064       1047       1046       1064       1065       1048       1047       1065       1066       1049       1048       1066       1067       1050       1049       1067       1068       1051       1050       1068       1069       1052       1051       1069       1070       1053       1052       1071       1072       1055       1054       1072       1073       1056       1055       1073       1074       1057       1056       1074       1075       1058       1057       1075       1076       1059       1058       1076       1077       1060       1059       1077       1078       1061       1060       1078       1079       1062       1061       1079       1080       1063       1062       1080       1081       1064       1063       1081       1082       1065       1064       1082       1083       1066       1065       1083       1084       1067       1066       1084       1085       1068       1067       1085       1086       1069       1068       1086       1087       1070       1069       1088       1089       1072       1071       1089       1090       1073       1072       1090       1091       1074       1073       1091       1092       1075       1074       1092       1093       1076       1075       1093       1094       1077       1076       1094       1095       1078       1077       1095       1096       1079       1078       1096       1097       1080       1079       1097       1098       1081       1080       1098       1099       1082       1081       1099       1100       1083       1082       1100       1101       1084       1083       1101       1102       1085       1084       1102       1103       1086       1085       1103       1104       1087       1086       1105       1106       1089       1088       1106       1107       1090       1089       1107       1108       1091       1090       1108       1109       1092       1091       1109       1110       1093       1092       1110       1111       1094       1093       1111       1112       1095       1094       1112       1113       1096       1095       1113       1114       1097       1096       1114       1115       1098       1097       1115       1116       1099       1098       1116       1117       1100       1099       1117       1118       1101       1100       1118       1119       1102       1101       1119       1120       1103       1102       1120       1121       1104       1103       1122       1123       1106       1105       1123       1124       1107       1106       1124       1125       1108       1107       1125       1126       1109       1108       1126       1127       1110       1109       1127       1128       1111       1110       1128       1129       1112       1111       1129       1130       1113       1112       1130       1131       1114       1113       1131       1132       1115       1114       1132       1133       1116       1115       1133       1134       1117       1116       1134       1135       1118       1117       1135       1136       1119       1118       1136       1137       1120       1119       1137       1138       1121       1120        272        273       1123       1122        273        274       1124       1123        274        275       1125       1124        275        276       1126       1125        276        277       1127       1126        277        278       1128       1127        278        279       1129       1128        279        280       1130       1129        280        281       1131       1130        281        282       1132       1131        282        283       1133       1132        283        284       1134       1133        284        285       1135       1134        285        286       1136       1135        286        287       1137       1136        287        288       1138       1137 </DataArray>
<DataArray type="Int32"                                    Name="offsets"                                                      NumberOfComponents=" 1" format="ascii">
         4          8         12         16         20         24         28         32         36         40         44         48         52         56         60         64         68         72         76         80         84         88         92         96        100        104        108        112        116        120        124        128        132        136        140        144        148        152        156        160        164        168        172        176        180        184        188        192        196        200        204        208        212        216        220        224        228        232        236        240        244        248        252        256        260        264        268        272        276        280        284        288        292        296        300        304        308        312        316        320        324        328        332        336        340        344        348        352        356        360        364        368        372        376        380        384        388        392        396        400        404        408        412        416        420        424        428        432        436        440        444        448        452        456        460        464        468        472        476        480        484        488        492        496        500        504        508        512        516        520        524        528        532        536        540        544        548        552        556        560        564        568        572        576        580        584        588        592        596        600        604        608        612        616        620        624        628        632        636        640        644        648        652        656        660        664        668        672        676        680        684        688        692        696        700        704        708        712        716        720        724        728        732        736        740        744        748        752        756        760        764        768        772        776        780        784        788        792        796        800        804        808        812        816        820        824        828        832        836        840        844        848        852        856        860        864        868        872        876        880        884        888        892        896        900        904        908        912        916        920        924        928        932        936        940        944        948        952        956        960        964        968        972        976        980        984        988        992        996       1000       1004       1008       1012       1016       1020       1024       1028       1032       1036       1040       1044       1048       1052       1056       1060       1064       1068       1072       1076       1080       1084       1088       1092       1096       1100       1104       1108       1112       1116       1120       1124       1128       1132       1136       1140       1144       1148       1152       1156       1160       1164       1168       1172       1176       1180       1184       1188       1192       1196       1200       1204       1208       1212       1216       1220       1224       1228       1232       1236       1240       1244       1248       1252       1256       1260       1264       1268       1272       1276       1280       1284       1288       1292       1296       1300       1304       1308       1312       1316       1320       1324       1328       1332       1336       1340       1344       1348       1352       1356       1360       1364       1368       1372       1376       1380       1384       1388       1392       1396       1400       1404       1408       1412       1416       1420       1424       1428       1432       1436       1440       1444       1448       1452       1456       1460       1464       1468       1472       1476       1480       1484       1488       1492       1496       1500       1504       1508       1512       1516       1520       1524       1528       1532       1536       1540       1544       1548       1552       1556       1560       1564       1568       1572       1576       1580       1584       1588       1592       1596       1600       1604       1608       1612       1616       1620       1624       1628       1632       1636       1640       1644       1648       1652       1656       1660       1664       1668       1672       1676       1680       1684       1688       1692       1696       1700       1704       1708       1712       1716       1720       1724       1728       1732       1736       1740       1744       1748       1752       1756       1760       1764       1768       1772       1776       1780       1784       1788       1792       1796       1800       1804       1808       1812       1816       1820       1824       1828       1832       1836       1840       1844       1848       1852       1856       1860       1864       1868       1872       1876       1880       1884       1888       1892       1896       1900       1904       1908       1912       1916       1920       1924       1928       1932       1936       1940       1944       1948       1952       1956       1960       1964       1968       1972       1976       1980       1984       1988       1992       1996       2000       2004       2008       2012       2016       2020       2024       2028       2032       2036       2040       2044       2048       2052       2056       2060       2064       2068       2072       2076       2080       2084       2088       2092       2096       2100       2104       2108       2112       2116       2120       2124       2128       2132       2136       2140       2144       2148       2152       2156       2160       2164       2168       2172       2176       2180       2184       2188       2192       2196       2200       2204       2208       2212       2216       2220       2224       2228       2232       2236       2240       2244       2248       2252       2256       2260       2264       2268       2272       2276       2280       2284       2288       2292       2296       2300       2304       2308       2312       2316       2320       2324       2328       2332       2336       2340       2344       2348       2352       2356       2360       2364       2368       2372       2376       2380       2384       2388       2392       2396       2400       2404       2408       2412       2416       2420       2424       2428       2432       2436       2440       2444       2448       2452       2456       2460       2464       2468       2472       2476       2480       2484       2488       2492       2496       2500       2504       2508       2512       2516       2520       2524       2528       2532       2536       2540       2544       2548       2552       2556       2560       2564       2568       2572       2576       2580       2584       2588       2592       2596       2600       2604       2608       2612       2616       2620       2624       2628       2632       2636       2640       2644       2648       2652       2656       2660       2664       2668       2672       2676       2680       2684       2688       2692       2696       2700       2704       2708       2712       2716       2720       2724       2728       2732       2736       2740       2744       2748       2752       2756       2760       2764       2768       2772       2776       2780       2784       2788       2792       2796       2800       2804       2808       2812       2816       2820       2824       2828       2832       2836       2840       2844       2848       2852       2856       2860       2864       2868       2872       2876       2880       2884       2888       2892       2896       2900       2904       2908       2912       2916       2920       2924       2928       2932       2936       2940       2944       2948       2952       2956       2960       2964       2968       2972       2976       2980       2984       2988       2992       2996       3000       3004       3008       3012       3016       3020       3024       3028       3032       3036       3040       3044       3048       3052       3056       3060       3064       3068       3072       3076       3080       3084       3088       3092       3096       3100       3104       3108       3112       3116       3120       3124       3128       3132       3136       3140       3144       3148       3152       3156       3160       3164       3168       3172       3176       3180       3184       3188       3192       3196       3200       3204       3208       3212       3216       3220       3224       3228       3232       3236       3240       3244       3248       3252       3256       3260       3264       3268       3272       3276       3280       3284       3288       3292       3296       3300       3304       3308       3312       3316       3320       3324       3328       3332       3336       3340       3344       3348       3352       3356       3360       3364       3368       3372       3376       3380       3384       3388       3392       3396       3400       3404       3408       3412       3416       3420       3424       3428       3432       3436       3440       3444       3448       3452       3456       3460       3464       3468       3472       3476       3480       3484       3488       3492       3496       3500       3504       3508       3512       3516       3520       3524       3528       3532       3536       3540       3544       3548       3552       3556       3560       3564       3568       3572       3576       3580       3584       3588       3592       3596       3600       3604       3608       3612       3616       3620       3624       3628       3632       3636       3640       3644       3648       3652       3656       3660       3664       3668       3672       3676       3680       3684       3688       3692       3696       3700       3704       3708       3712       3716       3720       3724       3728       3732       3736       3740       3744       3748       3752       3756       3760       3764       3768       3772       3776       3780       3784       3788       3792       3796       3800       3804       3808       3812       3816       3820       3824       3828       3832       3836       3840       3844       3848       3852       3856       3860       3864       3868       3872       3876       3880       3884       3888       3892       3896       3900       3904       3908       3912       3916       3920       3924       3928       3932       3936       3940       3944       3948       3952       3956       3960       3964       3968       3972       3976       3980       3984       3988       3992       3996       4000       4004       4008       4012       4016       4020       4024       4028       4032       4036       4040       4044       4048       4052       4056       4060       4064       4068       4072       4076       4080       4084       4088       4092       4096 </DataArray>
<DataArray type="UInt8"                                    Name="types"                                                      NumberOfComponents=" 1" format="ascii">
         9          9          9          9          9          9          9          9          9          9          9          9          9          9          9          9          9          9          9          9          9          9          9          9          9          9          9          9          9          9          9          9          9          9          9          9          9          9          9          9          9          9          9          9          9          9          9          9          9          9          9          9          9          9          9          9          9          9          9          9          9          9          9          9          9          9          9          9          9          9          9          9          9          9          9          9          9          9          9          9          9          9          9          9          9          9          9          9          9          9          9          9          9          9          9          9          9          9          9          9          9          9          9          9          9          9          9          9          9          9          9          9          9          9          9          9          9          9          9          9          9          9          9          9          9          9          9          9          9          9          9          9          9          9          9          9          9          9          9          9          9          9          9          9          9          9          9          9          9          9          9          9          9          9          9          9          9          9          9          9          9          9          9          9          9          9          9          9          9          9          9          9          9          9          9          9          9          9          9          9          9          9          9          9          9          9          9          9          9          9          9          9          9          9          9          9          9          9          9          9          9          9          9          9          9          9          9          9          9          9          9          9          9          9          9          9          9          9          9          9          9          9          9          9          9          9          9          9          9          9          9          9          9          9          9          9          9          9          9          9          9          9          9          9          9          9          9          9          9          9          9          9          9          9          9          9          9          9          9          9          9          9          9          9          9          9          9          9          9          9          9          9          9          9          9          9          9          9          9          9          9          9          9          9          9          9          9          9          9          9          9          9          9          9          9          9          9          9          9          9          9          9          9          9          9          9          9          9          9          9          9          9          9          9          9          9          9          9          9          9          9          9          9          9          9          9          9          9          9          9          9          9          9          9          9          9          9          9          9          9          9          9          9          9          9          9          9          9          9          9          9          9          9          9          9          9          9          9          9          9          9          9          9          9          9          9          9          9          9          9          9          9          9          9          9          9          9          9          9          9          9          9          9          9          9          9          9          9          9          9          9          9          9          9          9          9          9          9          9          9          9          9          9          9          9          9          9          9          9          9          9          9          9          9          9          9          9          9          9          9          9          9          9          9          9          9          9          9          9          9          9          9          9          9          9          9          9          9          9          9          9          9          9          9          9          9          9          9          9          9          9          9          9          9          9          9          9          9          9          9          9          9          9          9          9          9          9          9          9          9          9          9          9          9          9          9          9          9          9          9          9          9          9          9          9          9          9          9          9          9          9          9          9          9          9          9          9          9          9          9          9          9          9          9          9          9          9          9          9          9          9          9          9          9          9          9          9          9          9          9          9          9          9          9          9          9          9          9          9          9          9          9          9          9          9          9          9          9          9          9          9          9          9          9          9          9          9          9          9          9          9          9          9          9          9          9          9          9          9          9          9          9          9          9          9          9          9          9          9          9          9          9          9          9          9          9          9          9          9          9          9          9          9          9          9          9          9          9          9          9          9          9          9          9          9          9          9          9          9          9          9          9          9          9          9          9          9          9          9          9          9          9          9          9          9          9          9          9          9          9          9          9          9          9          9          9          9          9          9          9          9          9          9          9          9          9          9          9          9          9          9          9          9          9          9          9          9          9          9          9          9          9          9          9          9          9          9          9          9          9          9          9          9          9          9          9          9          9          9          9          9          9          9          9          9          9          9          9          9          9          9          9          9          9          9          9          9          9          9          9          9          9          9          9          9          9          9          9          9          9          9          9          9          9          9          9          9          9          9          9          9          9          9          9          9          9          9          9          9          9          9          9          9          9          9          9          9          9          9          9          9          9          9          9          9          9          9          9          9          9          9          9          9          9          9          9          9          9          9          9          9          9          9          9          9          9          9          9          9          9          9          9          9          9          9          9          9          9          9          9          9          9          9          9          9          9          9          9          9          9          9          9          9          9          9          9          9          9          9          9          9          9          9          9          9          9          9          9          9          9          9          9          9          9          9          9          9          9          9          9          9          9          9          9          9          9          9          9          9          9          9          9          9          9          9          9          9          9          9          9          9          9          9          9          9          9          9          9          9          9          9          9          9          9          9          9          9          9          9          9          9          9          9          9          9          9          9          9          9          9          9          9          9          9          9          9          9          9          9          9          9          9          9          9          9          9          9          9          9          9          9          9          9          9          9          9          9          9          9          9          9          9          9          9          9          9          9          9          9          9          9          9          9          9          9          9          9          9          9          9          9          9          9          9          9          9          9          9          9          9          9          9          9          9          9          9          9          9          9          9          9          9          9          9          9          9          9          9          9          9          9          9          9          9          9          9          9          9          9          9          9          9          9          9          9          9          9          9          9          9          9          9          9          9          9          9          9          9          9          9          9          9          9          9          9          9          9          9          9          9          9          9          9          9          9          9          9          9          9          9          9          9          9          9          9          9          9          9          9          9          9          9          9          9          9          9          9          9          9          9          9          9          9          9          9          9          9          9          9          9          9          9          9          9 </DataArray>
</Cells>
<CellData>
<DataArray type="Int32"                                    Name="material"                                                      NumberOfComponents=" 1" format="ascii">
         1          1          1          1          1          1          1          1          1          1          1          1          1          1          1          1          1          1          1          1          1          1          1          1          1          1          1          1          1          1          1          1          1          1          1          1          1          1          1          1          1          1          1          1          1          1          1          1          1          1          1          1          1          1          1          1          1          1          1          1          1          1          1          1          1          1          1          1          1          1          1          1          1          1          1          1          1          1          1          1          1          1          1          1          1          1          1          1          1          1          1          1          1          1          1          1          1          1          1          1          1          1          1          1          1          1          1          1          1          1          1          1          1          1          1          1          1          1          1          1          1          1          1          1          1          1          1          1          1          1          1          1          1          1          1          1          1          1          1          1          1          1          1          1          1          1          1          1          1          1          1          1          1          1          1          1          1          1          1          1          1          1          1          1          1          1          1          1          1          1          1          1          1          1          1          1          1          1          1          1          1          1          1          1          1          1          1          1          1          1          1          1          1          1          1          1          1          1          1          1          1          1          1          1          1          1          1          1          1          1          1          1          1          1          1          1          1          1          1          1          1          1          1          1          1          1          1          1          1          1          1          1          1          1          1          1          1          1          1          1          1          1          1          1          1          1          1          1          1          1          1          1          1          1          1          1          1          1          1          1          1          1          1          1          1          1          1          1          1          1          1          1          1          1          1          1          1          1          1          1          1          1          1          1          1          1          1          1          1          1          1          1          1          1          1          1          1          1          1          1          1          1          1          1          1          1          1          1          1          1          1          1          1          1          1          1          1          1          1          1          1          1          1          1          1          1          1          1          1          1          1          1          1          1          1          1          1          1          1          1          1          1          1          1          1          1          1          1          1          1          1          1          1          1          1          1          1          1          1          1          1          1          1          1          1          1          1          1          1          1          1          1          1          1          1          1          1          1          1          1          1          1          1          1          1          1          1          1          1          1          1          1          1          1          1          1          1          1          1          1          1          1          1          1          1          1          1          1          1          1          1          1          1          1          1          1          1          1          1          1          1          1          1          1          1          1          1          1          1          1          1          1          1          1          1          1          1          1          1          1          1          1          1          1          1          1          1          1          1          1          1          1          1          1          1          1          1          1          1          1          1          1          1          1          1          1          1          1          1          1          1          1          1          1          1          1          1          1          1          1          1          1          1          1          1          1          1          1          1          1          1          1          1          1          1          1          1          1          1          1          1          1          1          1          1          1          1          1          1          1          1          1          1          1          1          1          1          1          1          1          1          1          1          1          1          1          1          1          1          1          1          1          1          1          1          1          1          1          1          1          1          1          1          1          1          1          1          1          1          1          1          1          1          1          1          1          1          1          1          1          1          1          1          1          1          1          1          1          1          1          1          1          1          1          1          1          1          1          1          1          1          1          1          1          1          1          1          1          1          1          1          1          1          1          1          1          1          1          1          1          1          1          1          1          1          1          1          1          1          1          1          1          1          1          1          1          1          1          1          1          1          1          1          1          1          1          1          1          1          1          1          1          1          1          1          1          1          1          1          1          1          1          1          1          1          1          1          1          1          1          1          1          1          1          1          1          1          1          1          1          1          1          1          1          1          1          1          1          1          1          1          1          1          1          1          1          1          1          1          1          1          1          1          1          1          1          1          1          1          1          1          1          1          1          1          1          1          1          1          1          1          1          1          1          1          1          1          1          1          1          1          1          1          1          1          1          1          1          1          1          1          1          1          1          1          1          1          1          1          1          1          1          1          1          1          1          1          1          1          1          1          1          1          1          1          1          1          1          1          1          1          1          1          1          1          1          1          1          1          1          1          1          1          1          1          1          1          1          1          1          1          1          1          1          1          1          1          1          1          1          1          1          1          1          1          1          1          1          1          1          1          1          1          1          1          1          1          1          1          1          1          1          1          1          1          1          1          1          1          1          1          1          1          1          1          1          1          1          1          1          1          1          1          1          1          1          1          1          1          1          1          1          1          1          1          1          1          1          1          1          1          1          1          1          1          1          1          1          1          1          1          1          1          1          1          1          1          1          1          1          1          1          1          1          1          1          1          1          1          1          1          1          1          1          1          1          1          1          1          1          1          1          1          1          1          1          1          1          1          1          1          1          1          1          1          1          1          1          1          1          1          1          1          1          1          1          1          1          1          1          1          1          1          1          1          1          1          1          1          1          1          1          1          1          1          1          1          1          1          1          1          1          1          1          1          1          1          1          1          1          1          1          1          1          1          1          1          1          1          1          1          1          1          1          1          1          1          1          1          1          1          1          1          1          1          1          1          1          1          1          1          1          1          1          1          1          1          1          1          1          1          1          1          1          1          1          1          1          1          1          1          1          1          1          1          1          1          1          1          1          1          1          1          1          1          1          1          1          1          1          1          1          1          1          1          1          1          1          1          1          1          1          1          1 </DataArray>
</CellData>
<PointData>
<DataArray type="Float64"                                    Name="u"                                                      NumberOfComponents=" 3" format="ascii">
             -0.000157189               0.000000000               0.999999991              -0.000185816               0.000000000               0.999999991              -0.000199294               0.000000000               0.999999991              -0.000207042               0.000000000               0.999999991              -0.000212863               0.000000000               0.999999991              -0.000218439               0.000000000               0.999999991              -0.000224491              -0.000000000               0.999999991              -0.000231331               0.000000000               0.999999991              -0.000239089               0.000000000               0.999999991              -0.000247762               0.000000000               0.999999991              -0.000257461               0.000000000               0.999999991              -0.000268287               0.000000000               0.999999991              -0.000280207               0.000000000               0.999999991              -0.000293142               0.000000000               0.999999991              -0.000306977               0.000000000               0.999999991              -0.000321532               0.000000000               0.999999991              -0.000336511               0.000000000               0.999999991              -0.000156405               0.000071791               0.999999991              -0.000183571               0.000062134               0.999999991              -0.000196137               0.000058855               0.999999991              -0.000203349               0.000059078               0.999999991              -0.000208940               0.000061313               0.999999991              -0.000214442               0.000064914               0.999999991              -0.000220529               0.000069306               0.999999991              -0.000227468               0.000074189               0.999999991              -0.000235317               0.000079465               0.999999991              -0.000244129               0.000085118               0.999999991              -0.000253975               0.000091022               0.999999991              -0.000264882               0.000097070               0.999999991              -0.000276777               0.000103155               0.999999991              -0.000289549               0.000109152               0.999999991              -0.000303065               0.000114702               0.999999991              -0.000317190               0.000119438               0.999999991              -0.000331730               0.000122911               0.999999991              -0.000153987               0.000142813               0.999999991              -0.000176830               0.000123579               0.999999991              -0.000186912               0.000117466               0.999999991              -0.000192869               0.000118305               0.999999991              -0.000197914               0.000123071               0.999999991              -0.000203274               0.000130376               0.999999991              -0.000209408               0.000139303               0.999999991              -0.000216539               0.000149172               0.999999991              -0.000224691               0.000159750               0.999999991              -0.000233835               0.000170929               0.999999991              -0.000243992               0.000182542               0.999999991              -0.000255051               0.000194398               0.999999991              -0.000266916               0.000206226               0.999999991              -0.000279432               0.000217798               0.999999991              -0.000292381               0.000228596               0.999999991              -0.000305692               0.000238045               0.999999991              -0.000319231               0.000245601               0.999999991              -0.000149839               0.000212316               0.999999991              -0.000165810               0.000183820               0.999999991              -0.000172297               0.000175649               0.999999991              -0.000176635               0.000177688               0.999999991              -0.000181124               0.000185464               0.999999991              -0.000186590               0.000196721               0.999999991              -0.000193110               0.000210170               0.999999991              -0.000200742               0.000224979               0.999999991              -0.000209432               0.000240732               0.999999991              -0.000219096               0.000257404               0.999999991              -0.000229656               0.000274602               0.999999991              -0.000240933               0.000291911               0.999999991              -0.000252713               0.000309088               0.999999991              -0.000264804               0.000325792               0.999999991              -0.000277070               0.000341490               0.999999991              -0.000289403               0.000355748               0.999999991              -0.000301853               0.000368236               0.999999991              -0.000144047               0.000279514               0.999999991              -0.000151128               0.000242471               0.999999991              -0.000153637               0.000233123               0.999999991              -0.000156531               0.000237075               0.999999991              -0.000160942               0.000248195               0.999999991              -0.000167010               0.000263525               0.999999991              -0.000174381               0.000281363               0.999999991              -0.000182890               0.000300923               0.999999991              -0.000192401               0.000321828               0.999999991              -0.000202697               0.000343794               0.999999991              -0.000213667               0.000366235               0.999999991              -0.000225168               0.000388744               0.999999991              -0.000236860               0.000410908               0.999999991              -0.000248626               0.000432476               0.999999991              -0.000260361               0.000453053               0.999999991              -0.000272038               0.000472462               0.999999991              -0.000283827               0.000490754               0.999999991              -0.000136780               0.000343618               0.999999991              -0.000133692               0.000299237               0.999999991              -0.000132667               0.000289593               0.999999991              -0.000134857               0.000295912               0.999999991              -0.000139877               0.000310567               0.999999991              -0.000147040               0.000329943               0.999999991              -0.000155599               0.000352085               0.999999991              -0.000165203               0.000376408               0.999999991              -0.000175707               0.000402277               0.999999991              -0.000186876               0.000429111               0.999999991              -0.000198472               0.000456463               0.999999991              -0.000210232               0.000483721               0.999999991              -0.000221964               0.000510591               0.999999991              -0.000233575               0.000536916               0.999999991              -0.000244940               0.000562358               0.999999991              -0.000256156               0.000587027               0.999999991              -0.000267326               0.000610918               0.999999991              -0.000128185               0.000403976               0.999999991              -0.000114593               0.000353916               0.999999991              -0.000110907               0.000344802               0.999999991              -0.000113311               0.000353668               0.999999991              -0.000119611               0.000371896               0.999999991              -0.000128243               0.000395213               0.999999991              -0.000138220               0.000421648               0.999999991              -0.000149235               0.000450550               0.999999991              -0.000160984               0.000480982               0.999999991              -0.000173109               0.000512400               0.999999991              -0.000185299               0.000544285               0.999999991              -0.000197300               0.000576017               0.999999991              -0.000208995               0.000607304               0.999999991              -0.000220257               0.000638087               0.999999991              -0.000231160               0.000668208               0.999999991              -0.000241786               0.000697650               0.999999991              -0.000252087               0.000726341               0.999999991              -0.000118456               0.000460022               0.999999991              -0.000094803               0.000406415               0.999999991              -0.000089656               0.000398385               0.999999991              -0.000093259               0.000409798               0.999999991              -0.000101366               0.000431377               0.999999991              -0.000111846               0.000458542               0.999999991              -0.000123533               0.000489165               0.999999991              -0.000136023               0.000522325               0.999999991              -0.000148869               0.000557176               0.999999991              -0.000161722               0.000592964               0.999999991              -0.000174192               0.000629013               0.999999991              -0.000186093               0.000664884               0.999999991              -0.000197368               0.000700300               0.999999991              -0.000208072               0.000735216               0.999999991              -0.000218328               0.000769558               0.999999991              -0.000228144               0.000803263               0.999999991              -0.000237593               0.000836129               0.999999991              -0.000108042               0.000510905               0.999999991              -0.000074989               0.000456729               0.999999991              -0.000070197               0.000449801               0.999999991              -0.000075667               0.000463563               0.999999991              -0.000085966               0.000488294               0.999999991              -0.000098343               0.000519220               0.999999991              -0.000111586               0.000553921               0.999999991              -0.000125322               0.000591345               0.999999991              -0.000139026               0.000630423               0.999999991              -0.000152129               0.000670197               0.999999991              -0.000164448               0.000710106               0.999999991              -0.000175814               0.000749745               0.999999991              -0.000186420               0.000788933               0.999999991              -0.000196462               0.000827625               0.999999991              -0.000206246               0.000865762               0.999999991              -0.000215720               0.000903178               0.999999991              -0.000224970               0.000939893               0.999999991              -0.000097697               0.000558460               0.999999991              -0.000059484               0.000510194               0.999999991              -0.000052211               0.000499327               0.999999991              -0.000056180               0.000508015               0.999999991              -0.000065203               0.000527834               0.999999991              -0.000076425               0.000554474               0.999999991              -0.000088484               0.000585321               0.999999991              -0.000100860               0.000619132               0.999999991              -0.000113430               0.000655002               0.999999991              -0.000125526               0.000691945               0.999999991              -0.000136938               0.000729369               0.999999991              -0.000147339               0.000766909               0.999999991              -0.000156663               0.000804319               0.999999991              -0.000165245               0.000841505               0.999999991              -0.000173451               0.000878348               0.999999991              -0.000181624               0.000914879               0.999999991              -0.000189902               0.000950842               0.999999991              -0.000085942               0.000601348               0.999999991              -0.000045985               0.000561334               0.999999991              -0.000036365               0.000549434               0.999999991              -0.000038420               0.000554395               0.999999991              -0.000045689               0.000569986               0.999999991              -0.000055414               0.000592511               0.999999991              -0.000065991               0.000619743               0.999999991              -0.000076868               0.000650266               0.999999991              -0.000088111               0.000683020               0.999999991              -0.000099210               0.000717209               0.999999991              -0.000109660               0.000752112               0.999999991              -0.000119020               0.000787282               0.999999991              -0.000127180               0.000822596               0.999999991              -0.000134204               0.000857853               0.999999991              -0.000140421               0.000893105               0.999999991              -0.000146287               0.000928307               0.999999991              -0.000152191               0.000963463               0.999999991              -0.000073203               0.000638615               0.999999991              -0.000034565               0.000608685               0.999999991              -0.000023333               0.000598050               0.999999991              -0.000023382               0.000601045               0.999999991              -0.000028679               0.000613491               0.999999991              -0.000036463               0.000632634               0.999999991              -0.000045276               0.000656545               0.999999991              -0.000054608               0.000683966               0.999999991              -0.000064256               0.000713952               0.999999991              -0.000074036               0.000745651               0.999999991              -0.000083253               0.000778431               0.999999991              -0.000091449               0.000811701               0.999999991              -0.000098432               0.000845131               0.999999991              -0.000103921               0.000878597               0.999999991              -0.000108060               0.000912109               0.999999991              -0.000111132               0.000945747               0.999999991              -0.000113598               0.000979559               0.999999991              -0.000059644               0.000669772               0.999999991              -0.000025117               0.000650473               0.999999991              -0.000013433               0.000642884               0.999999991              -0.000011845               0.000645560               0.999999991              -0.000015101               0.000656237               0.999999991              -0.000020825               0.000672978               0.999999991              -0.000027728               0.000694267               0.999999991              -0.000035193               0.000719103               0.999999991              -0.000043081               0.000746726               0.999999991              -0.000051164               0.000776359               0.999999991              -0.000058895               0.000807403               0.999999991              -0.000065781               0.000839259               0.999999991              -0.000071502               0.000871424               0.999999991              -0.000075630               0.000903743               0.999999991              -0.000077832               0.000936114               0.999999991              -0.000078182               0.000968577               0.999999991              -0.000076734               0.001001179               0.999999991              -0.000045394               0.000694479               0.999999991              -0.000017291               0.000685078               0.999999991              -0.000006703               0.000681397               0.999999991              -0.000004202               0.000684975               0.999999991              -0.000005778               0.000695055               0.999999991              -0.000009600               0.000710409               0.999999991              -0.000014469               0.000730031               0.999999991              -0.000019953               0.000753016               0.999999991              -0.000025838               0.000778827               0.999999991              -0.000032013               0.000806818               0.999999991              -0.000038012               0.000836534               0.999999991              -0.000043405               0.000867472               0.999999991              -0.000047806               0.000899067               0.999999991              -0.000050708               0.000931033               0.999999991              -0.000051578               0.000963131               0.999999991              -0.000049993               0.000995289               0.999999991              -0.000045417               0.001027496               0.999999991              -0.000030590               0.000712473               0.999999991              -0.000010756               0.000710994               0.999999991              -0.000002746               0.000711115               0.999999991              -0.000000297               0.000716142               0.999999991              -0.000000791               0.000726323               0.999999991              -0.000002946               0.000741156               0.999999991              -0.000006017               0.000759856               0.999999991              -0.000009542               0.000781715               0.999999991              -0.000013467               0.000806315               0.999999991              -0.000017636               0.000833252               0.999999991              -0.000021677               0.000862122               0.999999991              -0.000025267               0.000892503               0.999999991              -0.000028186               0.000923962               0.999999991              -0.000030003               0.000956129               0.999999991              -0.000030197               0.000988741               0.999999991              -0.000028043               0.001021475               0.999999991              -0.000022786               0.001054055               0.999999991              -0.000015397               0.000723511               0.999999991              -0.000005134               0.000727127               0.999999991              -0.000000823               0.000729909               0.999999991               0.000000647               0.000736234               0.999999991               0.000000617               0.000746784               0.999999991              -0.000000320               0.000761408               0.999999991              -0.000001777               0.000779638               0.999999991              -0.000003528               0.000800996               0.999999991              -0.000005439               0.000825051               0.999999991              -0.000007525               0.000851425               0.999999991              -0.000009572               0.000879860               0.999999991              -0.000011319               0.000909909               0.999999991              -0.000012705               0.000941238               0.999999991              -0.000013539               0.000973552               0.999999991              -0.000013555               0.001006505               0.999999991              -0.000012287               0.001039835               0.999999991              -0.000009122               0.001073117               0.999999991               0.000000000               0.000727246               0.999999991               0.000000000               0.000732646               0.999999991               0.000000000               0.000736366               0.999999991              -0.000000000               0.000743187               0.999999991               0.000000000               0.000753984               0.999999991              -0.000000000               0.000768594               0.999999991              -0.000000000               0.000786667               0.999999991               0.000000000               0.000807847               0.999999991              -0.000000000               0.000831688               0.999999991              -0.000000000               0.000857907               0.999999991              -0.000000000               0.000886233               0.999999991              -0.000000000               0.000916202               0.999999991              -0.000000000               0.000947392               0.999999991               0.000000000               0.000979568               0.999999991               0.000000000               0.001012480               0.999999991               0.000000000               0.001045868               0.999999991              -0.000000000               0.001079407               0.999999991              -0.000157189               0.000000000               0.999999991              -0.000185816               0.000000000               0.999999991              -0.000199294               0.000000000               0.999999991              -0.000207042               0.000000000               0.999999991              -0.000212863               0.000000000               0.999999991              -0.000218439               0.000000000               0.999999991              -0.000224491              -0.000000000               0.999999991              -0.000231331               0.000000000               0.999999991              -0.000239089               0.000000000               0.999999991              -0.000247762               0.000000000               0.999999991              -0.000257461               0.000000000               0.999999991              -0.000268287               0.000000000               0.999999991              -0.000280207               0.000000000               0.999999991              -0.000293142               0.000000000               0.999999991              -0.000306977               0.000000000               0.999999991              -0.000321532               0.000000000               0.999999991              -0.000336511               0.000000000               0.999999991              -0.000156405              -0.000071791               0.999999991              -0.000183571              -0.000062134               0.999999991              -0.000196137              -0.000058855               0.999999991              -0.000203349              -0.000059078               0.999999991              -0.000208940              -0.000061313               0.999999991              -0.000214442              -0.000064914               0.999999991              -0.000220529              -0.000069306               0.999999991              -0.000227468              -0.000074189               0.999999991              -0.000235317              -0.000079465               0.999999991              -0.000244129              -0.000085118               0.999999991              -0.000253975              -0.000091022               0.999999991              -0.000264882              -0.000097070               0.999999991              -0.000276777              -0.000103155               0.999999991              -0.000289549              -0.000109152               0.999999991              -0.000303065              -0.000114702               0.999999991              -0.000317190              -0.000119438               0.999999991              -0.000331730              -0.000122911               0.999999991              -0.000153987              -0.000142813               0.999999991              -0.000176830              -0.000123579               0.999999991              -0.000186912              -0.000117466               0.999999991              -0.000192869              -0.000118305               0.999999991              -0.000197914              -0.000123071               0.999999991              -0.000203274              -0.000130376               0.999999991              -0.000209408              -0.000139303               0.999999991              -0.000216539              -0.000149172               0.999999991              -0.000224691              -0.000159750               0.999999991              -0.000233835              -0.000170929               0.999999991              -0.000243992              -0.000182542               0.999999991              -0.000255051              -0.000194398               0.999999991              -0.000266916              -0.000206226               0.999999991              -0.000279432              -0.000217798               0.999999991              -0.000292381              -0.000228596               0.999999991              -0.000305692              -0.000238045               0.999999991              -0.000319231              -0.000245601               0.999999991              -0.000149839              -0.000212316               0.999999991              -0.000165810              -0.000183820               0.999999991              -0.000172297              -0.000175649               0.999999991              -0.000176635              -0.000177688               0.999999991              -0.000181124              -0.000185464               0.999999991              -0.000186590              -0.000196721               0.999999991              -0.000193110              -0.000210170               0.999999991              -0.000200742              -0.000224979               0.999999991              -0.000209432              -0.000240732               0.999999991              -0.000219096              -0.000257404               0.999999991              -0.000229656              -0.000274602               0.999999991              -0.000240933              -0.000291911               0.999999991              -0.000252713              -0.000309088               0.999999991              -0.000264804              -0.000325792               0.999999991              -0.000277070              -0.000341490               0.999999991              -0.000289403              -0.000355748               0.999999991              -0.000301853              -0.000368236               0.999999991              -0.000144047              -0.000279514               0.999999991              -0.000151128              -0.000242471               0.999999991              -0.000153637              -0.000233123               0.999999991              -0.000156531              -0.000237075               0.999999991              -0.000160942              -0.000248195               0.999999991              -0.000167010              -0.000263525               0.999999991              -0.000174381              -0.000281363               0.999999991              -0.000182890              -0.000300923               0.999999991              -0.000192401              -0.000321828               0.999999991              -0.000202697              -0.000343794               0.999999991              -0.000213667              -0.000366235               0.999999991              -0.000225168              -0.000388744               0.999999991              -0.000236860              -0.000410908               0.999999991              -0.000248626              -0.000432476               0.999999991              -0.000260361              -0.000453053               0.999999991              -0.000272038              -0.000472462               0.999999991              -0.000283827              -0.000490754               0.999999991              -0.000136780              -0.000343618               0.999999991              -0.000133692              -0.000299237               0.999999991              -0.000132667              -0.000289593               0.999999991              -0.000134857              -0.000295912               0.999999991              -0.000139877              -0.000310567               0.999999991              -0.000147040              -0.000329943               0.999999991              -0.000155599              -0.000352085               0.999999991              -0.000165203              -0.000376408               0.999999991              -0.000175707              -0.000402277               0.999999991              -0.000186876              -0.000429111               0.999999991              -0.000198472              -0.000456463               0.999999991              -0.000210232              -0.000483721               0.999999991              -0.000221964              -0.000510591               0.999999991              -0.000233575              -0.000536916               0.999999991              -0.000244940              -0.000562358               0.999999991              -0.000256156              -0.000587027               0.999999991              -0.000267326              -0.000610918               0.999999991              -0.000128185              -0.000403976               0.999999991              -0.000114593              -0.000353916               0.999999991              -0.000110907              -0.000344802               0.999999991              -0.000113311              -0.000353668               0.999999991              -0.000119611              -0.000371896               0.999999991              -0.000128243              -0.000395213               0.999999991              -0.000138220              -0.000421648               0.999999991              -0.000149235              -0.000450550               0.999999991              -0.000160984              -0.000480982               0.999999991              -0.000173109              -0.000512400               0.999999991              -0.000185299              -0.000544285               0.999999991              -0.000197300              -0.000576017               0.999999991              -0.000208995              -0.000607304               0.999999991              -0.000220257              -0.000638087               0.999999991              -0.000231160              -0.000668208               0.999999991              -0.000241786              -0.000697650               0.999999991              -0.000252087              -0.000726341               0.999999991              -0.000118456              -0.000460022               0.999999991              -0.000094803              -0.000406415               0.999999991              -0.000089656              -0.000398385               0.999999991              -0.000093259              -0.000409798               0.999999991              -0.000101366              -0.000431377               0.999999991              -0.000111846              -0.000458542               0.999999991              -0.000123533              -0.000489165               0.999999991              -0.000136023              -0.000522325               0.999999991              -0.000148869              -0.000557176               0.999999991              -0.000161722              -0.000592964               0.999999991              -0.000174192              -0.000629013               0.999999991              -0.000186093              -0.000664884               0.999999991              -0.000197368              -0.000700300               0.999999991              -0.000208072              -0.000735216               0.999999991              -0.000218328              -0.000769558               0.999999991              -0.000228144              -0.000803263               0.999999991              -0.000237593              -0.000836129               0.999999991              -0.000108042              -0.000510905               0.999999991              -0.000074989              -0.000456729               0.999999991              -0.000070197              -0.000449801               0.999999991              -0.000075667              -0.000463563               0.999999991              -0.000085966              -0.000488294               0.999999991              -0.000098343              -0.000519220               0.999999991              -0.000111586              -0.000553921               0.999999991              -0.000125322              -0.000591345               0.999999991              -0.000139026              -0.000630423               0.999999991              -0.000152129              -0.000670197               0.999999991              -0.000164448              -0.000710106               0.999999991              -0.000175814              -0.000749745               0.999999991              -0.000186420              -0.000788933               0.999999991              -0.000196462              -0.000827625               0.999999991              -0.000206246              -0.000865762               0.999999991              -0.000215720              -0.000903178               0.999999991              -0.000224970              -0.000939893               0.999999991              -0.000097697              -0.000558460               0.999999991              -0.000059484              -0.000510194               0.999999991              -0.000052211              -0.000499327               0.999999991              -0.000056180              -0.000508015               0.999999991              -0.000065203              -0.000527834               0.999999991              -0.000076425              -0.000554474               0.999999991              -0.000088484              -0.000585321               0.999999991              -0.000100860              -0.000619132               0.999999991              -0.000113430              -0.000655002               0.999999991              -0.000125526              -0.000691945               0.999999991              -0.000136938              -0.000729369               0.999999991              -0.000147339              -0.000766909               0.999999991              -0.000156663              -0.000804319               0.999999991              -0.000165245              -0.000841505               0.999999991              -0.000173451              -0.000878348               0.999999991              -0.000181624              -0.000914879               0.999999991              -0.000189902              -0.000950842               0.999999991              -0.000085942              -0.000601348               0.999999991              -0.000045985              -0.000561334               0.999999991              -0.000036365              -0.000549434               0.999999991              -0.000038420              -0.000554395               0.999999991              -0.000045689              -0.000569986               0.999999991              -0.000055414              -0.000592511               0.999999991              -0.000065991              -0.000619743               0.999999991              -0.000076868              -0.000650266               0.999999991              -0.000088111              -0.000683020               0.999999991              -0.000099210              -0.000717209               0.999999991              -0.000109660              -0.000752112               0.999999991              -0.000119020              -0.000787282               0.999999991              -0.000127180              -0.000822596               0.999999991              -0.000134204              -0.000857853               0.999999991              -0.000140421              -0.000893105               0.999999991              -0.000146287              -0.000928307               0.999999991              -0.000152191              -0.000963463               0.999999991              -0.000073203              -0.000638615               0.999999991              -0.000034565              -0.000608685               0.999999991              -0.000023333              -0.000598050               0.999999991              -0.000023382              -0.000601045               0.999999991              -0.000028679              -0.000613491               0.999999991              -0.000036463              -0.000632634               0.999999991              -0.000045276              -0.000656545               0.999999991              -0.000054608              -0.000683966               0.999999991              -0.000064256              -0.000713952               0.999999991              -0.000074036              -0.000745651               0.999999991              -0.000083253              -0.000778431               0.999999991              -0.000091449              -0.000811701               0.999999991              -0.000098432              -0.000845131               0.999999991              -0.000103921              -0.000878597               0.999999991              -0.000108060              -0.000912109               0.999999991              -0.000111132              -0.000945747               0.999999991              -0.000113598              -0.000979559               0.999999991              -0.000059644              -0.000669772               0.999999991              -0.000025117              -0.000650473               0.999999991              -0.000013433              -0.000642884               0.999999991              -0.000011845              -0.000645560               0.999999991              -0.000015101              -0.000656237               0.999999991              -0.000020825              -0.000672978               0.999999991              -0.000027728              -0.000694267               0.999999991              -0.000035193              -0.000719103               0.999999991              -0.000043081              -0.000746726               0.999999991              -0.000051164              -0.000776359               0.999999991              -0.000058895              -0.000807403               0.999999991              -0.000065781              -0.000839259               0.999999991              -0.000071502              -0.000871424               0.999999991              -0.000075630              -0.000903743               0.999999991              -0.000077832              -0.000936114               0.999999991              -0.000078182              -0.000968577               0.999999991              -0.000076734              -0.001001179               0.999999991              -0.000045394              -0.000694479               0.999999991              -0.000017291              -0.000685078               0.999999991              -0.000006703              -0.000681397               0.999999991              -0.000004202              -0.000684975               0.999999991              -0.000005778              -0.000695055               0.999999991              -0.000009600              -0.000710409               0.999999991              -0.000014469              -0.000730031               0.999999991              -0.000019953              -0.000753016               0.999999991              -0.000025838              -0.000778827               0.999999991              -0.000032013              -0.000806818               0.999999991              -0.000038012              -0.000836534               0.999999991              -0.000043405              -0.000867472               0.999999991              -0.000047806              -0.000899067               0.999999991              -0.000050708              -0.000931033               0.999999991              -0.000051578              -0.000963131               0.999999991              -0.000049993              -0.000995289               0.999999991              -0.000045417              -0.001027496               0.999999991              -0.000030590              -0.000712473               0.999999991              -0.000010756              -0.000710994               0.999999991              -0.000002746              -0.000711115               0.999999991              -0.000000297              -0.000716142               0.999999991              -0.000000791              -0.000726323               0.999999991              -0.000002946              -0.000741156               0.999999991              -0.000006017              -0.000759856               0.999999991              -0.000009542              -0.000781715               0.999999991              -0.000013467              -0.000806315               0.999999991              -0.000017636              -0.000833252               0.999999991              -0.000021677              -0.000862122               0.999999991              -0.000025267              -0.000892503               0.999999991              -0.000028186              -0.000923962               0.999999991              -0.000030003              -0.000956129               0.999999991              -0.000030197              -0.000988741               0.999999991              -0.000028043              -0.001021475               0.999999991              -0.000022786              -0.001054055               0.999999991              -0.000015397              -0.000723511               0.999999991              -0.000005134              -0.000727127               0.999999991              -0.000000823              -0.000729909               0.999999991               0.000000647              -0.000736234               0.999999991               0.000000617              -0.000746784               0.999999991              -0.000000320              -0.000761408               0.999999991              -0.000001777              -0.000779638               0.999999991              -0.000003528              -0.000800996               0.999999991              -0.000005439              -0.000825051               0.999999991              -0.000007525              -0.000851425               0.999999991              -0.000009572              -0.000879860               0.999999991              -0.000011319              -0.000909909               0.999999991              -0.000012705              -0.000941238               0.999999991              -0.000013539              -0.000973552               0.999999991              -0.000013555              -0.001006505               0.999999991              -0.000012287              -0.001039835               0.999999991              -0.000009122              -0.001073117               0.999999991               0.000000000              -0.000727246               0.999999991               0.000000000              -0.000732646               0.999999991              -0.000000000              -0.000736366               0.999999991              -0.000000000              -0.000743187               0.999999991               0.000000000              -0.000753984               0.999999991              -0.000000000              -0.000768594               0.999999991               0.000000000              -0.000786667               0.999999991              -0.000000000              -0.000807847               0.999999991              -0.000000000              -0.000831688               0.999999991              -0.000000000              -0.000857907               0.999999991              -0.000000000              -0.000886233               0.999999991               0.000000000              -0.000916202               0.999999991               0.000000000              -0.000947392               0.999999991               0.000000000              -0.000979568               0.999999991               0.000000000              -0.001012480               0.999999991               0.000000000              -0.001045868               0.999999991               0.000000000              -0.001079407               0.999999991               0.000157189               0.000000000               0.999999991               0.000185816              -0.000000000               0.999999991               0.000199294               0.000000000               0.999999991               0.000207042               0.000000000               0.999999991               0.000212863               0.000000000               0.999999991               0.000218439              -0.000000000               0.999999991               0.000224491              -0.000000000               0.999999991               0.000231331               0.000000000               0.999999991               0.000239089              -0.000000000               0.999999991               0.000247762               0.000000000               0.999999991               0.000257461               0.000000000               0.999999991               0.000268287               0.000000000               0.999999991               0.000280207               0.000000000               0.999999991               0.000293142               0.000000000               0.999999991               0.000306977               0.000000000               0.999999991               0.000321532               0.000000000               0.999999991               0.000336511               0.000000000               0.999999991               0.000156405              -0.000071791               0.999999991               0.000183571              -0.000062134               0.999999991               0.000196137              -0.000058855               0.999999991               0.000203349              -0.000059078               0.999999991               0.000208940              -0.000061313               0.999999991               0.000214442              -0.000064914               0.999999991               0.000220529              -0.000069306               0.999999991               0.000227468              -0.000074189               0.999999991               0.000235317              -0.000079465               0.999999991               0.000244129              -0.000085118               0.999999991               0.000253975              -0.000091022               0.999999991               0.000264882              -0.000097070               0.999999991               0.000276777              -0.000103155               0.999999991               0.000289549              -0.000109152               0.999999991               0.000303065              -0.000114702               0.999999991               0.000317190              -0.000119438               0.999999991               0.000331730              -0.000122911               0.999999991               0.000153987              -0.000142813               0.999999991               0.000176830              -0.000123579               0.999999991               0.000186912              -0.000117466               0.999999991               0.000192869              -0.000118305               0.999999991               0.000197914              -0.000123071               0.999999991               0.000203274              -0.000130376               0.999999991               0.000209408              -0.000139303               0.999999991               0.000216539              -0.000149172               0.999999991               0.000224691              -0.000159750               0.999999991               0.000233835              -0.000170929               0.999999991               0.000243992              -0.000182542               0.999999991               0.000255051              -0.000194398               0.999999991               0.000266916              -0.000206226               0.999999991               0.000279432              -0.000217798               0.999999991               0.000292381              -0.000228596               0.999999991               0.000305692              -0.000238045               0.999999991               0.000319231              -0.000245601               0.999999991               0.000149839              -0.000212316               0.999999991               0.000165810              -0.000183820               0.999999991               0.000172297              -0.000175649               0.999999991               0.000176635              -0.000177688               0.999999991               0.000181124              -0.000185464               0.999999991               0.000186590              -0.000196721               0.999999991               0.000193110              -0.000210170               0.999999991               0.000200742              -0.000224979               0.999999991               0.000209432              -0.000240732               0.999999991               0.000219096              -0.000257404               0.999999991               0.000229656              -0.000274602               0.999999991               0.000240933              -0.000291911               0.999999991               0.000252713              -0.000309088               0.999999991               0.000264804              -0.000325792               0.999999991               0.000277070              -0.000341490               0.999999991               0.000289403              -0.000355748               0.999999991               0.000301853              -0.000368236               0.999999991               0.000144047              -0.000279514               0.999999991               0.000151128              -0.000242471               0.999999991               0.000153637              -0.000233123               0.999999991               0.000156531              -0.000237075               0.999999991               0.000160942              -0.000248195               0.999999991               0.000167010              -0.000263525               0.999999991               0.000174381              -0.000281363               0.999999991               0.000182890              -0.000300923               0.999999991               0.000192401              -0.000321828               0.999999991               0.000202697              -0.000343794               0.999999991               0.000213667              -0.000366235               0.999999991               0.000225168              -0.000388744               0.999999991               0.000236860              -0.000410908               0.999999991               0.000248626              -0.000432476               0.999999991               0.000260361              -0.000453053               0.999999991               0.000272038              -0.000472462               0.999999991               0.000283827              -0.000490754               0.999999991               0.000136780              -0.000343618               0.999999991               0.000133692              -0.000299237               0.999999991               0.000132667              -0.000289593               0.999999991               0.000134857              -0.000295912               0.999999991               0.000139877              -0.000310567               0.999999991               0.000147040              -0.000329943               0.999999991               0.000155599              -0.000352085               0.999999991               0.000165203              -0.000376408               0.999999991               0.000175707              -0.000402277               0.999999991               0.000186876              -0.000429111               0.999999991               0.000198472              -0.000456463               0.999999991               0.000210232              -0.000483721               0.999999991               0.000221964              -0.000510591               0.999999991               0.000233575              -0.000536916               0.999999991               0.000244940              -0.000562358               0.999999991               0.000256156              -0.000587027               0.999999991               0.000267326              -0.000610918               0.999999991               0.000128185              -0.000403976               0.999999991               0.000114593              -0.000353916               0.999999991               0.000110907              -0.000344802               0.999999991               0.000113311              -0.000353668               0.999999991               0.000119611              -0.000371896               0.999999991               0.000128243              -0.000395213               0.999999991               0.000138220              -0.000421648               0.999999991               0.000149235              -0.000450550               0.999999991               0.000160984              -0.000480982               0.999999991               0.000173109              -0.000512400               0.999999991               0.000185299              -0.000544285               0.999999991               0.000197300              -0.000576017               0.999999991               0.000208995              -0.000607304               0.999999991               0.000220257              -0.000638087               0.999999991               0.000231160              -0.000668208               0.999999991               0.000241786              -0.000697650               0.999999991               0.000252087              -0.000726341               0.999999991               0.000118456              -0.000460022               0.999999991               0.000094803              -0.000406415               0.999999991               0.000089656              -0.000398385               0.999999991               0.000093259              -0.000409798               0.999999991               0.000101366              -0.000431377               0.999999991               0.000111846              -0.000458542               0.999999991               0.000123533              -0.000489165               0.999999991               0.000136023              -0.000522325               0.999999991               0.000148869              -0.000557176               0.999999991               0.000161722              -0.000592964               0.999999991               0.000174192              -0.000629013               0.999999991               0.000186093              -0.000664884               0.999999991               0.000197368              -0.000700300               0.999999991               0.000208072              -0.000735216               0.999999991               0.000218328              -0.000769558               0.999999991               0.000228144              -0.000803263               0.999999991               0.000237593              -0.000836129               0.999999991               0.000108042              -0.000510905               0.999999991               0.000074989              -0.000456729               0.999999991               0.000070197              -0.000449801               0.999999991               0.000075667              -0.000463563               0.999999991               0.000085966              -0.000488294               0.999999991               0.000098343              -0.000519220               0.999999991               0.000111586              -0.000553921               0.999999991               0.000125322              -0.000591345               0.999999991               0.000139026              -0.000630423               0.999999991               0.000152129              -0.000670197               0.999999991               0.000164448              -0.000710106               0.999999991               0.000175814              -0.000749745               0.999999991               0.000186420              -0.000788933               0.999999991               0.000196462              -0.000827625               0.999999991               0.000206246              -0.000865762               0.999999991               0.000215720              -0.000903178               0.999999991               0.000224970              -0.000939893               0.999999991               0.000097697              -0.000558460               0.999999991               0.000059484              -0.000510194               0.999999991               0.000052211              -0.000499327               0.999999991               0.000056180              -0.000508015               0.999999991               0.000065203              -0.000527834               0.999999991               0.000076425              -0.000554474               0.999999991               0.000088484              -0.000585321               0.999999991               0.000100860              -0.000619132               0.999999991               0.000113430              -0.000655002               0.999999991               0.000125526              -0.000691945               0.999999991               0.000136938              -0.000729369               0.999999991               0.000147339              -0.000766909               0.999999991               0.000156663              -0.000804319               0.999999991               0.000165245              -0.000841505               0.999999991               0.000173451              -0.000878348               0.999999991               0.000181624              -0.000914879               0.999999991               0.000189902              -0.000950842               0.999999991               0.000085942              -0.000601348               0.999999991               0.000045985              -0.000561334               0.999999991               0.000036365              -0.000549434               0.999999991               0.000038420              -0.000554395               0.999999991               0.000045689              -0.000569986               0.999999991               0.000055414              -0.000592511               0.999999991               0.000065991              -0.000619743               0.999999991               0.000076868              -0.000650266               0.999999991               0.000088111              -0.000683020               0.999999991               0.000099210              -0.000717209               0.999999991               0.000109660              -0.000752112               0.999999991               0.000119020              -0.000787282               0.999999991               0.000127180              -0.000822596               0.999999991               0.000134204              -0.000857853               0.999999991               0.000140421              -0.000893105               0.999999991               0.000146287              -0.000928307               0.999999991               0.000152191              -0.000963463               0.999999991               0.000073203              -0.000638615               0.999999991               0.000034565              -0.000608685               0.999999991               0.000023333              -0.000598050               0.999999991               0.000023382              -0.000601045               0.999999991               0.000028679              -0.000613491               0.999999991               0.000036463              -0.000632634               0.999999991               0.000045276              -0.000656545               0.999999991               0.000054608              -0.000683966               0.999999991               0.000064256              -0.000713952               0.999999991               0.000074036              -0.000745651               0.999999991               0.000083253              -0.000778431               0.999999991               0.000091449              -0.000811701               0.999999991               0.000098432              -0.000845131               0.999999991               0.000103921              -0.000878597               0.999999991               0.000108060              -0.000912109               0.999999991               0.000111132              -0.000945747               0.999999991               0.000113598              -0.000979559               0.999999991               0.000059644              -0.000669772               0.999999991               0.000025117              -0.000650473               0.999999991               0.000013433              -0.000642884               0.999999991               0.000011845              -0.000645560               0.999999991               0.000015101              -0.000656237               0.999999991               0.000020825              -0.000672978               0.999999991               0.000027728              -0.000694267               0.999999991               0.000035193              -0.000719103               0.999999991               0.000043081              -0.000746726               0.999999991               0.000051164              -0.000776359               0.999999991               0.000058895              -0.000807403               0.999999991               0.000065781              -0.000839259               0.999999991               0.000071502              -0.000871424               0.999999991               0.000075630              -0.000903743               0.999999991               0.000077832              -0.000936114               0.999999991               0.000078182              -0.000968577               0.999999991               0.000076734              -0.001001179               0.999999991               0.000045394              -0.000694479               0.999999991               0.000017291              -0.000685078               0.999999991               0.000006703              -0.000681397               0.999999991               0.000004202              -0.000684975               0.999999991               0.000005778              -0.000695055               0.999999991               0.000009600              -0.000710409               0.999999991               0.000014469              -0.000730031               0.999999991               0.000019953              -0.000753016               0.999999991               0.000025838              -0.000778827               0.999999991               0.000032013              -0.000806818               0.999999991               0.000038012              -0.000836534               0.999999991               0.000043405              -0.000867472               0.999999991               0.000047806              -0.000899067               0.999999991               0.000050708              -0.000931033               0.999999991               0.000051578              -0.000963131               0.999999991               0.000049993              -0.000995289               0.999999991               0.000045417              -0.001027496               0.999999991               0.000030590              -0.000712473               0.999999991               0.000010756              -0.000710994               0.999999991               0.000002746              -0.000711115               0.999999991               0.000000297              -0.000716142               0.999999991               0.000000791              -0.000726323               0.999999991               0.000002946              -0.000741156               0.999999991               0.000006017              -0.000759856               0.999999991               0.000009542              -0.000781715               0.999999991               0.000013467              -0.000806315               0.999999991               0.000017636              -0.000833252               0.999999991               0.000021677              -0.000862122               0.999999991               0.000025267              -0.000892503               0.999999991               0.000028186              -0.000923962               0.999999991               0.000030003              -0.000956129               0.999999991               0.000030197              -0.000988741               0.999999991               0.000028043              -0.001021475               0.999999991               0.000022786              -0.001054055               0.999999991               0.000015397              -0.000723511               0.999999991               0.000005134              -0.000727127               0.999999991               0.000000823              -0.000729909               0.999999991              -0.000000647              -0.000736234               0.999999991              -0.000000617              -0.000746784               0.999999991               0.000000320              -0.000761408               0.999999991               0.000001777              -0.000779638               0.999999991               0.000003528              -0.000800996               0.999999991               0.000005439              -0.000825051               0.999999991               0.000007525              -0.000851425               0.999999991               0.000009572              -0.000879860               0.999999991               0.000011319              -0.000909909               0.999999991               0.000012705              -0.000941238               0.999999991               0.000013539              -0.000973552               0.999999991               0.000013555              -0.001006505               0.999999991               0.000012287              -0.001039835               0.999999991               0.000009122              -0.001073117               0.999999991               0.000000000              -0.000727246               0.999999991               0.000000000              -0.000732646               0.999999991              -0.000000000              -0.000736366               0.999999991              -0.000000000              -0.000743187               0.999999991               0.000000000              -0.000753984               0.999999991              -0.000000000              -0.000768594               0.999999991               0.000000000              -0.000786667               0.999999991              -0.000000000              -0.000807847               0.999999991              -0.000000000              -0.000831688               0.999999991              -0.000000000              -0.000857907               0.999999991              -0.000000000              -0.000886233               0.999999991               0.000000000              -0.000916202               0.999999991               0.000000000              -0.000947392               0.999999991               0.000000000              -0.000979568               0.999999991               0.000000000              -0.001012480               0.999999991               0.000000000              -0.001045868               0.999999991               0.000000000              -0.001079407               0.999999991               0.000157189               0.000000000               0.999999991               0.000185816              -0.000000000               0.999999991               0.000199294               0.000000000               0.999999991               0.000207042               0.000000000               0.999999991               0.000212863               0.000000000               0.999999991               0.000218439              -0.000000000               0.999999991               0.000224491              -0.000000000               0.999999991               0.000231331               0.000000000               0.999999991               0.000239089              -0.000000000               0.999999991               0.000247762               0.000000000               0.999999991               0.000257461               0.000000000               0.999999991               0.000268287               0.000000000               0.999999991               0.000280207               0.000000000               0.999999991               0.000293142               0.000000000               0.999999991               0.000306977               0.000000000               0.999999991               0.000321532               0.000000000               0.999999991               0.000336511               0.000000000               0.999999991               0.000156405               0.000071791               0.999999991               0.000183571               0.000062134               0.999999991               0.000196137               0.000058855               0.999999991               0.000203349               0.000059078               0.999999991               0.000208940               0.000061313               0.999999991               0.000214442               0.000064914               0.999999991               0.000220529               0.000069306               0.999999991               0.000227468               0.000074189               0.999999991               0.000235317               0.000079465               0.999999991               0.000244129               0.000085118               0.999999991               0.000253975               0.000091022               0.999999991               0.000264882               0.000097070               0.999999991               0.000276777               0.000103155               0.999999991               0.000289549               0.000109152               0.999999991               0.000303065               0.000114702               0.999999991               0.000317190               0.000119438               0.999999991               0.000331730               0.000122911               0.999999991               0.000153987               0.000142813               0.999999991               0.000176830               0.000123579               0.999999991               0.000186912               0.000117466               0.999999991               0.000192869               0.000118305               0.999999991               0.000197914               0.000123071               0.999999991               0.000203274               0.000130376               0.999999991               0.000209408               0.000139303               0.999999991               0.000216539               0.000149172               0.999999991               0.000224691               0.000159750               0.999999991               0.000233835               0.000170929               0.999999991               0.000243992               0.000182542               0.999999991               0.000255051               0.000194398               0.999999991               0.000266916               0.000206226               0.999999991               0.000279432               0.000217798               0.999999991               0.000292381               0.000228596               0.999999991               0.000305692               0.000238045               0.999999991               0.000319231               0.000245601               0.999999991               0.000149839               0.000212316               0.999999991               0.000165810               0.000183820               0.999999991               0.000172297               0.000175649               0.999999991               0.000176635               0.000177688               0.999999991               0.000181124               0.000185464               0.999999991               0.000186590               0.000196721               0.999999991               0.000193110               0.000210170               0.999999991               0.000200742               0.000224979               0.999999991               0.000209432               0.000240732               0.999999991               0.000219096               0.000257404               0.999999991               0.000229656               0.000274602               0.999999991               0.000240933               0.000291911               0.999999991               0.000252713               0.000309088               0.999999991               0.000264804               0.000325792               0.999999991               0.000277070               0.000341490               0.999999991               0.000289403               0.000355748               0.999999991               0.000301853               0.000368236               0.999999991               0.000144047               0.000279514               0.999999991               0.000151128               0.000242471               0.999999991               0.000153637               0.000233123               0.999999991               0.000156531               0.000237075               0.999999991               0.000160942               0.000248195               0.999999991               0.000167010               0.000263525               0.999999991               0.000174381               0.000281363               0.999999991               0.000182890               0.000300923               0.999999991               0.000192401               0.000321828               0.999999991               0.000202697               0.000343794               0.999999991               0.000213667               0.000366235               0.999999991               0.000225168               0.000388744               0.999999991               0.000236860               0.000410908               0.999999991               0.000248626               0.000432476               0.999999991               0.000260361               0.000453053               0.999999991               0.000272038               0.000472462               0.999999991               0.000283827               0.000490754               0.999999991               0.000136780               0.000343618               0.999999991               0.000133692               0.000299237               0.999999991               0.000132667               0.000289593               0.999999991               0.000134857               0.000295912               0.999999991               0.000139877               0.000310567               0.999999991               0.000147040               0.000329943               0.999999991               0.000155599               0.000352085               0.999999991               0.000165203               0.000376408               0.999999991               0.000175707               0.000402277               0.999999991               0.000186876               0.000429111               0.999999991               0.000198472               0.000456463               0.999999991               0.000210232               0.000483721               0.999999991               0.000221964               0.000510591               0.999999991               0.000233575               0.000536916               0.999999991               0.000244940               0.000562358               0.999999991               0.000256156               0.000587027               0.999999991               0.000267326               0.000610918               0.999999991               0.000128185               0.000403976               0.999999991               0.000114593               0.000353916               0.999999991               0.000110907               0.000344802               0.999999991               0.000113311               0.000353668               0.999999991               0.000119611               0.000371896               0.999999991               0.000128243               0.000395213               0.999999991               0.000138220               0.000421648               0.999999991               0.000149235               0.000450550               0.999999991               0.000160984               0.000480982               0.999999991               0.000173109               0.000512400               0.999999991               0.000185299               0.000544285               0.999999991               0.000197300               0.000576017               0.999999991               0.000208995               0.000607304               0.999999991               0.000220257               0.000638087               0.999999991               0.000231160               0.000668208               0.999999991               0.000241786               0.000697650               0.999999991               0.000252087               0.000726341               0.999999991               0.000118456               0.000460022               0.999999991               0.000094803               0.000406415               0.999999991               0.000089656               0.000398385               0.999999991               0.000093259               0.000409798               0.999999991               0.000101366               0.000431377               0.999999991               0.000111846               0.000458542               0.999999991               0.000123533               0.000489165               0.999999991               0.000136023               0.000522325               0.999999991               0.000148869               0.000557176               0.999999991               0.000161722               0.000592964               0.999999991               0.000174192               0.000629013               0.999999991               0.000186093               0.000664884               0.999999991               0.000197368               0.000700300               0.999999991               0.000208072               0.000735216               0.999999991               0.000218328               0.000769558               0.999999991               0.000228144               0.000803263               0.999999991               0.000237593               0.000836129               0.999999991               0.000108042               0.000510905               0.999999991               0.000074989               0.000456729               0.999999991               0.000070197               0.000449801               0.999999991               0.000075667               0.000463563               0.999999991               0.000085966               0.000488294               0.999999991               0.000098343               0.000519220               0.999999991               0.000111586               0.000553921               0.999999991               0.000125322               0.000591345               0.999999991               0.000139026               0.000630423               0.999999991               0.000152129               0.000670197               0.999999991               0.000164448               0.000710106               0.999999991               0.000175814               0.000749745               0.999999991               0.000186420               0.000788933               0.999999991               0.000196462               0.000827625               0.999999991               0.000206246               0.000865762               0.999999991               0.000215720               0.000903178               0.999999991               0.000224970               0.000939893               0.999999991               0.000097697               0.000558460               0.999999991               0.000059484               0.000510194               0.999999991               0.000052211               0.000499327               0.999999991               0.000056180               0.000508015               0.999999991               0.000065203               0.000527834               0.999999991               0.000076425               0.000554474               0.999999991               0.000088484               0.000585321               0.999999991               0.000100860               0.000619132               0.999999991               0.000113430               0.000655002               0.999999991               0.000125526               0.000691945               0.999999991               0.000136938               0.000729369               0.999999991               0.000147339               0.000766909               0.999999991               0.000156663               0.000804319               0.999999991               0.000165245               0.000841505               0.999999991               0.000173451               0.000878348               0.999999991               0.000181624               0.000914879               0.999999991               0.000189902               0.000950842               0.999999991               0.000085942               0.000601348               0.999999991               0.000045985               0.000561334               0.999999991               0.000036365               0.000549434               0.999999991               0.000038420               0.000554395               0.999999991               0.000045689               0.000569986               0.999999991               0.000055414               0.000592511               0.999999991               0.000065991               0.000619743               0.999999991               0.000076868               0.000650266               0.999999991               0.000088111               0.000683020               0.999999991               0.000099210               0.000717209               0.999999991               0.000109660               0.000752112               0.999999991               0.000119020               0.000787282               0.999999991               0.000127180               0.000822596               0.999999991               0.000134204               0.000857853               0.999999991               0.000140421               0.000893105               0.999999991               0.000146287               0.000928307               0.999999991               0.000152191               0.000963463               0.999999991               0.000073203               0.000638615               0.999999991               0.000034565               0.000608685               0.999999991               0.000023333               0.000598050               0.999999991               0.000023382               0.000601045               0.999999991               0.000028679               0.000613491               0.999999991               0.000036463               0.000632634               0.999999991               0.000045276               0.000656545               0.999999991               0.000054608               0.000683966               0.999999991               0.000064256               0.000713952               0.999999991               0.000074036               0.000745651               0.999999991               0.000083253               0.000778431               0.999999991               0.000091449               0.000811701               0.999999991               0.000098432               0.000845131               0.999999991               0.000103921               0.000878597               0.999999991               0.000108060               0.000912109               0.999999991               0.000111132               0.000945747               0.999999991               0.000113598               0.000979559               0.999999991               0.000059644               0.000669772               0.999999991               0.000025117               0.000650473               0.999999991               0.000013433               0.000642884               0.999999991               0.000011845               0.000645560               0.999999991               0.000015101               0.000656237               0.999999991               0.000020825               0.000672978               0.999999991               0.000027728               0.000694267               0.999999991               0.000035193               0.000719103               0.999999991               0.000043081               0.000746726               0.999999991               0.000051164               0.000776359               0.999999991               0.000058895               0.000807403               0.999999991               0.000065781               0.000839259               0.999999991               0.000071502               0.000871424               0.999999991               0.000075630               0.000903743               0.999999991               0.000077832               0.000936114               0.999999991               0.000078182               0.000968577               0.999999991               0.000076734               0.001001179               0.999999991               0.000045394               0.000694479               0.999999991               0.000017291               0.000685078               0.999999991               0.000006703               0.000681397               0.999999991               0.000004202               0.000684975               0.999999991               0.000005778               0.000695055               0.999999991               0.000009600               0.000710409               0.999999991               0.000014469               0.000730031               0.999999991               0.000019953               0.000753016               0.999999991               0.000025838               0.000778827               0.999999991               0.000032013               0.000806818               0.999999991               0.000038012               0.000836534               0.999999991               0.000043405               0.000867472               0.999999991               0.000047806               0.000899067               0.999999991               0.000050708               0.000931033               0.999999991               0.000051578               0.000963131               0.999999991               0.000049993               0.000995289               0.999999991               0.000045417               0.001027496               0.999999991               0.000030590               0.000712473               0.999999991               0.000010756               0.000710994               0.999999991               0.000002746               0.000711115               0.999999991               0.000000297               0.000716142               0.999999991               0.000000791               0.000726323               0.999999991               0.000002946               0.000741156               0.999999991               0.000006017               0.000759856               0.999999991               0.000009542               0.000781715               0.999999991               0.000013467               0.000806315               0.999999991               0.000017636               0.000833252               0.999999991               0.000021677               0.000862122               0.999999991               0.000025267               0.000892503               0.999999991               0.000028186               0.000923962               0.999999991               0.000030003               0.000956129               0.999999991               0.000030197               0.000988741               0.999999991               0.000028043               0.001021475               0.999999991               0.000022786               0.001054055               0.999999991               0.000015397               0.000723511               0.999999991               0.000005134               0.000727127               0.999999991               0.000000823               0.000729909               0.999999991              -0.000000647               0.000736234               0.999999991              -0.000000617               0.000746784               0.999999991               0.000000320               0.000761408               0.999999991               0.000001777               0.000779638               0.999999991               0.000003528               0.000800996               0.999999991               0.000005439               0.000825051               0.999999991               0.000007525               0.000851425               0.999999991               0.000009572               0.000879860               0.999999991               0.000011319               0.000909909               0.999999991               0.000012705               0.000941238               0.999999991               0.000013539               0.000973552               0.999999991               0.000013555               0.001006505               0.999999991               0.000012287               0.001039835               0.999999991               0.000009122               0.001073117               0.999999991               0.000000000               0.000727246               0.999999991               0.000000000               0.000732646               0.999999991               0.000000000               0.000736366               0.999999991              -0.000000000               0.000743187               0.999999991               0.000000000               0.000753984               0.999999991              -0.000000000               0.000768594               0.999999991              -0.000000000               0.000786667               0.999999991               0.000000000               0.000807847               0.999999991              -0.000000000               0.000831688               0.999999991              -0.000000000               0.000857907               0.999999991              -0.000000000               0.000886233               0.999999991              -0.000000000               0.000916202               0.999999991              -0.000000000               0.000947392               0.999999991               0.000000000               0.000979568               0.999999991               0.000000000               0.001012480               0.999999991               0.000000000               0.001045868               0.999999991              -0.000000000               0.001079407               0.999999991 </DataArray>
<DataArray type="Float64"                                    Name="defo"                                                      NumberOfComponents=" 3" format="ascii">
             -0.000157189               0.000000000               0.999999991              -0.000185816               0.000000000               0.999999991              -0.000199294               0.000000000               0.999999991              -0.000207042               0.000000000               0.999999991              -0.000212863               0.000000000               0.999999991              -0.000218439               0.000000000               0.999999991              -0.000224491              -0.000000000               0.999999991              -0.000231331               0.000000000               0.999999991              -0.000239089               0.000000000               0.999999991              -0.000247762               0.000000000               0.999999991              -0.000257461               0.000000000               0.999999991              -0.000268287               0.000000000               0.999999991              -0.000280207               0.000000000               0.999999991              -0.000293142               0.000000000               0.999999991              -0.000306977               0.000000000               0.999999991              -0.000321532               0.000000000               0.999999991              -0.000336511               0.000000000               0.999999991              -0.000156405               0.000071791               0.999999991              -0.000183571               0.000062134               0.999999991              -0.000196137               0.000058855               0.999999991              -0.000203349               0.000059078               0.999999991              -0.000208940               0.000061313               0.999999991              -0.000214442               0.000064914               0.999999991              -0.000220529               0.000069306               0.999999991              -0.000227468               0.000074189               0.999999991              -0.000235317               0.000079465               0.999999991              -0.000244129               0.000085118               0.999999991              -0.000253975               0.000091022               0.999999991              -0.000264882               0.000097070               0.999999991              -0.000276777               0.000103155               0.999999991              -0.000289549               0.000109152               0.999999991              -0.000303065               0.000114702               0.999999991              -0.000317190               0.000119438               0.999999991              -0.000331730               0.000122911               0.999999991              -0.000153987               0.000142813               0.999999991              -0.000176830               0.000123579               0.999999991              -0.000186912               0.000117466               0.999999991              -0.000192869               0.000118305               0.999999991              -0.000197914               0.000123071               0.999999991              -0.000203274               0.000130376               0.999999991              -0.000209408               0.000139303               0.999999991              -0.000216539               0.000149172               0.999999991              -0.000224691               0.000159750               0.999999991              -0.000233835               0.000170929               0.999999991              -0.000243992               0.000182542               0.999999991              -0.000255051               0.000194398               0.999999991              -0.000266916               0.000206226               0.999999991              -0.000279432               0.000217798               0.999999991              -0.000292381               0.000228596               0.999999991              -0.000305692               0.000238045               0.999999991              -0.000319231               0.000245601               0.999999991              -0.000149839               0.000212316               0.999999991              -0.000165810               0.000183820               0.999999991              -0.000172297               0.000175649               0.999999991              -0.000176635               0.000177688               0.999999991              -0.000181124               0.000185464               0.999999991              -0.000186590               0.000196721               0.999999991              -0.000193110               0.000210170               0.999999991              -0.000200742               0.000224979               0.999999991              -0.000209432               0.000240732               0.999999991              -0.000219096               0.000257404               0.999999991              -0.000229656               0.000274602               0.999999991              -0.000240933               0.000291911               0.999999991              -0.000252713               0.000309088               0.999999991              -0.000264804               0.000325792               0.999999991              -0.000277070               0.000341490               0.999999991              -0.000289403               0.000355748               0.999999991              -0.000301853               0.000368236               0.999999991              -0.000144047               0.000279514               0.999999991              -0.000151128               0.000242471               0.999999991              -0.000153637               0.000233123               0.999999991              -0.000156531               0.000237075               0.999999991              -0.000160942               0.000248195               0.999999991              -0.000167010               0.000263525               0.999999991              -0.000174381               0.000281363               0.999999991              -0.000182890               0.000300923               0.999999991              -0.000192401               0.000321828               0.999999991              -0.000202697               0.000343794               0.999999991              -0.000213667               0.000366235               0.999999991              -0.000225168               0.000388744               0.999999991              -0.000236860               0.000410908               0.999999991              -0.000248626               0.000432476               0.999999991              -0.000260361               0.000453053               0.999999991              -0.000272038               0.000472462               0.999999991              -0.000283827               0.000490754               0.999999991              -0.000136780               0.000343618               0.999999991              -0.000133692               0.000299237               0.999999991              -0.000132667               0.000289593               0.999999991              -0.000134857               0.000295912               0.999999991              -0.000139877               0.000310567               0.999999991              -0.000147040               0.000329943               0.999999991              -0.000155599               0.000352085               0.999999991              -0.000165203               0.000376408               0.999999991              -0.000175707               0.000402277               0.999999991              -0.000186876               0.000429111               0.999999991              -0.000198472               0.000456463               0.999999991              -0.000210232               0.000483721               0.999999991              -0.000221964               0.000510591               0.999999991              -0.000233575               0.000536916               0.999999991              -0.000244940               0.000562358               0.999999991              -0.000256156               0.000587027               0.999999991              -0.000267326               0.000610918               0.999999991              -0.000128185               0.000403976               0.999999991              -0.000114593               0.000353916               0.999999991              -0.000110907               0.000344802               0.999999991              -0.000113311               0.000353668               0.999999991              -0.000119611               0.000371896               0.999999991              -0.000128243               0.000395213               0.999999991              -0.000138220               0.000421648               0.999999991              -0.000149235               0.000450550               0.999999991              -0.000160984               0.000480982               0.999999991              -0.000173109               0.000512400               0.999999991              -0.000185299               0.000544285               0.999999991              -0.000197300               0.000576017               0.999999991              -0.000208995               0.000607304               0.999999991              -0.000220257               0.000638087               0.999999991              -0.000231160               0.000668208               0.999999991              -0.000241786               0.000697650               0.999999991              -0.000252087               0.000726341               0.999999991              -0.000118456               0.000460022               0.999999991              -0.000094803               0.000406415               0.999999991              -0.000089656               0.000398385               0.999999991              -0.000093259               0.000409798               0.999999991              -0.000101366               0.000431377               0.999999991              -0.000111846               0.000458542               0.999999991              -0.000123533               0.000489165               0.999999991              -0.000136023               0.000522325               0.999999991              -0.000148869               0.000557176               0.999999991              -0.000161722               0.000592964               0.999999991              -0.000174192               0.000629013               0.999999991              -0.000186093               0.000664884               0.999999991              -0.000197368               0.000700300               0.999999991              -0.000208072               0.000735216               0.999999991              -0.000218328               0.000769558               0.999999991              -0.000228144               0.000803263               0.999999991              -0.000237593               0.000836129               0.999999991              -0.000108042               0.000510905               0.999999991              -0.000074989               0.000456729               0.999999991              -0.000070197               0.000449801               0.999999991              -0.000075667               0.000463563               0.999999991              -0.000085966               0.000488294               0.999999991              -0.000098343               0.000519220               0.999999991              -0.000111586               0.000553921               0.999999991              -0.000125322               0.000591345               0.999999991              -0.000139026               0.000630423               0.999999991              -0.000152129               0.000670197               0.999999991              -0.000164448               0.000710106               0.999999991              -0.000175814               0.000749745               0.999999991              -0.000186420               0.000788933               0.999999991              -0.000196462               0.000827625               0.999999991              -0.000206246               0.000865762               0.999999991              -0.000215720               0.000903178               0.999999991              -0.000224970               0.000939893               0.999999991              -0.000097697               0.000558460               0.999999991              -0.000059484               0.000510194               0.999999991              -0.000052211               0.000499327               0.999999991              -0.000056180               0.000508015               0.999999991              -0.000065203               0.000527834               0.999999991              -0.000076425               0.000554474               0.999999991              -0.000088484               0.000585321               0.999999991              -0.000100860               0.000619132               0.999999991              -0.000113430               0.000655002               0.999999991              -0.000125526               0.000691945               0.999999991              -0.000136938               0.000729369               0.999999991              -0.000147339               0.000766909               0.999999991              -0.000156663               0.000804319               0.999999991              -0.000165245               0.000841505               0.999999991              -0.000173451               0.000878348               0.999999991              -0.000181624               0.000914879               0.999999991              -0.000189902               0.000950842               0.999999991              -0.000085942               0.000601348               0.999999991              -0.000045985               0.000561334               0.999999991              -0.000036365               0.000549434               0.999999991              -0.000038420               0.000554395               0.999999991              -0.000045689               0.000569986               0.999999991              -0.000055414               0.000592511               0.999999991              -0.000065991               0.000619743               0.999999991              -0.000076868               0.000650266               0.999999991              -0.000088111               0.000683020               0.999999991              -0.000099210               0.000717209               0.999999991              -0.000109660               0.000752112               0.999999991              -0.000119020               0.000787282               0.999999991              -0.000127180               0.000822596               0.999999991              -0.000134204               0.000857853               0.999999991              -0.000140421               0.000893105               0.999999991              -0.000146287               0.000928307               0.999999991              -0.000152191               0.000963463               0.999999991              -0.000073203               0.000638615               0.999999991              -0.000034565               0.000608685               0.999999991              -0.000023333               0.000598050               0.999999991              -0.000023382               0.000601045               0.999999991              -0.000028679               0.000613491               0.999999991              -0.000036463               0.000632634               0.999999991              -0.000045276               0.000656545               0.999999991              -0.000054608               0.000683966               0.999999991              -0.000064256               0.000713952               0.999999991              -0.000074036               0.000745651               0.999999991              -0.000083253               0.000778431               0.999999991              -0.000091449               0.000811701               0.999999991              -0.000098432               0.000845131               0.999999991              -0.000103921               0.000878597               0.999999991              -0.000108060               0.000912109               0.999999991              -0.000111132               0.000945747               0.999999991              -0.000113598               0.000979559               0.999999991              -0.000059644               0.000669772               0.999999991              -0.000025117               0.000650473               0.999999991              -0.000013433               0.000642884               0.999999991              -0.000011845               0.000645560               0.999999991              -0.000015101               0.000656237               0.999999991              -0.000020825               0.000672978               0.999999991              -0.000027728               0.000694267               0.999999991              -0.000035193               0.000719103               0.999999991              -0.000043081               0.000746726               0.999999991              -0.000051164               0.000776359               0.999999991              -0.000058895               0.000807403               0.999999991              -0.000065781               0.000839259               0.999999991              -0.000071502               0.000871424               0.999999991              -0.000075630               0.000903743               0.999999991              -0.000077832               0.000936114               0.999999991              -0.000078182               0.000968577               0.999999991              -0.000076734               0.001001179               0.999999991              -0.000045394               0.000694479               0.999999991              -0.000017291               0.000685078               0.999999991              -0.000006703               0.000681397               0.999999991              -0.000004202               0.000684975               0.999999991              -0.000005778               0.000695055               0.999999991              -0.000009600               0.000710409               0.999999991              -0.000014469               0.000730031               0.999999991              -0.000019953               0.000753016               0.999999991              -0.000025838               0.000778827               0.999999991              -0.000032013               0.000806818               0.999999991              -0.000038012               0.000836534               0.999999991              -0.000043405               0.000867472               0.999999991              -0.000047806               0.000899067               0.999999991              -0.000050708               0.000931033               0.999999991              -0.000051578               0.000963131               0.999999991              -0.000049993               0.000995289               0.999999991              -0.000045417               0.001027496               0.999999991              -0.000030590               0.000712473               0.999999991              -0.000010756               0.000710994               0.999999991              -0.000002746               0.000711115               0.999999991              -0.000000297               0.000716142               0.999999991              -0.000000791               0.000726323               0.999999991              -0.000002946               0.000741156               0.999999991              -0.000006017               0.000759856               0.999999991              -0.000009542               0.000781715               0.999999991              -0.000013467               0.000806315               0.999999991              -0.000017636               0.000833252               0.999999991              -0.000021677               0.000862122               0.999999991              -0.000025267               0.000892503               0.999999991              -0.000028186               0.000923962               0.999999991              -0.000030003               0.000956129               0.999999991              -0.000030197               0.000988741               0.999999991              -0.000028043               0.001021475               0.999999991              -0.000022786               0.001054055               0.999999991              -0.000015397               0.000723511               0.999999991              -0.000005134               0.000727127               0.999999991              -0.000000823               0.000729909               0.999999991               0.000000647               0.000736234               0.999999991               0.000000617               0.000746784               0.999999991              -0.000000320               0.000761408               0.999999991              -0.000001777               0.000779638               0.999999991              -0.000003528               0.000800996               0.999999991              -0.000005439               0.000825051               0.999999991              -0.000007525               0.000851425               0.999999991              -0.000009572               0.000879860               0.999999991              -0.000011319               0.000909909               0.999999991              -0.000012705               0.000941238               0.999999991              -0.000013539               0.000973552               0.999999991              -0.000013555               0.001006505               0.999999991              -0.000012287               0.001039835               0.999999991              -0.000009122               0.001073117               0.999999991               0.000000000               0.000727246               0.999999991               0.000000000               0.000732646               0.999999991               0.000000000               0.000736366               0.999999991              -0.000000000               0.000743187               0.999999991               0.000000000               0.000753984               0.999999991              -0.000000000               0.000768594               0.999999991              -0.000000000               0.000786667               0.999999991               0.000000000               0.000807847               0.999999991              -0.000000000               0.000831688               0.999999991              -0.000000000               0.000857907               0.999999991              -0.000000000               0.000886233               0.999999991              -0.000000000               0.000916202               0.999999991              -0.000000000               0.000947392               0.999999991               0.000000000               0.000979568               0.999999991               0.000000000               0.001012480               0.999999991               0.000000000               0.001045868               0.999999991              -0.000000000               0.001079407               0.999999991              -0.000157189               0.000000000               0.999999991              -0.000185816               0.000000000               0.999999991              -0.000199294               0.000000000               0.999999991              -0.000207042               0.000000000               0.999999991              -0.000212863               0.000000000               0.999999991              -0.000218439               0.000000000               0.999999991              -0.000224491              -0.000000000               0.999999991              -0.000231331               0.000000000               0.999999991              -0.000239089               0.000000000               0.999999991              -0.000247762               0.000000000               0.999999991              -0.000257461               0.000000000               0.999999991              -0.000268287               0.000000000               0.999999991              -0.000280207               0.000000000               0.999999991              -0.000293142               0.000000000               0.999999991              -0.000306977               0.000000000               0.999999991              -0.000321532               0.000000000               0.999999991              -0.000336511               0.000000000               0.999999991              -0.000156405              -0.000071791               0.999999991              -0.000183571              -0.000062134               0.999999991              -0.000196137              -0.000058855               0.999999991              -0.000203349              -0.000059078               0.999999991              -0.000208940              -0.000061313               0.999999991              -0.000214442              -0.000064914               0.999999991              -0.000220529              -0.000069306               0.999999991              -0.000227468              -0.000074189               0.999999991              -0.000235317              -0.000079465               0.999999991              -0.000244129              -0.000085118               0.999999991              -0.000253975              -0.000091022               0.999999991              -0.000264882              -0.000097070               0.999999991              -0.000276777              -0.000103155               0.999999991              -0.000289549              -0.000109152               0.999999991              -0.000303065              -0.000114702               0.999999991              -0.000317190              -0.000119438               0.999999991              -0.000331730              -0.000122911               0.999999991              -0.000153987              -0.000142813               0.999999991              -0.000176830              -0.000123579               0.999999991              -0.000186912              -0.000117466               0.999999991              -0.000192869              -0.000118305               0.999999991              -0.000197914              -0.000123071               0.999999991              -0.000203274              -0.000130376               0.999999991              -0.000209408              -0.000139303               0.999999991              -0.000216539              -0.000149172               0.999999991              -0.000224691              -0.000159750               0.999999991              -0.000233835              -0.000170929               0.999999991              -0.000243992              -0.000182542               0.999999991              -0.000255051              -0.000194398               0.999999991              -0.000266916              -0.000206226               0.999999991              -0.000279432              -0.000217798               0.999999991              -0.000292381              -0.000228596               0.999999991              -0.000305692              -0.000238045               0.999999991              -0.000319231              -0.000245601               0.999999991              -0.000149839              -0.000212316               0.999999991              -0.000165810              -0.000183820               0.999999991              -0.000172297              -0.000175649               0.999999991              -0.000176635              -0.000177688               0.999999991              -0.000181124              -0.000185464               0.999999991              -0.000186590              -0.000196721               0.999999991              -0.000193110              -0.000210170               0.999999991              -0.000200742              -0.000224979               0.999999991              -0.000209432              -0.000240732               0.999999991              -0.000219096              -0.000257404               0.999999991              -0.000229656              -0.000274602               0.999999991              -0.000240933              -0.000291911               0.999999991              -0.000252713              -0.000309088               0.999999991              -0.000264804              -0.000325792               0.999999991              -0.000277070              -0.000341490               0.999999991              -0.000289403              -0.000355748               0.999999991              -0.000301853              -0.000368236               0.999999991              -0.000144047              -0.000279514               0.999999991              -0.000151128              -0.000242471               0.999999991              -0.000153637              -0.000233123               0.999999991              -0.000156531              -0.000237075               0.999999991              -0.000160942              -0.000248195               0.999999991              -0.000167010              -0.000263525               0.999999991              -0.000174381              -0.000281363               0.999999991              -0.000182890              -0.000300923               0.999999991              -0.000192401              -0.000321828               0.999999991              -0.000202697              -0.000343794               0.999999991              -0.000213667              -0.000366235               0.999999991              -0.000225168              -0.000388744               0.999999991              -0.000236860              -0.000410908               0.999999991              -0.000248626              -0.000432476               0.999999991              -0.000260361              -0.000453053               0.999999991              -0.000272038              -0.000472462               0.999999991              -0.000283827              -0.000490754               0.999999991              -0.000136780              -0.000343618               0.999999991              -0.000133692              -0.000299237               0.999999991              -0.000132667              -0.000289593               0.999999991              -0.000134857              -0.000295912               0.999999991              -0.000139877              -0.000310567               0.999999991              -0.000147040              -0.000329943               0.999999991              -0.000155599              -0.000352085               0.999999991              -0.000165203              -0.000376408               0.999999991              -0.000175707              -0.000402277               0.999999991              -0.000186876              -0.000429111               0.999999991              -0.000198472              -0.000456463               0.999999991              -0.000210232              -0.000483721               0.999999991              -0.000221964              -0.000510591               0.999999991              -0.000233575              -0.000536916               0.999999991              -0.000244940              -0.000562358               0.999999991              -0.000256156              -0.000587027               0.999999991              -0.000267326              -0.000610918               0.999999991              -0.000128185              -0.000403976               0.999999991              -0.000114593              -0.000353916               0.999999991              -0.000110907              -0.000344802               0.999999991              -0.000113311              -0.000353668               0.999999991              -0.000119611              -0.000371896               0.999999991              -0.000128243              -0.000395213               0.999999991              -0.000138220              -0.000421648               0.999999991              -0.000149235              -0.000450550               0.999999991              -0.000160984              -0.000480982               0.999999991              -0.000173109              -0.000512400               0.999999991              -0.000185299              -0.000544285               0.999999991              -0.000197300              -0.000576017               0.999999991              -0.000208995              -0.000607304               0.999999991              -0.000220257              -0.000638087               0.999999991              -0.000231160              -0.000668208               0.999999991              -0.000241786              -0.000697650               0.999999991              -0.000252087              -0.000726341               0.999999991              -0.000118456              -0.000460022               0.999999991              -0.000094803              -0.000406415               0.999999991              -0.000089656              -0.000398385               0.999999991              -0.000093259              -0.000409798               0.999999991              -0.000101366              -0.000431377               0.999999991              -0.000111846              -0.000458542               0.999999991              -0.000123533              -0.000489165               0.999999991              -0.000136023              -0.000522325               0.999999991              -0.000148869              -0.000557176               0.999999991              -0.000161722              -0.000592964               0.999999991              -0.000174192              -0.000629013               0.999999991              -0.000186093              -0.000664884               0.999999991              -0.000197368              -0.000700300               0.999999991              -0.000208072              -0.000735216               0.999999991              -0.000218328              -0.000769558               0.999999991              -0.000228144              -0.000803263               0.999999991              -0.000237593              -0.000836129               0.999999991              -0.000108042              -0.000510905               0.999999991              -0.000074989              -0.000456729               0.999999991              -0.000070197              -0.000449801               0.999999991              -0.000075667              -0.000463563               0.999999991              -0.000085966              -0.000488294               0.999999991              -0.000098343              -0.000519220               0.999999991              -0.000111586              -0.000553921               0.999999991              -0.000125322              -0.000591345               0.999999991              -0.000139026              -0.000630423               0.999999991              -0.000152129              -0.000670197               0.999999991              -0.000164448              -0.000710106               0.999999991              -0.000175814              -0.000749745               0.999999991              -0.000186420              -0.000788933               0.999999991              -0.000196462              -0.000827625               0.999999991              -0.000206246              -0.000865762               0.999999991              -0.000215720              -0.000903178               0.999999991              -0.000224970              -0.000939893               0.999999991              -0.000097697              -0.000558460               0.999999991              -0.000059484              -0.000510194               0.999999991              -0.000052211              -0.000499327               0.999999991              -0.000056180              -0.000508015               0.999999991              -0.000065203              -0.000527834               0.999999991              -0.000076425              -0.000554474               0.999999991              -0.000088484              -0.000585321               0.999999991              -0.000100860              -0.000619132               0.999999991              -0.000113430              -0.000655002               0.999999991              -0.000125526              -0.000691945               0.999999991              -0.000136938              -0.000729369               0.999999991              -0.000147339              -0.000766909               0.999999991              -0.000156663              -0.000804319               0.999999991              -0.000165245              -0.000841505               0.999999991              -0.000173451              -0.000878348               0.999999991              -0.000181624              -0.000914879               0.999999991              -0.000189902              -0.000950842               0.999999991              -0.000085942              -0.000601348               0.999999991              -0.000045985              -0.000561334               0.999999991              -0.000036365              -0.000549434               0.999999991              -0.000038420              -0.000554395               0.999999991              -0.000045689              -0.000569986               0.999999991              -0.000055414              -0.000592511               0.999999991              -0.000065991              -0.000619743               0.999999991              -0.000076868              -0.000650266               0.999999991              -0.000088111              -0.000683020               0.999999991              -0.000099210              -0.000717209               0.999999991              -0.000109660              -0.000752112               0.999999991              -0.000119020              -0.000787282               0.999999991              -0.000127180              -0.000822596               0.999999991              -0.000134204              -0.000857853               0.999999991              -0.000140421              -0.000893105               0.999999991              -0.000146287              -0.000928307               0.999999991              -0.000152191              -0.000963463               0.999999991              -0.000073203              -0.000638615               0.999999991              -0.000034565              -0.000608685               0.999999991              -0.000023333              -0.000598050               0.999999991              -0.000023382              -0.000601045               0.999999991              -0.000028679              -0.000613491               0.999999991              -0.000036463              -0.000632634               0.999999991              -0.000045276              -0.000656545               0.999999991              -0.000054608              -0.000683966               0.999999991              -0.000064256              -0.000713952               0.999999991              -0.000074036              -0.000745651               0.999999991              -0.000083253              -0.000778431               0.999999991              -0.000091449              -0.000811701               0.999999991              -0.000098432              -0.000845131               0.999999991              -0.000103921              -0.000878597               0.999999991              -0.000108060              -0.000912109               0.999999991              -0.000111132              -0.000945747               0.999999991              -0.000113598              -0.000979559               0.999999991              -0.000059644              -0.000669772               0.999999991              -0.000025117              -0.000650473               0.999999991              -0.000013433              -0.000642884               0.999999991              -0.000011845              -0.000645560               0.999999991              -0.000015101              -0.000656237               0.999999991              -0.000020825              -0.000672978               0.999999991              -0.000027728              -0.000694267               0.999999991              -0.000035193              -0.000719103               0.999999991              -0.000043081              -0.000746726               0.999999991              -0.000051164              -0.000776359               0.999999991              -0.000058895              -0.000807403               0.999999991              -0.000065781              -0.000839259               0.999999991              -0.000071502              -0.000871424               0.999999991              -0.000075630              -0.000903743               0.999999991              -0.000077832              -0.000936114               0.999999991              -0.000078182              -0.000968577               0.999999991              -0.000076734              -0.001001179               0.999999991              -0.000045394              -0.000694479               0.999999991              -0.000017291              -0.000685078               0.999999991              -0.000006703              -0.000681397               0.999999991              -0.000004202              -0.000684975               0.999999991              -0.000005778              -0.000695055               0.999999991              -0.000009600              -0.000710409               0.999999991              -0.000014469              -0.000730031               0.999999991              -0.000019953              -0.000753016               0.999999991              -0.000025838              -0.000778827               0.999999991              -0.000032013              -0.000806818               0.999999991              -0.000038012              -0.000836534               0.999999991              -0.000043405              -0.000867472               0.999999991              -0.000047806              -0.000899067               0.999999991              -0.000050708              -0.000931033               0.999999991              -0.000051578              -0.000963131               0.999999991              -0.000049993              -0.000995289               0.999999991              -0.000045417              -0.001027496               0.999999991              -0.000030590              -0.000712473               0.999999991              -0.000010756              -0.000710994               0.999999991              -0.000002746              -0.000711115               0.999999991              -0.000000297              -0.000716142               0.999999991              -0.000000791              -0.000726323               0.999999991              -0.000002946              -0.000741156               0.999999991              -0.000006017              -0.000759856               0.999999991              -0.000009542              -0.000781715               0.999999991              -0.000013467              -0.000806315               0.999999991              -0.000017636              -0.000833252               0.999999991              -0.000021677              -0.000862122               0.999999991              -0.000025267              -0.000892503               0.999999991              -0.000028186              -0.000923962               0.999999991              -0.000030003              -0.000956129               0.999999991              -0.000030197              -0.000988741               0.999999991              -0.000028043              -0.001021475               0.999999991              -0.000022786              -0.001054055               0.999999991              -0.000015397              -0.000723511               0.999999991              -0.000005134              -0.000727127               0.999999991              -0.000000823              -0.000729909               0.999999991               0.000000647              -0.000736234               0.999999991               0.000000617              -0.000746784               0.999999991              -0.000000320              -0.000761408               0.999999991              -0.000001777              -0.000779638               0.999999991              -0.000003528              -0.000800996               0.999999991              -0.000005439              -0.000825051               0.999999991              -0.000007525              -0.000851425               0.999999991              -0.000009572              -0.000879860               0.999999991              -0.000011319              -0.000909909               0.999999991              -0.000012705              -0.000941238               0.999999991              -0.000013539              -0.000973552               0.999999991              -0.000013555              -0.001006505               0.999999991              -0.000012287              -0.001039835               0.999999991              -0.000009122              -0.001073117               0.999999991               0.000000000              -0.000727246               0.999999991               0.000000000              -0.000732646               0.999999991              -0.000000000              -0.000736366               0.999999991              -0.000000000              -0.000743187               0.999999991               0.000000000              -0.000753984               0.999999991              -0.000000000              -0.000768594               0.999999991               0.000000000              -0.000786667               0.999999991              -0.000000000              -0.000807847               0.999999991              -0.000000000              -0.000831688               0.999999991              -0.000000000              -0.000857907               0.999999991              -0.000000000              -0.000886233               0.999999991               0.000000000              -0.000916202               0.999999991               0.000000000              -0.000947392               0.999999991               0.000000000              -0.000979568               0.999999991               0.000000000              -0.001012480               0.999999991               0.000000000              -0.001045868               0.999999991               0.000000000              -0.001079407               0.999999991               0.000157189               0.000000000               0.999999991               0.000185816              -0.000000000               0.999999991               0.000199294               0.000000000               0.999999991               0.000207042               0.000000000               0.999999991               0.000212863               0.000000000               0.999999991               0.000218439              -0.000000000               0.999999991               0.000224491              -0.000000000               0.999999991               0.000231331               0.000000000               0.999999991               0.000239089              -0.000000000               0.999999991               0.000247762               0.000000000               0.999999991               0.000257461               0.000000000               0.999999991               0.000268287               0.000000000               0.999999991               0.000280207               0.000000000               0.999999991               0.000293142               0.000000000               0.999999991               0.000306977               0.000000000               0.999999991               0.000321532               0.000000000               0.999999991               0.000336511               0.000000000               0.999999991               0.000156405              -0.000071791               0.999999991               0.000183571              -0.000062134               0.999999991               0.000196137              -0.000058855               0.999999991               0.000203349              -0.000059078               0.999999991               0.000208940              -0.000061313               0.999999991               0.000214442              -0.000064914               0.999999991               0.000220529              -0.000069306               0.999999991               0.000227468              -0.000074189               0.999999991               0.000235317              -0.000079465               0.999999991               0.000244129              -0.000085118               0.999999991               0.000253975              -0.000091022               0.999999991               0.000264882              -0.000097070               0.999999991               0.000276777              -0.000103155               0.999999991               0.000289549              -0.000109152               0.999999991               0.000303065              -0.000114702               0.999999991               0.000317190              -0.000119438               0.999999991               0.000331730              -0.000122911               0.999999991               0.000153987              -0.000142813               0.999999991               0.000176830              -0.000123579               0.999999991               0.000186912              -0.000117466               0.999999991               0.000192869              -0.000118305               0.999999991               0.000197914              -0.000123071               0.999999991               0.000203274              -0.000130376               0.999999991               0.000209408              -0.000139303               0.999999991               0.000216539              -0.000149172               0.999999991               0.000224691              -0.000159750               0.999999991               0.000233835              -0.000170929               0.999999991               0.000243992              -0.000182542               0.999999991               0.000255051              -0.000194398               0.999999991               0.000266916              -0.000206226               0.999999991               0.000279432              -0.000217798               0.999999991               0.000292381              -0.000228596               0.999999991               0.000305692              -0.000238045               0.999999991               0.000319231              -0.000245601               0.999999991               0.000149839              -0.000212316               0.999999991               0.000165810              -0.000183820               0.999999991               0.000172297              -0.000175649               0.999999991               0.000176635              -0.000177688               0.999999991               0.000181124              -0.000185464               0.999999991               0.000186590              -0.000196721               0.999999991               0.000193110              -0.000210170               0.999999991               0.000200742              -0.000224979               0.999999991               0.000209432              -0.000240732               0.999999991               0.000219096              -0.000257404               0.999999991               0.000229656              -0.000274602               0.999999991               0.000240933              -0.000291911               0.999999991               0.000252713              -0.000309088               0.999999991               0.000264804              -0.000325792               0.999999991               0.000277070              -0.000341490               0.999999991               0.000289403              -0.000355748               0.999999991               0.000301853              -0.000368236               0.999999991               0.000144047              -0.000279514               0.999999991               0.000151128              -0.000242471               0.999999991               0.000153637              -0.000233123               0.999999991               0.000156531              -0.000237075               0.999999991               0.000160942              -0.000248195               0.999999991               0.000167010              -0.000263525               0.999999991               0.000174381              -0.000281363               0.999999991               0.000182890              -0.000300923               0.999999991               0.000192401              -0.000321828               0.999999991               0.000202697              -0.000343794               0.999999991               0.000213667              -0.000366235               0.999999991               0.000225168              -0.000388744               0.999999991               0.000236860              -0.000410908               0.999999991               0.000248626              -0.000432476               0.999999991               0.000260361              -0.000453053               0.999999991               0.000272038              -0.000472462               0.999999991               0.000283827              -0.000490754               0.999999991               0.000136780              -0.000343618               0.999999991               0.000133692              -0.000299237               0.999999991               0.000132667              -0.000289593               0.999999991               0.000134857              -0.000295912               0.999999991               0.000139877              -0.000310567               0.999999991               0.000147040              -0.000329943               0.999999991               0.000155599              -0.000352085               0.999999991               0.000165203              -0.000376408               0.999999991               0.000175707              -0.000402277               0.999999991               0.000186876              -0.000429111               0.999999991               0.000198472              -0.000456463               0.999999991               0.000210232              -0.000483721               0.999999991               0.000221964              -0.000510591               0.999999991               0.000233575              -0.000536916               0.999999991               0.000244940              -0.000562358               0.999999991               0.000256156              -0.000587027               0.999999991               0.000267326              -0.000610918               0.999999991               0.000128185              -0.000403976               0.999999991               0.000114593              -0.000353916               0.999999991               0.000110907              -0.000344802               0.999999991               0.000113311              -0.000353668               0.999999991               0.000119611              -0.000371896               0.999999991               0.000128243              -0.000395213               0.999999991               0.000138220              -0.000421648               0.999999991               0.000149235              -0.000450550               0.999999991               0.000160984              -0.000480982               0.999999991               0.000173109              -0.000512400               0.999999991               0.000185299              -0.000544285               0.999999991               0.000197300              -0.000576017               0.999999991               0.000208995              -0.000607304               0.999999991               0.000220257              -0.000638087               0.999999991               0.000231160              -0.000668208               0.999999991               0.000241786              -0.000697650               0.999999991               0.000252087              -0.000726341               0.999999991               0.000118456              -0.000460022               0.999999991               0.000094803              -0.000406415               0.999999991               0.000089656              -0.000398385               0.999999991               0.000093259              -0.000409798               0.999999991               0.000101366              -0.000431377               0.999999991               0.000111846              -0.000458542               0.999999991               0.000123533              -0.000489165               0.999999991               0.000136023              -0.000522325               0.999999991               0.000148869              -0.000557176               0.999999991               0.000161722              -0.000592964               0.999999991               0.000174192              -0.000629013               0.999999991               0.000186093              -0.000664884               0.999999991               0.000197368              -0.000700300               0.999999991               0.000208072              -0.000735216               0.999999991               0.000218328              -0.000769558               0.999999991               0.000228144              -0.000803263               0.999999991               0.000237593              -0.000836129               0.999999991               0.000108042              -0.000510905               0.999999991               0.000074989              -0.000456729               0.999999991               0.000070197              -0.000449801               0.999999991               0.000075667              -0.000463563               0.999999991               0.000085966              -0.000488294               0.999999991               0.000098343              -0.000519220               0.999999991               0.000111586              -0.000553921               0.999999991               0.000125322              -0.000591345               0.999999991               0.000139026              -0.000630423               0.999999991               0.000152129              -0.000670197               0.999999991               0.000164448              -0.000710106               0.999999991               0.000175814              -0.000749745               0.999999991               0.000186420              -0.000788933               0.999999991               0.000196462              -0.000827625               0.999999991               0.000206246              -0.000865762               0.999999991               0.000215720              -0.000903178               0.999999991               0.000224970              -0.000939893               0.999999991               0.000097697              -0.000558460               0.999999991               0.000059484              -0.000510194               0.999999991               0.000052211              -0.000499327               0.999999991               0.000056180              -0.000508015               0.999999991               0.000065203              -0.000527834               0.999999991               0.000076425              -0.000554474               0.999999991               0.000088484              -0.000585321               0.999999991               0.000100860              -0.000619132               0.999999991               0.000113430              -0.000655002               0.999999991               0.000125526              -0.000691945               0.999999991               0.000136938              -0.000729369               0.999999991               0.000147339              -0.000766909               0.999999991               0.000156663              -0.000804319               0.999999991               0.000165245              -0.000841505               0.999999991               0.000173451              -0.000878348               0.999999991               0.000181624              -0.000914879               0.999999991               0.000189902              -0.000950842               0.999999991               0.000085942              -0.000601348               0.999999991               0.000045985              -0.000561334               0.999999991               0.000036365              -0.000549434               0.999999991               0.000038420              -0.000554395               0.999999991               0.000045689              -0.000569986               0.999999991               0.000055414              -0.000592511               0.999999991               0.000065991              -0.000619743               0.999999991               0.000076868              -0.000650266               0.999999991               0.000088111              -0.000683020               0.999999991               0.000099210              -0.000717209               0.999999991               0.000109660              -0.000752112               0.999999991               0.000119020              -0.000787282               0.999999991               0.000127180              -0.000822596               0.999999991               0.000134204              -0.000857853               0.999999991               0.000140421              -0.000893105               0.999999991               0.000146287              -0.000928307               0.999999991               0.000152191              -0.000963463               0.999999991               0.000073203              -0.000638615               0.999999991               0.000034565              -0.000608685               0.999999991               0.000023333              -0.000598050               0.999999991               0.000023382              -0.000601045               0.999999991               0.000028679              -0.000613491               0.999999991               0.000036463              -0.000632634               0.999999991               0.000045276              -0.000656545               0.999999991               0.000054608              -0.000683966               0.999999991               0.000064256              -0.000713952               0.999999991               0.000074036              -0.000745651               0.999999991               0.000083253              -0.000778431               0.999999991               0.000091449              -0.000811701               0.999999991               0.000098432              -0.000845131               0.999999991               0.000103921              -0.000878597               0.999999991               0.000108060              -0.000912109               0.999999991               0.000111132              -0.000945747               0.999999991               0.000113598              -0.000979559               0.999999991               0.000059644              -0.000669772               0.999999991               0.000025117              -0.000650473               0.999999991               0.000013433              -0.000642884               0.999999991               0.000011845              -0.000645560               0.999999991               0.000015101              -0.000656237               0.999999991               0.000020825              -0.000672978               0.999999991               0.000027728              -0.000694267               0.999999991               0.000035193              -0.000719103               0.999999991               0.000043081              -0.000746726               0.999999991               0.000051164              -0.000776359               0.999999991               0.000058895              -0.000807403               0.999999991               0.000065781              -0.000839259               0.999999991               0.000071502              -0.000871424               0.999999991               0.000075630              -0.000903743               0.999999991               0.000077832              -0.000936114               0.999999991               0.000078182              -0.000968577               0.999999991               0.000076734              -0.001001179               0.999999991               0.000045394              -0.000694479               0.999999991               0.000017291              -0.000685078               0.999999991               0.000006703              -0.000681397               0.999999991               0.000004202              -0.000684975               0.999999991               0.000005778              -0.000695055               0.999999991               0.000009600              -0.000710409               0.999999991               0.000014469              -0.000730031               0.999999991               0.000019953              -0.000753016               0.999999991               0.000025838              -0.000778827               0.999999991               0.000032013              -0.000806818               0.999999991               0.000038012              -0.000836534               0.999999991               0.000043405              -0.000867472               0.999999991               0.000047806              -0.000899067               0.999999991               0.000050708              -0.000931033               0.999999991               0.000051578              -0.000963131               0.999999991               0.000049993              -0.000995289               0.999999991               0.000045417              -0.001027496               0.999999991               0.000030590              -0.000712473               0.999999991               0.000010756              -0.000710994               0.999999991               0.000002746              -0.000711115               0.999999991               0.000000297              -0.000716142               0.999999991               0.000000791              -0.000726323               0.999999991               0.000002946              -0.000741156               0.999999991               0.000006017              -0.000759856               0.999999991               0.000009542              -0.000781715               0.999999991               0.000013467              -0.000806315               0.999999991               0.000017636              -0.000833252               0.999999991               0.000021677              -0.000862122               0.999999991               0.000025267              -0.000892503               0.999999991               0.000028186              -0.000923962               0.999999991               0.000030003              -0.000956129               0.999999991               0.000030197              -0.000988741               0.999999991               0.000028043              -0.001021475               0.999999991               0.000022786              -0.001054055               0.999999991               0.000015397              -0.000723511               0.999999991               0.000005134              -0.000727127               0.999999991               0.000000823              -0.000729909               0.999999991              -0.000000647              -0.000736234               0.999999991              -0.000000617              -0.000746784               0.999999991               0.000000320              -0.000761408               0.999999991               0.000001777              -0.000779638               0.999999991               0.000003528              -0.000800996               0.999999991               0.000005439              -0.000825051               0.999999991               0.000007525              -0.000851425               0.999999991               0.000009572              -0.000879860               0.999999991               0.000011319              -0.000909909               0.999999991               0.000012705              -0.000941238               0.999999991               0.000013539              -0.000973552               0.999999991               0.000013555              -0.001006505               0.999999991               0.000012287              -0.001039835               0.999999991               0.000009122              -0.001073117               0.999999991               0.000000000              -0.000727246               0.999999991               0.000000000              -0.000732646               0.999999991              -0.000000000              -0.000736366               0.999999991              -0.000000000              -0.000743187               0.999999991               0.000000000              -0.000753984               0.999999991              -0.000000000              -0.000768594               0.999999991               0.000000000              -0.000786667               0.999999991              -0.000000000              -0.000807847               0.999999991              -0.000000000              -0.000831688               0.999999991              -0.000000000              -0.000857907               0.999999991              -0.000000000              -0.000886233               0.999999991               0.000000000              -0.000916202               0.999999991               0.000000000              -0.000947392               0.999999991               0.000000000              -0.000979568               0.999999991               0.000000000              -0.001012480               0.999999991               0.000000000              -0.001045868               0.999999991               0.000000000              -0.001079407               0.999999991               0.000157189               0.000000000               0.999999991               0.000185816              -0.000000000               0.999999991               0.000199294               0.000000000               0.999999991               0.000207042               0.000000000               0.999999991               0.000212863               0.000000000               0.999999991               0.000218439              -0.000000000               0.999999991               0.000224491              -0.000000000               0.999999991               0.000231331               0.000000000               0.999999991               0.000239089              -0.000000000               0.999999991               0.000247762               0.000000000               0.999999991               0.000257461               0.000000000               0.999999991               0.000268287               0.000000000               0.999999991               0.000280207               0.000000000               0.999999991               0.000293142               0.000000000               0.999999991               0.000306977               0.000000000               0.999999991               0.000321532               0.000000000               0.999999991               0.000336511               0.000000000               0.999999991               0.000156405               0.000071791               0.999999991               0.000183571               0.000062134               0.999999991               0.000196137               0.000058855               0.999999991               0.000203349               0.000059078               0.999999991               0.000208940               0.000061313               0.999999991               0.000214442               0.000064914               0.999999991               0.000220529               0.000069306               0.999999991               0.000227468               0.000074189               0.999999991               0.000235317               0.000079465               0.999999991               0.000244129               0.000085118               0.999999991               0.000253975               0.000091022               0.999999991               0.000264882               0.000097070               0.999999991               0.000276777               0.000103155               0.999999991               0.000289549               0.000109152               0.999999991               0.000303065               0.000114702               0.999999991               0.000317190               0.000119438               0.999999991               0.000331730               0.000122911               0.999999991               0.000153987               0.000142813               0.999999991               0.000176830               0.000123579               0.999999991               0.000186912               0.000117466               0.999999991               0.000192869               0.000118305               0.999999991               0.000197914               0.000123071               0.999999991               0.000203274               0.000130376               0.999999991               0.000209408               0.000139303               0.999999991               0.000216539               0.000149172               0.999999991               0.000224691               0.000159750               0.999999991               0.000233835               0.000170929               0.999999991               0.000243992               0.000182542               0.999999991               0.000255051               0.000194398               0.999999991               0.000266916               0.000206226               0.999999991               0.000279432               0.000217798               0.999999991               0.000292381               0.000228596               0.999999991               0.000305692               0.000238045               0.999999991               0.000319231               0.000245601               0.999999991               0.000149839               0.000212316               0.999999991               0.000165810               0.000183820               0.999999991               0.000172297               0.000175649               0.999999991               0.000176635               0.000177688               0.999999991               0.000181124               0.000185464               0.999999991               0.000186590               0.000196721               0.999999991               0.000193110               0.000210170               0.999999991               0.000200742               0.000224979               0.999999991               0.000209432               0.000240732               0.999999991               0.000219096               0.000257404               0.999999991               0.000229656               0.000274602               0.999999991               0.000240933               0.000291911               0.999999991               0.000252713               0.000309088               0.999999991               0.000264804               0.000325792               0.999999991               0.000277070               0.000341490               0.999999991               0.000289403               0.000355748               0.999999991               0.000301853               0.000368236               0.999999991               0.000144047               0.000279514               0.999999991               0.000151128               0.000242471               0.999999991               0.000153637               0.000233123               0.999999991               0.000156531               0.000237075               0.999999991               0.000160942               0.000248195               0.999999991               0.000167010               0.000263525               0.999999991               0.000174381               0.000281363               0.999999991               0.000182890               0.000300923               0.999999991               0.000192401               0.000321828               0.999999991               0.000202697               0.000343794               0.999999991               0.000213667               0.000366235               0.999999991               0.000225168               0.000388744               0.999999991               0.000236860               0.000410908               0.999999991               0.000248626               0.000432476               0.999999991               0.000260361               0.000453053               0.999999991               0.000272038               0.000472462               0.999999991               0.000283827               0.000490754               0.999999991               0.000136780               0.000343618               0.999999991               0.000133692               0.000299237               0.999999991               0.000132667               0.000289593               0.999999991               0.000134857               0.000295912               0.999999991               0.000139877               0.000310567               0.999999991               0.000147040               0.000329943               0.999999991               0.000155599               0.000352085               0.999999991               0.000165203               0.000376408               0.999999991               0.000175707               0.000402277               0.999999991               0.000186876               0.000429111               0.999999991               0.000198472               0.000456463               0.999999991               0.000210232               0.000483721               0.999999991               0.000221964               0.000510591               0.999999991               0.000233575               0.000536916               0.999999991               0.000244940               0.000562358               0.999999991               0.000256156               0.000587027               0.999999991               0.000267326               0.000610918               0.999999991               0.000128185               0.000403976               0.999999991               0.000114593               0.000353916               0.999999991               0.000110907               0.000344802               0.999999991               0.000113311               0.000353668               0.999999991               0.000119611               0.000371896               0.999999991               0.000128243               0.000395213               0.999999991               0.000138220               0.000421648               0.999999991               0.000149235               0.000450550               0.999999991               0.000160984               0.000480982               0.999999991               0.000173109               0.000512400               0.999999991               0.000185299               0.000544285               0.999999991               0.000197300               0.000576017               0.999999991               0.000208995               0.000607304               0.999999991               0.000220257               0.000638087               0.999999991               0.000231160               0.000668208               0.999999991               0.000241786               0.000697650               0.999999991               0.000252087               0.000726341               0.999999991               0.000118456               0.000460022               0.999999991               0.000094803               0.000406415               0.999999991               0.000089656               0.000398385               0.999999991               0.000093259               0.000409798               0.999999991               0.000101366               0.000431377               0.999999991               0.000111846               0.000458542               0.999999991               0.000123533               0.000489165               0.999999991               0.000136023               0.000522325               0.999999991               0.000148869               0.000557176               0.999999991               0.000161722               0.000592964               0.999999991               0.000174192               0.000629013               0.999999991               0.000186093               0.000664884               0.999999991               0.000197368               0.000700300               0.999999991               0.000208072               0.000735216               0.999999991               0.000218328               0.000769558               0.999999991               0.000228144               0.000803263               0.999999991               0.000237593               0.000836129               0.999999991               0.000108042               0.000510905               0.999999991               0.000074989               0.000456729               0.999999991               0.000070197               0.000449801               0.999999991               0.000075667               0.000463563               0.999999991               0.000085966               0.000488294               0.999999991               0.000098343               0.000519220               0.999999991               0.000111586               0.000553921               0.999999991               0.000125322               0.000591345               0.999999991               0.000139026               0.000630423               0.999999991               0.000152129               0.000670197               0.999999991               0.000164448               0.000710106               0.999999991               0.000175814               0.000749745               0.999999991               0.000186420               0.000788933               0.999999991               0.000196462               0.000827625               0.999999991               0.000206246               0.000865762               0.999999991               0.000215720               0.000903178               0.999999991               0.000224970               0.000939893               0.999999991               0.000097697               0.000558460               0.999999991               0.000059484               0.000510194               0.999999991               0.000052211               0.000499327               0.999999991               0.000056180               0.000508015               0.999999991               0.000065203               0.000527834               0.999999991               0.000076425               0.000554474               0.999999991               0.000088484               0.000585321               0.999999991               0.000100860               0.000619132               0.999999991               0.000113430               0.000655002               0.999999991               0.000125526               0.000691945               0.999999991               0.000136938               0.000729369               0.999999991               0.000147339               0.000766909               0.999999991               0.000156663               0.000804319               0.999999991               0.000165245               0.000841505               0.999999991               0.000173451               0.000878348               0.999999991               0.000181624               0.000914879               0.999999991               0.000189902               0.000950842               0.999999991               0.000085942               0.000601348               0.999999991               0.000045985               0.000561334               0.999999991               0.000036365               0.000549434               0.999999991               0.000038420               0.000554395               0.999999991               0.000045689               0.000569986               0.999999991               0.000055414               0.000592511               0.999999991               0.000065991               0.000619743               0.999999991               0.000076868               0.000650266               0.999999991               0.000088111               0.000683020               0.999999991               0.000099210               0.000717209               0.999999991               0.000109660               0.000752112               0.999999991               0.000119020               0.000787282               0.999999991               0.000127180               0.000822596               0.999999991               0.000134204               0.000857853               0.999999991               0.000140421               0.000893105               0.999999991               0.000146287               0.000928307               0.999999991               0.000152191               0.000963463               0.999999991               0.000073203               0.000638615               0.999999991               0.000034565               0.000608685               0.999999991               0.000023333               0.000598050               0.999999991               0.000023382               0.000601045               0.999999991               0.000028679               0.000613491               0.999999991               0.000036463               0.000632634               0.999999991               0.000045276               0.000656545               0.999999991               0.000054608               0.000683966               0.999999991               0.000064256               0.000713952               0.999999991               0.000074036               0.000745651               0.999999991               0.000083253               0.000778431               0.999999991               0.000091449               0.000811701               0.999999991               0.000098432               0.000845131               0.999999991               0.000103921               0.000878597               0.999999991               0.000108060               0.000912109               0.999999991               0.000111132               0.000945747               0.999999991               0.000113598               0.000979559               0.999999991               0.000059644               0.000669772               0.999999991               0.000025117               0.000650473               0.999999991               0.000013433               0.000642884               0.999999991               0.000011845               0.000645560               0.999999991               0.000015101               0.000656237               0.999999991               0.000020825               0.000672978               0.999999991               0.000027728               0.000694267               0.999999991               0.000035193               0.000719103               0.999999991               0.000043081               0.000746726               0.999999991               0.000051164               0.000776359               0.999999991               0.000058895               0.000807403               0.999999991               0.000065781               0.000839259               0.999999991               0.000071502               0.000871424               0.999999991               0.000075630               0.000903743               0.999999991               0.000077832               0.000936114               0.999999991               0.000078182               0.000968577               0.999999991               0.000076734               0.001001179               0.999999991               0.000045394               0.000694479               0.999999991               0.000017291               0.000685078               0.999999991               0.000006703               0.000681397               0.999999991               0.000004202               0.000684975               0.999999991               0.000005778               0.000695055               0.999999991               0.000009600               0.000710409               0.999999991               0.000014469               0.000730031               0.999999991               0.000019953               0.000753016               0.999999991               0.000025838               0.000778827               0.999999991               0.000032013               0.000806818               0.999999991               0.000038012               0.000836534               0.999999991               0.000043405               0.000867472               0.999999991               0.000047806               0.000899067               0.999999991               0.000050708               0.000931033               0.999999991               0.000051578               0.000963131               0.999999991               0.000049993               0.000995289               0.999999991               0.000045417               0.001027496               0.999999991               0.000030590               0.000712473               0.999999991               0.000010756               0.000710994               0.999999991               0.000002746               0.000711115               0.999999991               0.000000297               0.000716142               0.999999991               0.000000791               0.000726323               0.999999991               0.000002946               0.000741156               0.999999991               0.000006017               0.000759856               0.999999991               0.000009542               0.000781715               0.999999991               0.000013467               0.000806315               0.999999991               0.000017636               0.000833252               0.999999991               0.000021677               0.000862122               0.999999991               0.000025267               0.000892503               0.999999991               0.000028186               0.000923962               0.999999991               0.000030003               0.000956129               0.999999991               0.000030197               0.000988741               0.999999991               0.000028043               0.001021475               0.999999991               0.000022786               0.001054055               0.999999991               0.000015397               0.000723511               0.999999991               0.000005134               0.000727127               0.999999991               0.000000823               0.000729909               0.999999991              -0.000000647               0.000736234               0.999999991              -0.000000617               0.000746784               0.999999991               0.000000320               0.000761408               0.999999991               0.000001777               0.000779638               0.999999991               0.000003528               0.000800996               0.999999991               0.000005439               0.000825051               0.999999991               0.000007525               0.000851425               0.999999991               0.000009572               0.000879860               0.999999991               0.000011319               0.000909909               0.999999991               0.000012705               0.000941238               0.999999991               0.000013539               0.000973552               0.999999991               0.000013555               0.001006505               0.999999991               0.000012287               0.001039835               0.999999991               0.000009122               0.001073117               0.999999991               0.000000000               0.000727246               0.999999991               0.000000000               0.000732646               0.999999991               0.000000000               0.000736366               0.999999991              -0.000000000               0.000743187               0.999999991               0.000000000               0.000753984               0.999999991              -0.000000000               0.000768594               0.999999991              -0.000000000               0.000786667               0.999999991               0.000000000               0.000807847               0.999999991              -0.000000000               0.000831688               0.999999991              -0.000000000               0.000857907               0.999999991              -0.000000000               0.000886233               0.999999991              -0.000000000               0.000916202               0.999999991              -0.000000000               0.000947392               0.999999991               0.000000000               0.000979568               0.999999991               0.000000000               0.001012480               0.999999991               0.000000000               0.001045868               0.999999991              -0.000000000               0.001079407               0.999999991 </DataArray>
<DataArray type="Float64"                                    Name="stress"                                                      NumberOfComponents="10" format="ascii">
              0.001175762               0.013348756               0.000000000              -0.001227681               0.004858768               0.003631087               0.000000000               0.000000000               0.000000000               0.000000000               0.001257306               0.010841765               0.000000000              -0.000883729               0.003908462               0.003024733               0.000000000               0.000000000               0.000000000               0.000000000               0.001732019               0.008811999               0.000000000              -0.000451992               0.003087968               0.002635976               0.000000000               0.000000000               0.000000000               0.000000000               0.001774964               0.007686730               0.000000000              -0.000295229               0.002660627               0.002365398               0.000000000               0.000000000               0.000000000               0.000000000               0.001663629               0.007011646              -0.000000000              -0.000252594               0.002421390               0.002168796               0.000000000               0.000000000               0.000000000               0.000000000               0.001503540               0.006586914              -0.000000000              -0.000259536               0.002282128               0.002022592               0.000000000               0.000000000               0.000000000               0.000000000               0.001332907               0.006301560               0.000000000              -0.000287854               0.002196450               0.001908596               0.000000000               0.000000000               0.000000000               0.000000000               0.001166550               0.006098503               0.000000000              -0.000324856               0.002141099               0.001816244               0.000000000               0.000000000               0.000000000               0.000000000               0.001012005               0.005952212               0.000000000              -0.000364524               0.002105559               0.001741035               0.000000000               0.000000000               0.000000000               0.000000000               0.000863888               0.005845741               0.000000000              -0.000406759               0.002084147               0.001677388               0.000000000               0.000000000               0.000000000               0.000000000               0.000713002               0.005761728              -0.000000000              -0.000452839               0.002071503               0.001618664               0.000000000               0.000000000               0.000000000               0.000000000               0.000564709               0.005691120              -0.000000000              -0.000499623               0.002063562               0.001563939               0.000000000               0.000000000               0.000000000               0.000000000               0.000426593               0.005628311              -0.000000000              -0.000543565               0.002057273               0.001513708               0.000000000               0.000000000               0.000000000               0.000000000               0.000300212               0.005564996              -0.000000000              -0.000583044               0.002049328               0.001466284               0.000000000               0.000000000               0.000000000               0.000000000               0.000185055               0.005486507               0.000000000              -0.000616416               0.002034289               0.001417873               0.000000000               0.000000000               0.000000000               0.000000000               0.000085297               0.005380195               0.000000000              -0.000640537               0.002006893               0.001366356               0.000000000               0.000000000               0.000000000               0.000000000               0.000031687               0.005292489               0.000000000              -0.000649677               0.001980704               0.001331028               0.000000000               0.000000000               0.000000000               0.000000000               0.001239098               0.013104452              -0.000977602              -0.001173392               0.004759238               0.003585846               0.000000000               0.000000000               0.000000000               0.000000000               0.001264142               0.010671734              -0.000583944              -0.000859912               0.003843846               0.002983935               0.000000000               0.000000000               0.000000000               0.000000000               0.001679547               0.008726668              -0.000181627              -0.000461002               0.003062528               0.002601525               0.000000000               0.000000000               0.000000000               0.000000000               0.001696047               0.007647236               0.000000406              -0.000319886               0.002655682               0.002335796               0.000000000               0.000000000               0.000000000               0.000000000               0.001575144               0.006995911               0.000085096              -0.000283809               0.002426550               0.002142741               0.000000000               0.000000000               0.000000000               0.000000000               0.001414440               0.006581460               0.000123391              -0.000292267               0.002291220               0.001998954               0.000000000               0.000000000               0.000000000               0.000000000               0.001247181               0.006302865               0.000135935              -0.000320164               0.002207656               0.001887491               0.000000000               0.000000000               0.000000000               0.000000000               0.001086934               0.006104116               0.000137411              -0.000355413               0.002153156               0.001797743               0.000000000               0.000000000               0.000000000               0.000000000               0.000937888               0.005958090               0.000136257              -0.000393052               0.002117028               0.001723975               0.000000000               0.000000000               0.000000000               0.000000000               0.000793529               0.005847098               0.000132988              -0.000433313               0.002093451               0.001660138               0.000000000               0.000000000               0.000000000               0.000000000               0.000650215               0.005757997               0.000127222              -0.000475918               0.002077952               0.001602035               0.000000000               0.000000000               0.000000000               0.000000000               0.000512925               0.005682595               0.000120512              -0.000517976               0.002066838               0.001548862               0.000000000               0.000000000               0.000000000               0.000000000               0.000386638               0.005613819               0.000113020              -0.000556737               0.002056833               0.001500097               0.000000000               0.000000000               0.000000000               0.000000000               0.000273450               0.005544770               0.000100376              -0.000590551               0.002045089               0.001454537               0.000000000               0.000000000               0.000000000               0.000000000               0.000170663               0.005464041               0.000078199              -0.000619005               0.002027664               0.001408659               0.000000000               0.000000000               0.000000000               0.000000000               0.000078800               0.005361783               0.000044147              -0.000640671               0.002000800               0.001360129               0.000000000               0.000000000               0.000000000               0.000000000               0.000028874               0.005282311               0.000026095              -0.000649459               0.001977239               0.001327780               0.000000000               0.000000000               0.000000000               0.000000000               0.001405659               0.012403991              -0.001834225              -0.001023375               0.004475747               0.003452372               0.000000000               0.000000000               0.000000000               0.000000000               0.001271690               0.010189995              -0.001094601              -0.000796864               0.003662252               0.002865388               0.000000000               0.000000000               0.000000000               0.000000000               0.001516635               0.008483260              -0.000346379              -0.000491668               0.002991615               0.002499946               0.000000000               0.000000000               0.000000000               0.000000000               0.001465207               0.007528253              -0.000017476              -0.000391578               0.002639919               0.002248341               0.000000000               0.000000000               0.000000000               0.000000000               0.001326877               0.006944248               0.000132167              -0.000370451               0.002438210               0.002067759               0.000000000               0.000000000               0.000000000               0.000000000               0.001172053               0.006561086               0.000199380              -0.000380615               0.002313879               0.001933264               0.000000000               0.000000000               0.000000000               0.000000000               0.001019054               0.006294994               0.000223044              -0.000404728               0.002233220               0.001828492               0.000000000               0.000000000               0.000000000               0.000000000               0.000873363               0.006100031               0.000226418              -0.000434992               0.002178320               0.001743329               0.000000000               0.000000000               0.000000000               0.000000000               0.000739248               0.005952159               0.000224686              -0.000466801               0.002139634               0.001672833               0.000000000               0.000000000               0.000000000               0.000000000               0.000611868               0.005837078               0.000220098              -0.000500183               0.002112401               0.001612218               0.000000000               0.000000000               0.000000000               0.000000000               0.000491114               0.005741426               0.000211670              -0.000533509               0.002091626               0.001558117               0.000000000               0.000000000               0.000000000               0.000000000               0.000380278               0.005655440               0.000200319              -0.000564324               0.002073236               0.001508911               0.000000000               0.000000000               0.000000000               0.000000000               0.000280683               0.005573906               0.000186272              -0.000591481               0.002055110               0.001463630               0.000000000               0.000000000               0.000000000               0.000000000               0.000196222               0.005493263               0.000163734              -0.000613073               0.002035427               0.001422354               0.000000000               0.000000000               0.000000000               0.000000000               0.000122405               0.005409093               0.000125757              -0.000630233               0.002013091               0.001382857               0.000000000               0.000000000               0.000000000               0.000000000               0.000055623               0.005320564               0.000070825              -0.000644210               0.001988241               0.001344030               0.000000000               0.000000000               0.000000000               0.000000000               0.000019786               0.005262764               0.000041875              -0.000650424               0.001971045               0.001320621               0.000000000               0.000000000               0.000000000               0.000000000               0.001615526               0.011329189              -0.002484071              -0.000810326               0.004046467               0.003236141               0.000000000               0.000000000               0.000000000               0.000000000               0.001257250               0.009464062              -0.001489124              -0.000711538               0.003391835               0.002680297               0.000000000               0.000000000               0.000000000               0.000000000               0.001259624               0.008114358              -0.000493304              -0.000541934               0.002885404               0.002343469               0.000000000               0.000000000               0.000000000               0.000000000               0.001123127               0.007336552              -0.000070539              -0.000495895               0.002610791               0.002114896               0.000000000               0.000000000               0.000000000               0.000000000               0.000968419               0.006841161               0.000115751              -0.000491987               0.002444360               0.001952373               0.000000000               0.000000000               0.000000000               0.000000000               0.000827804               0.006497958               0.000196127              -0.000501817               0.002333237               0.001831420               0.000000000               0.000000000               0.000000000               0.000000000               0.000702405               0.006243220               0.000226611              -0.000516999               0.002253386               0.001736386               0.000000000               0.000000000               0.000000000               0.000000000               0.000586048               0.006050573               0.000234562              -0.000536552               0.002195688               0.001659136               0.000000000               0.000000000               0.000000000               0.000000000               0.000481735               0.005905257               0.000237580              -0.000557505               0.002154234               0.001596729               0.000000000               0.000000000               0.000000000               0.000000000               0.000384725               0.005789815               0.000237239              -0.000579453               0.002123070               0.001543617               0.000000000               0.000000000               0.000000000               0.000000000               0.000294643               0.005688001               0.000228927              -0.000600507               0.002096150               0.001495643               0.000000000               0.000000000               0.000000000               0.000000000               0.000219210               0.005594373               0.000215125              -0.000617091               0.002070469               0.001453378               0.000000000               0.000000000               0.000000000               0.000000000               0.000157954               0.005505226               0.000197749              -0.000628919               0.002044697               0.001415778               0.000000000               0.000000000               0.000000000               0.000000000               0.000108445               0.005419637               0.000170025              -0.000636786               0.002018790               0.001382004               0.000000000               0.000000000               0.000000000               0.000000000               0.000069104               0.005341080               0.000127058              -0.000641719               0.001994249               0.001352529               0.000000000               0.000000000               0.000000000               0.000000000               0.000033430               0.005276147               0.000070238              -0.000646980               0.001974358               0.001327378               0.000000000               0.000000000               0.000000000               0.000000000               0.000014174               0.005244896               0.000039765              -0.000650295               0.001965046               0.001314751               0.000000000               0.000000000               0.000000000               0.000000000               0.001800486               0.009994123              -0.002883361              -0.000574084               0.003522702               0.002948618               0.000000000               0.000000000               0.000000000               0.000000000               0.001201582               0.008577533              -0.001755349              -0.000621598               0.003066348               0.002444750               0.000000000               0.000000000               0.000000000               0.000000000               0.000944724               0.007659025              -0.000635998              -0.000603105               0.002754018               0.002150913               0.000000000               0.000000000               0.000000000               0.000000000               0.000734448               0.007077516              -0.000177750              -0.000609270               0.002562239               0.001952968               0.000000000               0.000000000               0.000000000               0.000000000               0.000576067               0.006672482               0.000020301              -0.000618033               0.002430150               0.001812116               0.000000000               0.000000000               0.000000000               0.000000000               0.000461920               0.006369795               0.000106947              -0.000623003               0.002330911               0.001707909               0.000000000               0.000000000               0.000000000               0.000000000               0.000376134               0.006134096               0.000146892              -0.000625710               0.002253248               0.001627538               0.000000000               0.000000000               0.000000000               0.000000000               0.000301308               0.005955053               0.000168196              -0.000631390               0.002195461               0.001564071               0.000000000               0.000000000               0.000000000               0.000000000               0.000237441               0.005816857               0.000181856              -0.000638065               0.002151621               0.001513556               0.000000000               0.000000000               0.000000000               0.000000000               0.000179431               0.005697110               0.000187987              -0.000644851               0.002113968               0.001469117               0.000000000               0.000000000               0.000000000               0.000000000               0.000124624               0.005587387               0.000183712              -0.000651688               0.002079673               0.001427985               0.000000000               0.000000000               0.000000000               0.000000000               0.000084249               0.005486983               0.000171982              -0.000654278               0.002047069               0.001392791               0.000000000               0.000000000               0.000000000               0.000000000               0.000058739               0.005395464               0.000154719              -0.000652404               0.002015938               0.001363534               0.000000000               0.000000000               0.000000000               0.000000000               0.000041746               0.005314256               0.000127862              -0.000648626               0.001987610               0.001338984               0.000000000               0.000000000               0.000000000               0.000000000               0.000030956               0.005247961               0.000090654              -0.000644385               0.001964098               0.001319713               0.000000000               0.000000000               0.000000000               0.000000000               0.000016621               0.005202092               0.000047561              -0.000644027               0.001948689               0.001304662               0.000000000               0.000000000               0.000000000               0.000000000               0.000006625               0.005184196               0.000025493              -0.000645539               0.001943228               0.001297689               0.000000000               0.000000000               0.000000000               0.000000000               0.001899685               0.008533726              -0.003028505              -0.000354336               0.002962658               0.002608322               0.000000000               0.000000000               0.000000000               0.000000000               0.001094914               0.007621414              -0.001900841              -0.000542084               0.002721140               0.002179056               0.000000000               0.000000000               0.000000000               0.000000000               0.000607877               0.007159855              -0.000782789              -0.000667027               0.002608937               0.001941910               0.000000000               0.000000000               0.000000000               0.000000000               0.000357345               0.006766163              -0.000332285              -0.000711764               0.002492620               0.001780856               0.000000000               0.000000000               0.000000000               0.000000000               0.000219756               0.006448894              -0.000133781              -0.000723702               0.002390844               0.001667142               0.000000000               0.000000000               0.000000000               0.000000000               0.000146032               0.006189948              -0.000038686              -0.000718980               0.002302956               0.001583976               0.000000000               0.000000000               0.000000000               0.000000000               0.000106271               0.005984697               0.000017107              -0.000708234               0.002230957               0.001522723               0.000000000               0.000000000               0.000000000               0.000000000               0.000075236               0.005824096               0.000055036              -0.000699797               0.002174612               0.001474815               0.000000000               0.000000000               0.000000000               0.000000000               0.000047075               0.005685841               0.000079683              -0.000693075               0.002126286               0.001433211               0.000000000               0.000000000               0.000000000               0.000000000               0.000024619               0.005560715               0.000095060              -0.000685855               0.002082172               0.001396316               0.000000000               0.000000000               0.000000000               0.000000000               0.000008911               0.005447158               0.000099265              -0.000677551               0.002041552               0.001364000               0.000000000               0.000000000               0.000000000               0.000000000               0.000001211               0.005342538               0.000094723              -0.000667362               0.002003282               0.001335921               0.000000000               0.000000000               0.000000000               0.000000000               0.000000711               0.005249391               0.000086015              -0.000655906               0.001968415               0.001312509               0.000000000               0.000000000               0.000000000               0.000000000               0.000005639               0.005170911               0.000069933              -0.000644248               0.001938369               0.001294121               0.000000000               0.000000000               0.000000000               0.000000000               0.000010676               0.005109047               0.000047684              -0.000634626               0.001914540               0.001279915               0.000000000               0.000000000               0.000000000               0.000000000               0.000007284               0.005061712               0.000024393              -0.000629981               0.001897214               0.001267233               0.000000000               0.000000000               0.000000000               0.000000000              -0.000000462               0.005035590               0.000014649              -0.000629620               0.001888387               0.001258766               0.000000000               0.000000000               0.000000000               0.000000000               0.001870037               0.007074949              -0.002952498              -0.000183108               0.002419328               0.002236220               0.000000000               0.000000000               0.000000000               0.000000000               0.000940188               0.006678441              -0.001945137              -0.000482235               0.002386869               0.001904634               0.000000000               0.000000000               0.000000000               0.000000000               0.000288157               0.006652002              -0.000932964              -0.000723440               0.002458458               0.001735018               0.000000000               0.000000000               0.000000000               0.000000000               0.000038155               0.006426153              -0.000515386              -0.000788959               0.002405016               0.001616057               0.000000000               0.000000000               0.000000000               0.000000000              -0.000056876               0.006188008              -0.000315862              -0.000794828               0.002327591               0.001532763               0.000000000               0.000000000               0.000000000               0.000000000              -0.000079091               0.005976962              -0.000208321              -0.000776778               0.002251227               0.001474449               0.000000000               0.000000000               0.000000000               0.000000000              -0.000076448               0.005803051              -0.000135220              -0.000754048               0.002185680               0.001431633               0.000000000               0.000000000               0.000000000               0.000000000              -0.000074739               0.005652967              -0.000080192              -0.000734646               0.002129186               0.001394540               0.000000000               0.000000000               0.000000000               0.000000000              -0.000071918               0.005517928              -0.000040400              -0.000716709               0.002078194               0.001361485               0.000000000               0.000000000               0.000000000               0.000000000              -0.000063501               0.005394472              -0.000010008              -0.000698120               0.002030846               0.001332726               0.000000000               0.000000000               0.000000000               0.000000000              -0.000051258               0.005277488               0.000009744              -0.000678906               0.001985447               0.001306541               0.000000000               0.000000000               0.000000000               0.000000000              -0.000037415               0.005169883               0.000019383              -0.000660264               0.001943365               0.001283101               0.000000000               0.000000000               0.000000000               0.000000000              -0.000022686               0.005073733               0.000025459              -0.000642722               0.001905468               0.001262746               0.000000000               0.000000000               0.000000000               0.000000000              -0.000010231               0.004989905               0.000026842              -0.000627573               0.001872476               0.001244903               0.000000000               0.000000000               0.000000000               0.000000000              -0.000003963               0.004919352               0.000022170              -0.000616404               0.001845235               0.001228832               0.000000000               0.000000000               0.000000000               0.000000000              -0.000002106               0.004858384               0.000014418              -0.000608086               0.001822140               0.001214054               0.000000000               0.000000000               0.000000000               0.000000000              -0.000007694               0.004819027               0.000013592              -0.000605262               0.001808080               0.001202818               0.000000000               0.000000000               0.000000000               0.000000000               0.001713112               0.005709894              -0.002700224              -0.000071323               0.001927052               0.001855729               0.000000000               0.000000000               0.000000000               0.000000000               0.000744073               0.005803931              -0.001912355              -0.000446465               0.002083445               0.001636981               0.000000000               0.000000000               0.000000000               0.000000000               0.000020381               0.006147716              -0.001087159              -0.000760820               0.002302825               0.001542004               0.000000000               0.000000000               0.000000000               0.000000000              -0.000188715               0.006065078              -0.000709638              -0.000828901               0.002297973               0.001469072               0.000000000               0.000000000               0.000000000               0.000000000              -0.000231098               0.005900801              -0.000502483              -0.000824260               0.002241667               0.001417407               0.000000000               0.000000000               0.000000000               0.000000000              -0.000208688               0.005738532              -0.000375701              -0.000795573               0.002178016               0.001382443               0.000000000               0.000000000               0.000000000               0.000000000              -0.000175004               0.005593929              -0.000282415              -0.000764866               0.002119580               0.001354714               0.000000000               0.000000000               0.000000000               0.000000000              -0.000147833               0.005460507              -0.000206820              -0.000737999               0.002066150               0.001328152               0.000000000               0.000000000               0.000000000               0.000000000              -0.000121056               0.005334483              -0.000146939              -0.000712204               0.002015545               0.001303340               0.000000000               0.000000000               0.000000000               0.000000000              -0.000095291               0.005209075              -0.000098146              -0.000686867               0.001965296               0.001278430               0.000000000               0.000000000               0.000000000               0.000000000              -0.000069212               0.005086395              -0.000059801              -0.000661752               0.001916032               0.001254280               0.000000000               0.000000000               0.000000000               0.000000000              -0.000048132               0.004971453              -0.000030957              -0.000639480               0.001870294               0.001230815               0.000000000               0.000000000               0.000000000               0.000000000              -0.000033543               0.004867149              -0.000008808              -0.000620970               0.001829357               0.001208386               0.000000000               0.000000000               0.000000000               0.000000000              -0.000026502               0.004773029               0.000006709              -0.000606565               0.001793182               0.001186617               0.000000000               0.000000000               0.000000000               0.000000000              -0.000020516               0.004690547               0.000013783              -0.000594010               0.001761503               0.001167493               0.000000000               0.000000000               0.000000000               0.000000000              -0.000012874               0.004617592               0.000012723              -0.000582025               0.001733190               0.001151165               0.000000000               0.000000000               0.000000000               0.000000000              -0.000013600               0.004571805               0.000013540              -0.000576574               0.001716111               0.001139537               0.000000000               0.000000000               0.000000000               0.000000000               0.001477481               0.004532543              -0.002337237              -0.000012516               0.001515004               0.001502488               0.000000000               0.000000000               0.000000000               0.000000000               0.000558993               0.005021602              -0.001845749              -0.000418079               0.001813209               0.001395131               0.000000000               0.000000000               0.000000000               0.000000000              -0.000158914               0.005673529              -0.001265341              -0.000768783               0.002147418               0.001378635               0.000000000               0.000000000               0.000000000               0.000000000              -0.000313830               0.005735676              -0.000919526              -0.000834644               0.002190088               0.001355444               0.000000000               0.000000000               0.000000000               0.000000000              -0.000315295               0.005654178              -0.000696611              -0.000825006               0.002159709               0.001334703               0.000000000               0.000000000               0.000000000               0.000000000              -0.000265854               0.005541861              -0.000541998              -0.000792426               0.002111410               0.001318984               0.000000000               0.000000000               0.000000000               0.000000000              -0.000214844               0.005429882              -0.000424488              -0.000759300               0.002063043               0.001303743               0.000000000               0.000000000               0.000000000               0.000000000              -0.000173302               0.005320457              -0.000329713              -0.000730044               0.002016816               0.001286772               0.000000000               0.000000000               0.000000000               0.000000000              -0.000129544               0.005203933              -0.000252492              -0.000699069               0.001967650               0.001268581               0.000000000               0.000000000               0.000000000               0.000000000              -0.000091081               0.005076376              -0.000186112              -0.000668701               0.001915008               0.001246308               0.000000000               0.000000000               0.000000000               0.000000000              -0.000058178               0.004947885              -0.000129455              -0.000640301               0.001862712               0.001222411               0.000000000               0.000000000               0.000000000               0.000000000              -0.000037861               0.004823279              -0.000081211              -0.000617106               0.001813446               0.001196339               0.000000000               0.000000000               0.000000000               0.000000000              -0.000034604               0.004706741              -0.000042138              -0.000601318               0.001769337               0.001168020               0.000000000               0.000000000               0.000000000               0.000000000              -0.000044393               0.004598906              -0.000014202              -0.000591509               0.001730123               0.001138614               0.000000000               0.000000000               0.000000000               0.000000000              -0.000055308               0.004499629               0.000001932              -0.000583193               0.001694259               0.001111066               0.000000000               0.000000000               0.000000000               0.000000000              -0.000056161               0.004411939               0.000006687              -0.000572551               0.001661482               0.001088931               0.000000000               0.000000000               0.000000000               0.000000000              -0.000052276               0.004365534               0.000007241              -0.000565294               0.001643595               0.001078301               0.000000000               0.000000000               0.000000000               0.000000000               0.001144897               0.003411783              -0.001928666               0.000002861               0.001136295               0.001139156               0.000000000               0.000000000               0.000000000               0.000000000               0.000423781               0.004129143              -0.001765042              -0.000357226               0.001495442               0.001138216               0.000000000               0.000000000               0.000000000               0.000000000              -0.000214810               0.005002197              -0.001468467              -0.000705827               0.001902658               0.001196830               0.000000000               0.000000000               0.000000000               0.000000000              -0.000343050               0.005250213              -0.001165377              -0.000784919               0.002011693               0.001226774               0.000000000               0.000000000               0.000000000               0.000000000              -0.000336841               0.005292692              -0.000926664              -0.000787900               0.002026846               0.001238946               0.000000000               0.000000000               0.000000000               0.000000000              -0.000287000               0.005260609              -0.000741483              -0.000765199               0.002008585               0.001243386               0.000000000               0.000000000               0.000000000               0.000000000              -0.000233320               0.005206492              -0.000596839              -0.000738305               0.001981582               0.001243277               0.000000000               0.000000000               0.000000000               0.000000000              -0.000189411               0.005143750              -0.000483960              -0.000713996               0.001952565               0.001238569               0.000000000               0.000000000               0.000000000               0.000000000              -0.000146022               0.005060847              -0.000391712              -0.000687362               0.001916053               0.001228690               0.000000000               0.000000000               0.000000000               0.000000000              -0.000102534               0.004958388              -0.000310842              -0.000658247               0.001872195               0.001213948               0.000000000               0.000000000               0.000000000               0.000000000              -0.000067281               0.004845334              -0.000235833              -0.000630896               0.001825394               0.001194498               0.000000000               0.000000000               0.000000000               0.000000000              -0.000046404               0.004729163              -0.000163589              -0.000608545               0.001779220               0.001170675               0.000000000               0.000000000               0.000000000               0.000000000              -0.000044314               0.004616568              -0.000100796              -0.000593687               0.001736736               0.001143049               0.000000000               0.000000000               0.000000000               0.000000000              -0.000061243               0.004508008              -0.000052255              -0.000586466               0.001698143               0.001111677               0.000000000               0.000000000               0.000000000               0.000000000              -0.000089678               0.004408801              -0.000019627              -0.000584728               0.001664495               0.001079767               0.000000000               0.000000000               0.000000000               0.000000000              -0.000118373               0.004317150              -0.000002981              -0.000584032               0.001633713               0.001049681               0.000000000               0.000000000               0.000000000               0.000000000              -0.000131065               0.004269499               0.000002082              -0.000582835               0.001617431               0.001034595               0.000000000               0.000000000               0.000000000               0.000000000               0.000664811               0.002376034              -0.001489706              -0.000047702               0.000807903               0.000760201               0.000000000               0.000000000               0.000000000               0.000000000               0.000273522               0.003240535              -0.001635644              -0.000302497               0.001180999               0.000878502               0.000000000               0.000000000               0.000000000               0.000000000              -0.000197653               0.004250604              -0.001625379              -0.000605445               0.001618668               0.001013223               0.000000000               0.000000000               0.000000000               0.000000000              -0.000302310               0.004674575              -0.001400218              -0.000697687               0.001790738               0.001093051               0.000000000               0.000000000               0.000000000               0.000000000              -0.000301660               0.004852932              -0.001167545              -0.000719738               0.001857540               0.001137802               0.000000000               0.000000000               0.000000000               0.000000000              -0.000264483               0.004922508              -0.000963594              -0.000714493               0.001878984               0.001164491               0.000000000               0.000000000               0.000000000               0.000000000              -0.000216557               0.004945641              -0.000795148              -0.000699412               0.001881668               0.001182255               0.000000000               0.000000000               0.000000000               0.000000000              -0.000172736               0.004939790              -0.000666372              -0.000682248               0.001873996               0.001191748               0.000000000               0.000000000               0.000000000               0.000000000              -0.000134895               0.004904390              -0.000564009              -0.000663633               0.001855991               0.001192358               0.000000000               0.000000000               0.000000000               0.000000000              -0.000093980               0.004843883              -0.000472624              -0.000640726               0.001828187               0.001187461               0.000000000               0.000000000               0.000000000               0.000000000              -0.000061052               0.004760519              -0.000382781              -0.000617958               0.001792810               0.001174852               0.000000000               0.000000000               0.000000000               0.000000000              -0.000039237               0.004667431              -0.000293415              -0.000598141               0.001755175               0.001157034               0.000000000               0.000000000               0.000000000               0.000000000              -0.000032199               0.004571140              -0.000208736              -0.000583465               0.001718186               0.001134721               0.000000000               0.000000000               0.000000000               0.000000000              -0.000048763               0.004475300              -0.000132509              -0.000577697               0.001684317               0.001106620               0.000000000               0.000000000               0.000000000               0.000000000              -0.000088827               0.004387302              -0.000070803              -0.000581721               0.001656326               0.001074605               0.000000000               0.000000000               0.000000000               0.000000000              -0.000148851               0.004305211              -0.000025806              -0.000593969               0.001633046               0.001039077               0.000000000               0.000000000               0.000000000               0.000000000              -0.000193310               0.004258179              -0.000003175              -0.000604762               0.001620966               0.001016204               0.000000000               0.000000000               0.000000000               0.000000000               0.000074017               0.001493975              -0.001044619              -0.000158991               0.000550983               0.000391992               0.000000000               0.000000000               0.000000000               0.000000000               0.000068586               0.002397894              -0.001429815              -0.000274018               0.000890628               0.000616611               0.000000000               0.000000000               0.000000000               0.000000000              -0.000148882               0.003425003              -0.001660828              -0.000483956               0.001302974               0.000819018               0.000000000               0.000000000               0.000000000               0.000000000              -0.000196849               0.003974751              -0.001538082              -0.000570662               0.001515124               0.000944462               0.000000000               0.000000000               0.000000000               0.000000000              -0.000191845               0.004283099              -0.001341245              -0.000607329               0.001630128               0.001022799               0.000000000               0.000000000               0.000000000               0.000000000              -0.000167226               0.004462447              -0.001143829              -0.000620515               0.001694305               0.001073791               0.000000000               0.000000000               0.000000000               0.000000000              -0.000131780               0.004570817              -0.000970434              -0.000620769               0.001730513               0.001109744               0.000000000               0.000000000               0.000000000               0.000000000              -0.000095879               0.004637343              -0.000831260              -0.000615621               0.001750972               0.001135351               0.000000000               0.000000000               0.000000000               0.000000000              -0.000067132               0.004666643              -0.000721102              -0.000608503               0.001758367               0.001149863               0.000000000               0.000000000               0.000000000               0.000000000              -0.000039403               0.004663013              -0.000622790              -0.000597652               0.001753539               0.001155888               0.000000000               0.000000000               0.000000000               0.000000000              -0.000013743               0.004630008              -0.000525528              -0.000583903               0.001737955               0.001154052               0.000000000               0.000000000               0.000000000               0.000000000               0.000005526               0.004572704              -0.000430608              -0.000569514               0.001714057               0.001144543               0.000000000               0.000000000               0.000000000               0.000000000               0.000014735               0.004502932              -0.000334425              -0.000557340               0.001686742               0.001129403               0.000000000               0.000000000               0.000000000               0.000000000               0.000005902               0.004431646              -0.000237913              -0.000551741               0.001661114               0.001109373               0.000000000               0.000000000               0.000000000               0.000000000              -0.000031252               0.004362898              -0.000147273              -0.000557080               0.001639978               0.001082898               0.000000000               0.000000000               0.000000000               0.000000000              -0.000101473               0.004296774              -0.000066909              -0.000575148               0.001623959               0.001048812               0.000000000               0.000000000               0.000000000               0.000000000              -0.000166397               0.004249917              -0.000021908              -0.000593637               0.001614504               0.001020867               0.000000000               0.000000000               0.000000000               0.000000000              -0.000582832               0.000816604              -0.000644619              -0.000320637               0.000379077               0.000058440               0.000000000               0.000000000               0.000000000               0.000000000              -0.000184668               0.001649891              -0.001166230              -0.000275487               0.000641787               0.000366299               0.000000000               0.000000000               0.000000000               0.000000000              -0.000087535               0.002591152              -0.001558344              -0.000356720               0.000982615               0.000625894               0.000000000               0.000000000               0.000000000               0.000000000              -0.000041434               0.003207227              -0.001534320              -0.000416442               0.001207878               0.000791436               0.000000000               0.000000000               0.000000000               0.000000000              -0.000015286               0.003617848              -0.001392464              -0.000457963               0.001358591               0.000900628               0.000000000               0.000000000               0.000000000               0.000000000               0.000006239               0.003896592              -0.001226222              -0.000484734               0.001460429               0.000975695               0.000000000               0.000000000               0.000000000               0.000000000               0.000027317               0.004093701              -0.001068347              -0.000501468               0.001531709               0.001030241               0.000000000               0.000000000               0.000000000               0.000000000               0.000047238               0.004240708              -0.000933441              -0.000512373               0.001584346               0.001071973               0.000000000               0.000000000               0.000000000               0.000000000               0.000062654               0.004343750              -0.000823255              -0.000519473               0.001621060               0.001101587               0.000000000               0.000000000               0.000000000               0.000000000               0.000076092               0.004406924              -0.000724754              -0.000522330               0.001643070               0.001120740               0.000000000               0.000000000               0.000000000               0.000000000               0.000092123               0.004435985              -0.000628763              -0.000519951               0.001651964               0.001132013               0.000000000               0.000000000               0.000000000               0.000000000               0.000106538               0.004429068              -0.000535717              -0.000513681               0.001647568               0.001133887               0.000000000               0.000000000               0.000000000               0.000000000               0.000117275               0.004401205              -0.000439938              -0.000506171               0.001635777               0.001129606               0.000000000               0.000000000               0.000000000               0.000000000               0.000120293               0.004366310              -0.000336082              -0.000500678               0.001622315               0.001121637               0.000000000               0.000000000               0.000000000               0.000000000               0.000101963               0.004326495              -0.000227406              -0.000502574               0.001609675               0.001107101               0.000000000               0.000000000               0.000000000               0.000000000               0.000048296               0.004282319              -0.000115603              -0.000517178               0.001599818               0.001082640               0.000000000               0.000000000               0.000000000               0.000000000              -0.000012508               0.004244877              -0.000051312              -0.000535299               0.001593378               0.001058079               0.000000000               0.000000000               0.000000000               0.000000000              -0.001233477               0.000344835              -0.000334854              -0.000505658               0.000283495              -0.000222162               0.000000000               0.000000000               0.000000000               0.000000000              -0.000457530               0.001035639              -0.000873845              -0.000301029               0.000445552               0.000144523               0.000000000               0.000000000               0.000000000               0.000000000              -0.000030735               0.001823099              -0.001318028              -0.000239414               0.000687497               0.000448084               0.000000000               0.000000000               0.000000000               0.000000000               0.000136285               0.002449861              -0.001363042              -0.000255126               0.000901653               0.000646527               0.000000000               0.000000000               0.000000000               0.000000000               0.000202211               0.002924880              -0.001278419              -0.000289781               0.001071544               0.000781762               0.000000000               0.000000000               0.000000000               0.000000000               0.000229142               0.003284490              -0.001155599              -0.000324633               0.001203030               0.000878397               0.000000000               0.000000000               0.000000000               0.000000000               0.000241457               0.003559515              -0.001028885              -0.000354393               0.001304624               0.000950231               0.000000000               0.000000000               0.000000000               0.000000000               0.000247470               0.003777544              -0.000915028              -0.000379391               0.001385632               0.001006241               0.000000000               0.000000000               0.000000000               0.000000000               0.000249938               0.003951040              -0.000818389              -0.000400153               0.001450384               0.001050231               0.000000000               0.000000000               0.000000000               0.000000000               0.000251058               0.004084236              -0.000731417              -0.000416382               0.001500192               0.001083810               0.000000000               0.000000000               0.000000000               0.000000000               0.000254918               0.004182750              -0.000646274              -0.000427249               0.001536652               0.001109404               0.000000000               0.000000000               0.000000000               0.000000000               0.000260221               0.004240230              -0.000563411              -0.000432445               0.001557544               0.001125099               0.000000000               0.000000000               0.000000000               0.000000000               0.000269770               0.004267571              -0.000478285              -0.000432282               0.001566603               0.001134322               0.000000000               0.000000000               0.000000000               0.000000000               0.000284672               0.004278210              -0.000383055              -0.000428023               0.001568730               0.001140707               0.000000000               0.000000000               0.000000000               0.000000000               0.000297746               0.004276514              -0.000274875              -0.000422909               0.001566460               0.001143551               0.000000000               0.000000000               0.000000000               0.000000000               0.000292526               0.004263091              -0.000147928              -0.000423188               0.001562079               0.001138891               0.000000000               0.000000000               0.000000000               0.000000000               0.000273279               0.004246624              -0.000075573              -0.000428347               0.001558310               0.001129962               0.000000000               0.000000000               0.000000000               0.000000000              -0.001791347               0.000044757              -0.000139340              -0.000677349               0.000240700              -0.000436649               0.000000000               0.000000000               0.000000000               0.000000000              -0.000702427               0.000580306              -0.000577952              -0.000335948               0.000305416              -0.000030533               0.000000000               0.000000000               0.000000000               0.000000000               0.000009666               0.001199722              -0.000956277              -0.000146341               0.000448683               0.000302342               0.000000000               0.000000000               0.000000000               0.000000000               0.000298608               0.001800173              -0.001025584              -0.000113044               0.000637733               0.000524688               0.000000000               0.000000000               0.000000000               0.000000000               0.000413381               0.002307617              -0.000984857              -0.000133435               0.000813676               0.000680241               0.000000000               0.000000000               0.000000000               0.000000000               0.000453632               0.002721265              -0.000906803              -0.000170046               0.000963761               0.000793715               0.000000000               0.000000000               0.000000000               0.000000000               0.000464053               0.003052805              -0.000819748              -0.000207581               0.001086785               0.000879204               0.000000000               0.000000000               0.000000000               0.000000000               0.000461967               0.003327374              -0.000739365              -0.000242684               0.001190008               0.000947324               0.000000000               0.000000000               0.000000000               0.000000000               0.000453728               0.003560239              -0.000669893              -0.000274882               0.001278362               0.001003480               0.000000000               0.000000000               0.000000000               0.000000000               0.000443719               0.003755408              -0.000604894              -0.000303031               0.001352801               0.001049770               0.000000000               0.000000000               0.000000000               0.000000000               0.000436397               0.003913429              -0.000539365              -0.000325529               0.001412973               0.001087444               0.000000000               0.000000000               0.000000000               0.000000000               0.000433036               0.004030810              -0.000475113              -0.000341462               0.001457411               0.001115949               0.000000000               0.000000000               0.000000000               0.000000000               0.000440453               0.004114827              -0.000410164              -0.000349183               0.001487990               0.001138807               0.000000000               0.000000000               0.000000000               0.000000000               0.000465911               0.004175864              -0.000337403              -0.000347266               0.001507696               0.001160430               0.000000000               0.000000000               0.000000000               0.000000000               0.000511051               0.004216792              -0.000249333              -0.000335454               0.001517401               0.001181947               0.000000000               0.000000000               0.000000000               0.000000000               0.000570257               0.004234340              -0.000137883              -0.000315446               0.001516581               0.001201136               0.000000000               0.000000000               0.000000000               0.000000000               0.000616287               0.004240696              -0.000076553              -0.000298979               0.001513211               0.001214232               0.000000000               0.000000000               0.000000000               0.000000000              -0.002171314              -0.000121742              -0.000043383              -0.000799025               0.000225759              -0.000573265               0.000000000               0.000000000               0.000000000               0.000000000              -0.000873021               0.000296859              -0.000288608              -0.000364490               0.000220448              -0.000144042               0.000000000               0.000000000               0.000000000               0.000000000               0.000032163               0.000790613              -0.000503918              -0.000086766               0.000292457               0.000205691               0.000000000               0.000000000               0.000000000               0.000000000               0.000410674               0.001360754              -0.000552320              -0.000016092               0.000458944               0.000442852               0.000000000               0.000000000               0.000000000               0.000000000               0.000566283               0.001875004              -0.000539022              -0.000022020               0.000632335               0.000610315               0.000000000               0.000000000               0.000000000               0.000000000               0.000621899               0.002315003              -0.000501671              -0.000056163               0.000790381               0.000734218               0.000000000               0.000000000               0.000000000               0.000000000               0.000633133               0.002685789              -0.000457248              -0.000098299               0.000928020               0.000829721               0.000000000               0.000000000               0.000000000               0.000000000               0.000626484               0.003001112              -0.000415207              -0.000140207               0.001047096               0.000906889               0.000000000               0.000000000               0.000000000               0.000000000               0.000609402               0.003270229              -0.000378591              -0.000180253               0.001150150               0.000969897               0.000000000               0.000000000               0.000000000               0.000000000               0.000590092               0.003503899              -0.000344530              -0.000216703               0.001240189               0.001023486               0.000000000               0.000000000               0.000000000               0.000000000               0.000575679               0.003699454              -0.000308557              -0.000246552               0.001315323               0.001068771               0.000000000               0.000000000               0.000000000               0.000000000               0.000570207               0.003853402              -0.000272277              -0.000267847               0.001373737               0.001105890               0.000000000               0.000000000               0.000000000               0.000000000               0.000580082               0.003976177              -0.000235559              -0.000279491               0.001418543               0.001139052               0.000000000               0.000000000               0.000000000               0.000000000               0.000612803               0.004072946              -0.000194771              -0.000279316               0.001450741               0.001171424               0.000000000               0.000000000               0.000000000               0.000000000               0.000677289               0.004147925              -0.000144708              -0.000264507               0.001470797               0.001206290               0.000000000               0.000000000               0.000000000               0.000000000               0.000782483               0.004199813              -0.000079571              -0.000231545               0.001477105               0.001245560               0.000000000               0.000000000               0.000000000               0.000000000               0.000877620               0.004229354              -0.000044845              -0.000199561               0.001476291               0.001276730               0.000000000               0.000000000               0.000000000               0.000000000              -0.002306292              -0.000174785               0.000000000              -0.000843011               0.000222740              -0.000620270               0.000000000               0.000000000               0.000000000               0.000000000              -0.000934026               0.000199663               0.000000000              -0.000375217               0.000191625              -0.000183592               0.000000000               0.000000000               0.000000000               0.000000000               0.000039276               0.000646788               0.000000000              -0.000066120               0.000237634               0.000171514               0.000000000               0.000000000               0.000000000               0.000000000               0.000450114               0.001206036               0.000000000               0.000018038               0.000395995               0.000414033               0.000000000               0.000000000               0.000000000               0.000000000               0.000622043               0.001720492               0.000000000               0.000018204               0.000567424               0.000585628               0.000000000               0.000000000               0.000000000               0.000000000               0.000683263               0.002165972              -0.000000000              -0.000014523               0.000726825               0.000712302               0.000000000               0.000000000               0.000000000               0.000000000               0.000695073               0.002549844              -0.000000000              -0.000058078               0.000869299               0.000811221               0.000000000               0.000000000               0.000000000               0.000000000               0.000685569               0.002878638               0.000000000              -0.000102741               0.000993783               0.000891042               0.000000000               0.000000000               0.000000000               0.000000000               0.000667219               0.003161502              -0.000000000              -0.000144980               0.001102150               0.000957170               0.000000000               0.000000000               0.000000000               0.000000000               0.000645656               0.003410275              -0.000000000              -0.000184163               0.001198135               0.001013972               0.000000000               0.000000000               0.000000000               0.000000000               0.000628160               0.003618506              -0.000000000              -0.000216753               0.001278407               0.001061655               0.000000000               0.000000000               0.000000000               0.000000000               0.000622145               0.003781561              -0.000000000              -0.000239390               0.001340305               0.001100914               0.000000000               0.000000000               0.000000000               0.000000000               0.000633465               0.003913168              -0.000000000              -0.000251596               0.001388242               0.001136646               0.000000000               0.000000000               0.000000000               0.000000000               0.000669161               0.004021835               0.000000000              -0.000251794               0.001424529               0.001172736               0.000000000               0.000000000               0.000000000               0.000000000               0.000738533               0.004110538               0.000000000              -0.000236867               0.001449121               0.001212255               0.000000000               0.000000000               0.000000000               0.000000000               0.000855924               0.004179575              -0.000000000              -0.000201475               0.001460336               0.001258861               0.000000000               0.000000000               0.000000000               0.000000000               0.000965495               0.004220874              -0.000000000              -0.000165548               0.001462127               0.001296579               0.000000000               0.000000000               0.000000000               0.000000000               0.000000000               0.000000000               0.000000000               0.000000000               0.000000000               0.000000000               0.000000000               0.000000000               0.000000000               0.000000000               0.000000000               0.000000000               0.000000000               0.000000000               0.000000000               0.000000000               0.000000000               0.000000000               0.000000000               0.000000000               0.000000000               0.000000000               0.000000000               0.000000000               0.000000000               0.000000000               0.000000000               0.000000000               0.000000000               0.000000000               0.000000000               0.000000000               0.000000000               0.000000000               0.000000000               0.000000000               0.000000000               0.000000000               0.000000000               0.000000000               0.000000000               0.000000000               0.000000000               0.000000000               0.000000000               0.000000000               0.000000000               0.000000000               0.000000000               0.000000000               0.000000000               0.000000000               0.000000000               0.000000000               0.000000000               0.000000000               0.000000000               0.000000000               0.000000000               0.000000000               0.000000000               0.000000000               0.000000000               0.000000000               0.000000000               0.000000000               0.000000000               0.000000000               0.000000000               0.000000000               0.000000000               0.000000000               0.000000000               0.000000000               0.000000000               0.000000000               0.000000000               0.000000000               0.000000000               0.000000000               0.000000000               0.000000000               0.000000000               0.000000000               0.000000000               0.000000000               0.000000000               0.000000000               0.000000000               0.000000000               0.000000000               0.000000000               0.000000000               0.000000000               0.000000000               0.000000000               0.000000000               0.000000000               0.000000000               0.000000000               0.000000000               0.000000000               0.000000000               0.000000000               0.000000000               0.000000000               0.000000000               0.000000000               0.000000000               0.000000000               0.000000000               0.000000000               0.000000000               0.000000000               0.000000000               0.000000000               0.000000000               0.000000000               0.000000000               0.000000000               0.000000000               0.000000000               0.000000000               0.000000000               0.000000000               0.000000000               0.000000000               0.000000000               0.000000000               0.000000000               0.000000000               0.000000000               0.000000000               0.000000000               0.000000000               0.000000000               0.000000000               0.000000000               0.000000000               0.000000000               0.000000000               0.000000000               0.000000000               0.000000000               0.000000000               0.000000000               0.000000000               0.000000000               0.000000000               0.000000000               0.000000000               0.000000000               0.000000000               0.000000000               0.000000000               0.000000000               0.000000000               0.000000000               0.000000000               0.000000000               0.000000000               0.000000000               0.000000000               0.000000000               0.000000000               0.000000000               0.000000000               0.000000000               0.000000000               0.000000000               0.001239098               0.013104452               0.000977602              -0.001173392               0.004759238               0.003585846               0.000000000               0.000000000               0.000000000               0.000000000               0.001264142               0.010671734               0.000583944              -0.000859912               0.003843846               0.002983935               0.000000000               0.000000000               0.000000000               0.000000000               0.001679547               0.008726668               0.000181627              -0.000461002               0.003062528               0.002601525               0.000000000               0.000000000               0.000000000               0.000000000               0.001696047               0.007647236              -0.000000406              -0.000319886               0.002655682               0.002335796               0.000000000               0.000000000               0.000000000               0.000000000               0.001575144               0.006995911              -0.000085096              -0.000283809               0.002426550               0.002142741               0.000000000               0.000000000               0.000000000               0.000000000               0.001414440               0.006581460              -0.000123391              -0.000292267               0.002291220               0.001998954               0.000000000               0.000000000               0.000000000               0.000000000               0.001247181               0.006302865              -0.000135935              -0.000320164               0.002207656               0.001887491               0.000000000               0.000000000               0.000000000               0.000000000               0.001086934               0.006104116              -0.000137411              -0.000355413               0.002153156               0.001797743               0.000000000               0.000000000               0.000000000               0.000000000               0.000937888               0.005958090              -0.000136257              -0.000393052               0.002117028               0.001723975               0.000000000               0.000000000               0.000000000               0.000000000               0.000793529               0.005847098              -0.000132988              -0.000433313               0.002093451               0.001660138               0.000000000               0.000000000               0.000000000               0.000000000               0.000650215               0.005757997              -0.000127222              -0.000475918               0.002077952               0.001602035               0.000000000               0.000000000               0.000000000               0.000000000               0.000512925               0.005682595              -0.000120512              -0.000517976               0.002066838               0.001548862               0.000000000               0.000000000               0.000000000               0.000000000               0.000386638               0.005613819              -0.000113020              -0.000556737               0.002056833               0.001500097               0.000000000               0.000000000               0.000000000               0.000000000               0.000273450               0.005544770              -0.000100376              -0.000590551               0.002045089               0.001454537               0.000000000               0.000000000               0.000000000               0.000000000               0.000170663               0.005464041              -0.000078199              -0.000619005               0.002027664               0.001408659               0.000000000               0.000000000               0.000000000               0.000000000               0.000078800               0.005361783              -0.000044147              -0.000640671               0.002000800               0.001360129               0.000000000               0.000000000               0.000000000               0.000000000               0.000028874               0.005282311              -0.000026095              -0.000649459               0.001977239               0.001327780               0.000000000               0.000000000               0.000000000               0.000000000               0.001405659               0.012403991               0.001834225              -0.001023375               0.004475747               0.003452372               0.000000000               0.000000000               0.000000000               0.000000000               0.001271690               0.010189995               0.001094601              -0.000796864               0.003662252               0.002865388               0.000000000               0.000000000               0.000000000               0.000000000               0.001516635               0.008483260               0.000346379              -0.000491668               0.002991615               0.002499946               0.000000000               0.000000000               0.000000000               0.000000000               0.001465207               0.007528253               0.000017476              -0.000391578               0.002639919               0.002248341               0.000000000               0.000000000               0.000000000               0.000000000               0.001326877               0.006944248              -0.000132167              -0.000370451               0.002438210               0.002067759               0.000000000               0.000000000               0.000000000               0.000000000               0.001172053               0.006561086              -0.000199380              -0.000380615               0.002313879               0.001933264               0.000000000               0.000000000               0.000000000               0.000000000               0.001019054               0.006294994              -0.000223044              -0.000404728               0.002233220               0.001828492               0.000000000               0.000000000               0.000000000               0.000000000               0.000873363               0.006100031              -0.000226418              -0.000434992               0.002178320               0.001743329               0.000000000               0.000000000               0.000000000               0.000000000               0.000739248               0.005952159              -0.000224686              -0.000466801               0.002139634               0.001672833               0.000000000               0.000000000               0.000000000               0.000000000               0.000611868               0.005837078              -0.000220098              -0.000500183               0.002112401               0.001612218               0.000000000               0.000000000               0.000000000               0.000000000               0.000491114               0.005741426              -0.000211670              -0.000533509               0.002091626               0.001558117               0.000000000               0.000000000               0.000000000               0.000000000               0.000380278               0.005655440              -0.000200319              -0.000564324               0.002073236               0.001508911               0.000000000               0.000000000               0.000000000               0.000000000               0.000280683               0.005573906              -0.000186272              -0.000591481               0.002055110               0.001463630               0.000000000               0.000000000               0.000000000               0.000000000               0.000196222               0.005493263              -0.000163734              -0.000613073               0.002035427               0.001422354               0.000000000               0.000000000               0.000000000               0.000000000               0.000122405               0.005409093              -0.000125757              -0.000630233               0.002013091               0.001382857               0.000000000               0.000000000               0.000000000               0.000000000               0.000055623               0.005320564              -0.000070825              -0.000644210               0.001988241               0.001344030               0.000000000               0.000000000               0.000000000               0.000000000               0.000019786               0.005262764              -0.000041875              -0.000650424               0.001971045               0.001320621               0.000000000               0.000000000               0.000000000               0.000000000               0.001615526               0.011329189               0.002484071              -0.000810326               0.004046467               0.003236141               0.000000000               0.000000000               0.000000000               0.000000000               0.001257250               0.009464062               0.001489124              -0.000711538               0.003391835               0.002680297               0.000000000               0.000000000               0.000000000               0.000000000               0.001259624               0.008114358               0.000493304              -0.000541934               0.002885404               0.002343469               0.000000000               0.000000000               0.000000000               0.000000000               0.001123127               0.007336552               0.000070539              -0.000495895               0.002610791               0.002114896               0.000000000               0.000000000               0.000000000               0.000000000               0.000968419               0.006841161              -0.000115751              -0.000491987               0.002444360               0.001952373               0.000000000               0.000000000               0.000000000               0.000000000               0.000827804               0.006497958              -0.000196127              -0.000501817               0.002333237               0.001831420               0.000000000               0.000000000               0.000000000               0.000000000               0.000702405               0.006243220              -0.000226611              -0.000516999               0.002253386               0.001736386               0.000000000               0.000000000               0.000000000               0.000000000               0.000586048               0.006050573              -0.000234562              -0.000536552               0.002195688               0.001659136               0.000000000               0.000000000               0.000000000               0.000000000               0.000481735               0.005905257              -0.000237580              -0.000557505               0.002154234               0.001596729               0.000000000               0.000000000               0.000000000               0.000000000               0.000384725               0.005789815              -0.000237239              -0.000579453               0.002123070               0.001543617               0.000000000               0.000000000               0.000000000               0.000000000               0.000294643               0.005688001              -0.000228927              -0.000600507               0.002096150               0.001495643               0.000000000               0.000000000               0.000000000               0.000000000               0.000219210               0.005594373              -0.000215125              -0.000617091               0.002070469               0.001453378               0.000000000               0.000000000               0.000000000               0.000000000               0.000157954               0.005505226              -0.000197749              -0.000628919               0.002044697               0.001415778               0.000000000               0.000000000               0.000000000               0.000000000               0.000108445               0.005419637              -0.000170025              -0.000636786               0.002018790               0.001382004               0.000000000               0.000000000               0.000000000               0.000000000               0.000069104               0.005341080              -0.000127058              -0.000641719               0.001994249               0.001352529               0.000000000               0.000000000               0.000000000               0.000000000               0.000033430               0.005276147              -0.000070238              -0.000646980               0.001974358               0.001327378               0.000000000               0.000000000               0.000000000               0.000000000               0.000014174               0.005244896              -0.000039765              -0.000650295               0.001965046               0.001314751               0.000000000               0.000000000               0.000000000               0.000000000               0.001800486               0.009994123               0.002883361              -0.000574084               0.003522702               0.002948618               0.000000000               0.000000000               0.000000000               0.000000000               0.001201582               0.008577533               0.001755349              -0.000621598               0.003066348               0.002444750               0.000000000               0.000000000               0.000000000               0.000000000               0.000944724               0.007659025               0.000635998              -0.000603105               0.002754018               0.002150913               0.000000000               0.000000000               0.000000000               0.000000000               0.000734448               0.007077516               0.000177750              -0.000609270               0.002562239               0.001952968               0.000000000               0.000000000               0.000000000               0.000000000               0.000576067               0.006672482              -0.000020301              -0.000618033               0.002430150               0.001812116               0.000000000               0.000000000               0.000000000               0.000000000               0.000461920               0.006369795              -0.000106947              -0.000623003               0.002330911               0.001707909               0.000000000               0.000000000               0.000000000               0.000000000               0.000376134               0.006134096              -0.000146892              -0.000625710               0.002253248               0.001627538               0.000000000               0.000000000               0.000000000               0.000000000               0.000301308               0.005955053              -0.000168196              -0.000631390               0.002195461               0.001564071               0.000000000               0.000000000               0.000000000               0.000000000               0.000237441               0.005816857              -0.000181856              -0.000638065               0.002151621               0.001513556               0.000000000               0.000000000               0.000000000               0.000000000               0.000179431               0.005697110              -0.000187987              -0.000644851               0.002113968               0.001469117               0.000000000               0.000000000               0.000000000               0.000000000               0.000124624               0.005587387              -0.000183712              -0.000651688               0.002079673               0.001427985               0.000000000               0.000000000               0.000000000               0.000000000               0.000084249               0.005486983              -0.000171982              -0.000654278               0.002047069               0.001392791               0.000000000               0.000000000               0.000000000               0.000000000               0.000058739               0.005395464              -0.000154719              -0.000652404               0.002015938               0.001363534               0.000000000               0.000000000               0.000000000               0.000000000               0.000041746               0.005314256              -0.000127862              -0.000648626               0.001987610               0.001338984               0.000000000               0.000000000               0.000000000               0.000000000               0.000030956               0.005247961              -0.000090654              -0.000644385               0.001964098               0.001319713               0.000000000               0.000000000               0.000000000               0.000000000               0.000016621               0.005202092              -0.000047561              -0.000644027               0.001948689               0.001304662               0.000000000               0.000000000               0.000000000               0.000000000               0.000006625               0.005184196              -0.000025493              -0.000645539               0.001943228               0.001297689               0.000000000               0.000000000               0.000000000               0.000000000               0.001899685               0.008533726               0.003028505              -0.000354336               0.002962658               0.002608322               0.000000000               0.000000000               0.000000000               0.000000000               0.001094914               0.007621414               0.001900841              -0.000542084               0.002721140               0.002179056               0.000000000               0.000000000               0.000000000               0.000000000               0.000607877               0.007159855               0.000782789              -0.000667027               0.002608937               0.001941910               0.000000000               0.000000000               0.000000000               0.000000000               0.000357345               0.006766163               0.000332285              -0.000711764               0.002492620               0.001780856               0.000000000               0.000000000               0.000000000               0.000000000               0.000219756               0.006448894               0.000133781              -0.000723702               0.002390844               0.001667142               0.000000000               0.000000000               0.000000000               0.000000000               0.000146032               0.006189948               0.000038686              -0.000718980               0.002302956               0.001583976               0.000000000               0.000000000               0.000000000               0.000000000               0.000106271               0.005984697              -0.000017107              -0.000708234               0.002230957               0.001522723               0.000000000               0.000000000               0.000000000               0.000000000               0.000075236               0.005824096              -0.000055036              -0.000699797               0.002174612               0.001474815               0.000000000               0.000000000               0.000000000               0.000000000               0.000047075               0.005685841              -0.000079683              -0.000693075               0.002126286               0.001433211               0.000000000               0.000000000               0.000000000               0.000000000               0.000024619               0.005560715              -0.000095060              -0.000685855               0.002082172               0.001396316               0.000000000               0.000000000               0.000000000               0.000000000               0.000008911               0.005447158              -0.000099265              -0.000677551               0.002041552               0.001364000               0.000000000               0.000000000               0.000000000               0.000000000               0.000001211               0.005342538              -0.000094723              -0.000667362               0.002003282               0.001335921               0.000000000               0.000000000               0.000000000               0.000000000               0.000000711               0.005249391              -0.000086015              -0.000655906               0.001968415               0.001312509               0.000000000               0.000000000               0.000000000               0.000000000               0.000005639               0.005170911              -0.000069933              -0.000644248               0.001938369               0.001294121               0.000000000               0.000000000               0.000000000               0.000000000               0.000010676               0.005109047              -0.000047684              -0.000634626               0.001914540               0.001279915               0.000000000               0.000000000               0.000000000               0.000000000               0.000007284               0.005061712              -0.000024393              -0.000629981               0.001897214               0.001267233               0.000000000               0.000000000               0.000000000               0.000000000              -0.000000462               0.005035590              -0.000014649              -0.000629620               0.001888387               0.001258766               0.000000000               0.000000000               0.000000000               0.000000000               0.001870037               0.007074949               0.002952498              -0.000183108               0.002419328               0.002236220               0.000000000               0.000000000               0.000000000               0.000000000               0.000940188               0.006678441               0.001945137              -0.000482235               0.002386869               0.001904634               0.000000000               0.000000000               0.000000000               0.000000000               0.000288157               0.006652002               0.000932964              -0.000723440               0.002458458               0.001735018               0.000000000               0.000000000               0.000000000               0.000000000               0.000038155               0.006426153               0.000515386              -0.000788959               0.002405016               0.001616057               0.000000000               0.000000000               0.000000000               0.000000000              -0.000056876               0.006188008               0.000315862              -0.000794828               0.002327591               0.001532763               0.000000000               0.000000000               0.000000000               0.000000000              -0.000079091               0.005976962               0.000208321              -0.000776778               0.002251227               0.001474449               0.000000000               0.000000000               0.000000000               0.000000000              -0.000076448               0.005803051               0.000135220              -0.000754048               0.002185680               0.001431633               0.000000000               0.000000000               0.000000000               0.000000000              -0.000074739               0.005652967               0.000080192              -0.000734646               0.002129186               0.001394540               0.000000000               0.000000000               0.000000000               0.000000000              -0.000071918               0.005517928               0.000040400              -0.000716709               0.002078194               0.001361485               0.000000000               0.000000000               0.000000000               0.000000000              -0.000063501               0.005394472               0.000010008              -0.000698120               0.002030846               0.001332726               0.000000000               0.000000000               0.000000000               0.000000000              -0.000051258               0.005277488              -0.000009744              -0.000678906               0.001985447               0.001306541               0.000000000               0.000000000               0.000000000               0.000000000              -0.000037415               0.005169883              -0.000019383              -0.000660264               0.001943365               0.001283101               0.000000000               0.000000000               0.000000000               0.000000000              -0.000022686               0.005073733              -0.000025459              -0.000642722               0.001905468               0.001262746               0.000000000               0.000000000               0.000000000               0.000000000              -0.000010231               0.004989905              -0.000026842              -0.000627573               0.001872476               0.001244903               0.000000000               0.000000000               0.000000000               0.000000000              -0.000003963               0.004919352              -0.000022170              -0.000616404               0.001845235               0.001228832               0.000000000               0.000000000               0.000000000               0.000000000              -0.000002106               0.004858384              -0.000014418              -0.000608086               0.001822140               0.001214054               0.000000000               0.000000000               0.000000000               0.000000000              -0.000007694               0.004819027              -0.000013592              -0.000605262               0.001808080               0.001202818               0.000000000               0.000000000               0.000000000               0.000000000               0.001713112               0.005709894               0.002700224              -0.000071323               0.001927052               0.001855729               0.000000000               0.000000000               0.000000000               0.000000000               0.000744073               0.005803931               0.001912355              -0.000446465               0.002083445               0.001636981               0.000000000               0.000000000               0.000000000               0.000000000               0.000020381               0.006147716               0.001087159              -0.000760820               0.002302825               0.001542004               0.000000000               0.000000000               0.000000000               0.000000000              -0.000188715               0.006065078               0.000709638              -0.000828901               0.002297973               0.001469072               0.000000000               0.000000000               0.000000000               0.000000000              -0.000231098               0.005900801               0.000502483              -0.000824260               0.002241667               0.001417407               0.000000000               0.000000000               0.000000000               0.000000000              -0.000208688               0.005738532               0.000375701              -0.000795573               0.002178016               0.001382443               0.000000000               0.000000000               0.000000000               0.000000000              -0.000175004               0.005593929               0.000282415              -0.000764866               0.002119580               0.001354714               0.000000000               0.000000000               0.000000000               0.000000000              -0.000147833               0.005460507               0.000206820              -0.000737999               0.002066150               0.001328152               0.000000000               0.000000000               0.000000000               0.000000000              -0.000121056               0.005334483               0.000146939              -0.000712204               0.002015545               0.001303340               0.000000000               0.000000000               0.000000000               0.000000000              -0.000095291               0.005209075               0.000098146              -0.000686867               0.001965296               0.001278430               0.000000000               0.000000000               0.000000000               0.000000000              -0.000069212               0.005086395               0.000059801              -0.000661752               0.001916032               0.001254280               0.000000000               0.000000000               0.000000000               0.000000000              -0.000048132               0.004971453               0.000030957              -0.000639480               0.001870294               0.001230815               0.000000000               0.000000000               0.000000000               0.000000000              -0.000033543               0.004867149               0.000008808              -0.000620970               0.001829357               0.001208386               0.000000000               0.000000000               0.000000000               0.000000000              -0.000026502               0.004773029              -0.000006709              -0.000606565               0.001793182               0.001186617               0.000000000               0.000000000               0.000000000               0.000000000              -0.000020516               0.004690547              -0.000013783              -0.000594010               0.001761503               0.001167493               0.000000000               0.000000000               0.000000000               0.000000000              -0.000012874               0.004617592              -0.000012723              -0.000582025               0.001733190               0.001151165               0.000000000               0.000000000               0.000000000               0.000000000              -0.000013600               0.004571805              -0.000013540              -0.000576574               0.001716111               0.001139537               0.000000000               0.000000000               0.000000000               0.000000000               0.001477481               0.004532543               0.002337237              -0.000012516               0.001515004               0.001502488               0.000000000               0.000000000               0.000000000               0.000000000               0.000558993               0.005021602               0.001845749              -0.000418079               0.001813209               0.001395131               0.000000000               0.000000000               0.000000000               0.000000000              -0.000158914               0.005673529               0.001265341              -0.000768783               0.002147418               0.001378635               0.000000000               0.000000000               0.000000000               0.000000000              -0.000313830               0.005735676               0.000919526              -0.000834644               0.002190088               0.001355444               0.000000000               0.000000000               0.000000000               0.000000000              -0.000315295               0.005654178               0.000696611              -0.000825006               0.002159709               0.001334703               0.000000000               0.000000000               0.000000000               0.000000000              -0.000265854               0.005541861               0.000541998              -0.000792426               0.002111410               0.001318984               0.000000000               0.000000000               0.000000000               0.000000000              -0.000214844               0.005429882               0.000424488              -0.000759300               0.002063043               0.001303743               0.000000000               0.000000000               0.000000000               0.000000000              -0.000173302               0.005320457               0.000329713              -0.000730044               0.002016816               0.001286772               0.000000000               0.000000000               0.000000000               0.000000000              -0.000129544               0.005203933               0.000252492              -0.000699069               0.001967650               0.001268581               0.000000000               0.000000000               0.000000000               0.000000000              -0.000091081               0.005076376               0.000186112              -0.000668701               0.001915008               0.001246308               0.000000000               0.000000000               0.000000000               0.000000000              -0.000058178               0.004947885               0.000129455              -0.000640301               0.001862712               0.001222411               0.000000000               0.000000000               0.000000000               0.000000000              -0.000037861               0.004823279               0.000081211              -0.000617106               0.001813446               0.001196339               0.000000000               0.000000000               0.000000000               0.000000000              -0.000034604               0.004706741               0.000042138              -0.000601318               0.001769337               0.001168020               0.000000000               0.000000000               0.000000000               0.000000000              -0.000044393               0.004598906               0.000014202              -0.000591509               0.001730123               0.001138614               0.000000000               0.000000000               0.000000000               0.000000000              -0.000055308               0.004499629              -0.000001932              -0.000583193               0.001694259               0.001111066               0.000000000               0.000000000               0.000000000               0.000000000              -0.000056161               0.004411939              -0.000006687              -0.000572551               0.001661482               0.001088931               0.000000000               0.000000000               0.000000000               0.000000000              -0.000052276               0.004365534              -0.000007241              -0.000565294               0.001643595               0.001078301               0.000000000               0.000000000               0.000000000               0.000000000               0.001144897               0.003411783               0.001928666               0.000002861               0.001136295               0.001139156               0.000000000               0.000000000               0.000000000               0.000000000               0.000423781               0.004129143               0.001765042              -0.000357226               0.001495442               0.001138216               0.000000000               0.000000000               0.000000000               0.000000000              -0.000214810               0.005002197               0.001468467              -0.000705827               0.001902658               0.001196830               0.000000000               0.000000000               0.000000000               0.000000000              -0.000343050               0.005250213               0.001165377              -0.000784919               0.002011693               0.001226774               0.000000000               0.000000000               0.000000000               0.000000000              -0.000336841               0.005292692               0.000926664              -0.000787900               0.002026846               0.001238946               0.000000000               0.000000000               0.000000000               0.000000000              -0.000287000               0.005260609               0.000741483              -0.000765199               0.002008585               0.001243386               0.000000000               0.000000000               0.000000000               0.000000000              -0.000233320               0.005206492               0.000596839              -0.000738305               0.001981582               0.001243277               0.000000000               0.000000000               0.000000000               0.000000000              -0.000189411               0.005143750               0.000483960              -0.000713996               0.001952565               0.001238569               0.000000000               0.000000000               0.000000000               0.000000000              -0.000146022               0.005060847               0.000391712              -0.000687362               0.001916053               0.001228690               0.000000000               0.000000000               0.000000000               0.000000000              -0.000102534               0.004958388               0.000310842              -0.000658247               0.001872195               0.001213948               0.000000000               0.000000000               0.000000000               0.000000000              -0.000067281               0.004845334               0.000235833              -0.000630896               0.001825394               0.001194498               0.000000000               0.000000000               0.000000000               0.000000000              -0.000046404               0.004729163               0.000163589              -0.000608545               0.001779220               0.001170675               0.000000000               0.000000000               0.000000000               0.000000000              -0.000044314               0.004616568               0.000100796              -0.000593687               0.001736736               0.001143049               0.000000000               0.000000000               0.000000000               0.000000000              -0.000061243               0.004508008               0.000052255              -0.000586466               0.001698143               0.001111677               0.000000000               0.000000000               0.000000000               0.000000000              -0.000089678               0.004408801               0.000019627              -0.000584728               0.001664495               0.001079767               0.000000000               0.000000000               0.000000000               0.000000000              -0.000118373               0.004317150               0.000002981              -0.000584032               0.001633713               0.001049681               0.000000000               0.000000000               0.000000000               0.000000000              -0.000131065               0.004269499              -0.000002082              -0.000582835               0.001617431               0.001034595               0.000000000               0.000000000               0.000000000               0.000000000               0.000664811               0.002376034               0.001489706              -0.000047702               0.000807903               0.000760201               0.000000000               0.000000000               0.000000000               0.000000000               0.000273522               0.003240535               0.001635644              -0.000302497               0.001180999               0.000878502               0.000000000               0.000000000               0.000000000               0.000000000              -0.000197653               0.004250604               0.001625379              -0.000605445               0.001618668               0.001013223               0.000000000               0.000000000               0.000000000               0.000000000              -0.000302310               0.004674575               0.001400218              -0.000697687               0.001790738               0.001093051               0.000000000               0.000000000               0.000000000               0.000000000              -0.000301660               0.004852932               0.001167545              -0.000719738               0.001857540               0.001137802               0.000000000               0.000000000               0.000000000               0.000000000              -0.000264483               0.004922508               0.000963594              -0.000714493               0.001878984               0.001164491               0.000000000               0.000000000               0.000000000               0.000000000              -0.000216557               0.004945641               0.000795148              -0.000699412               0.001881668               0.001182255               0.000000000               0.000000000               0.000000000               0.000000000              -0.000172736               0.004939790               0.000666372              -0.000682248               0.001873996               0.001191748               0.000000000               0.000000000               0.000000000               0.000000000              -0.000134895               0.004904390               0.000564009              -0.000663633               0.001855991               0.001192358               0.000000000               0.000000000               0.000000000               0.000000000              -0.000093980               0.004843883               0.000472624              -0.000640726               0.001828187               0.001187461               0.000000000               0.000000000               0.000000000               0.000000000              -0.000061052               0.004760519               0.000382781              -0.000617958               0.001792810               0.001174852               0.000000000               0.000000000               0.000000000               0.000000000              -0.000039237               0.004667431               0.000293415              -0.000598141               0.001755175               0.001157034               0.000000000               0.000000000               0.000000000               0.000000000              -0.000032199               0.004571140               0.000208736              -0.000583465               0.001718186               0.001134721               0.000000000               0.000000000               0.000000000               0.000000000              -0.000048763               0.004475300               0.000132509              -0.000577697               0.001684317               0.001106620               0.000000000               0.000000000               0.000000000               0.000000000              -0.000088827               0.004387302               0.000070803              -0.000581721               0.001656326               0.001074605               0.000000000               0.000000000               0.000000000               0.000000000              -0.000148851               0.004305211               0.000025806              -0.000593969               0.001633046               0.001039077               0.000000000               0.000000000               0.000000000               0.000000000              -0.000193310               0.004258179               0.000003175              -0.000604762               0.001620966               0.001016204               0.000000000               0.000000000               0.000000000               0.000000000               0.000074017               0.001493975               0.001044619              -0.000158991               0.000550983               0.000391992               0.000000000               0.000000000               0.000000000               0.000000000               0.000068586               0.002397894               0.001429815              -0.000274018               0.000890628               0.000616611               0.000000000               0.000000000               0.000000000               0.000000000              -0.000148882               0.003425003               0.001660828              -0.000483956               0.001302974               0.000819018               0.000000000               0.000000000               0.000000000               0.000000000              -0.000196849               0.003974751               0.001538082              -0.000570662               0.001515124               0.000944462               0.000000000               0.000000000               0.000000000               0.000000000              -0.000191845               0.004283099               0.001341245              -0.000607329               0.001630128               0.001022799               0.000000000               0.000000000               0.000000000               0.000000000              -0.000167226               0.004462447               0.001143829              -0.000620515               0.001694305               0.001073791               0.000000000               0.000000000               0.000000000               0.000000000              -0.000131780               0.004570817               0.000970434              -0.000620769               0.001730513               0.001109744               0.000000000               0.000000000               0.000000000               0.000000000              -0.000095879               0.004637343               0.000831260              -0.000615621               0.001750972               0.001135351               0.000000000               0.000000000               0.000000000               0.000000000              -0.000067132               0.004666643               0.000721102              -0.000608503               0.001758367               0.001149863               0.000000000               0.000000000               0.000000000               0.000000000              -0.000039403               0.004663013               0.000622790              -0.000597652               0.001753539               0.001155888               0.000000000               0.000000000               0.000000000               0.000000000              -0.000013743               0.004630008               0.000525528              -0.000583903               0.001737955               0.001154052               0.000000000               0.000000000               0.000000000               0.000000000               0.000005526               0.004572704               0.000430608              -0.000569514               0.001714057               0.001144543               0.000000000               0.000000000               0.000000000               0.000000000               0.000014735               0.004502932               0.000334425              -0.000557340               0.001686742               0.001129403               0.000000000               0.000000000               0.000000000               0.000000000               0.000005902               0.004431646               0.000237913              -0.000551741               0.001661114               0.001109373               0.000000000               0.000000000               0.000000000               0.000000000              -0.000031252               0.004362898               0.000147273              -0.000557080               0.001639978               0.001082898               0.000000000               0.000000000               0.000000000               0.000000000              -0.000101473               0.004296774               0.000066909              -0.000575148               0.001623959               0.001048812               0.000000000               0.000000000               0.000000000               0.000000000              -0.000166397               0.004249917               0.000021908              -0.000593637               0.001614504               0.001020867               0.000000000               0.000000000               0.000000000               0.000000000              -0.000582832               0.000816604               0.000644619              -0.000320637               0.000379077               0.000058440               0.000000000               0.000000000               0.000000000               0.000000000              -0.000184668               0.001649891               0.001166230              -0.000275487               0.000641787               0.000366299               0.000000000               0.000000000               0.000000000               0.000000000              -0.000087535               0.002591152               0.001558344              -0.000356720               0.000982615               0.000625894               0.000000000               0.000000000               0.000000000               0.000000000              -0.000041434               0.003207227               0.001534320              -0.000416442               0.001207878               0.000791436               0.000000000               0.000000000               0.000000000               0.000000000              -0.000015286               0.003617848               0.001392464              -0.000457963               0.001358591               0.000900628               0.000000000               0.000000000               0.000000000               0.000000000               0.000006239               0.003896592               0.001226222              -0.000484734               0.001460429               0.000975695               0.000000000               0.000000000               0.000000000               0.000000000               0.000027317               0.004093701               0.001068347              -0.000501468               0.001531709               0.001030241               0.000000000               0.000000000               0.000000000               0.000000000               0.000047238               0.004240708               0.000933441              -0.000512373               0.001584346               0.001071973               0.000000000               0.000000000               0.000000000               0.000000000               0.000062654               0.004343750               0.000823255              -0.000519473               0.001621060               0.001101587               0.000000000               0.000000000               0.000000000               0.000000000               0.000076092               0.004406924               0.000724754              -0.000522330               0.001643070               0.001120740               0.000000000               0.000000000               0.000000000               0.000000000               0.000092123               0.004435985               0.000628763              -0.000519951               0.001651964               0.001132013               0.000000000               0.000000000               0.000000000               0.000000000               0.000106538               0.004429068               0.000535717              -0.000513681               0.001647568               0.001133887               0.000000000               0.000000000               0.000000000               0.000000000               0.000117275               0.004401205               0.000439938              -0.000506171               0.001635777               0.001129606               0.000000000               0.000000000               0.000000000               0.000000000               0.000120293               0.004366310               0.000336082              -0.000500678               0.001622315               0.001121637               0.000000000               0.000000000               0.000000000               0.000000000               0.000101963               0.004326495               0.000227406              -0.000502574               0.001609675               0.001107101               0.000000000               0.000000000               0.000000000               0.000000000               0.000048296               0.004282319               0.000115603              -0.000517178               0.001599818               0.001082640               0.000000000               0.000000000               0.000000000               0.000000000              -0.000012508               0.004244877               0.000051312              -0.000535299               0.001593378               0.001058079               0.000000000               0.000000000               0.000000000               0.000000000              -0.001233477               0.000344835               0.000334854              -0.000505658               0.000283495              -0.000222162               0.000000000               0.000000000               0.000000000               0.000000000              -0.000457530               0.001035639               0.000873845              -0.000301029               0.000445552               0.000144523               0.000000000               0.000000000               0.000000000               0.000000000              -0.000030735               0.001823099               0.001318028              -0.000239414               0.000687497               0.000448084               0.000000000               0.000000000               0.000000000               0.000000000               0.000136285               0.002449861               0.001363042              -0.000255126               0.000901653               0.000646527               0.000000000               0.000000000               0.000000000               0.000000000               0.000202211               0.002924880               0.001278419              -0.000289781               0.001071544               0.000781762               0.000000000               0.000000000               0.000000000               0.000000000               0.000229142               0.003284490               0.001155599              -0.000324633               0.001203030               0.000878397               0.000000000               0.000000000               0.000000000               0.000000000               0.000241457               0.003559515               0.001028885              -0.000354393               0.001304624               0.000950231               0.000000000               0.000000000               0.000000000               0.000000000               0.000247470               0.003777544               0.000915028              -0.000379391               0.001385632               0.001006241               0.000000000               0.000000000               0.000000000               0.000000000               0.000249938               0.003951040               0.000818389              -0.000400153               0.001450384               0.001050231               0.000000000               0.000000000               0.000000000               0.000000000               0.000251058               0.004084236               0.000731417              -0.000416382               0.001500192               0.001083810               0.000000000               0.000000000               0.000000000               0.000000000               0.000254918               0.004182750               0.000646274              -0.000427249               0.001536652               0.001109404               0.000000000               0.000000000               0.000000000               0.000000000               0.000260221               0.004240230               0.000563411              -0.000432445               0.001557544               0.001125099               0.000000000               0.000000000               0.000000000               0.000000000               0.000269770               0.004267571               0.000478285              -0.000432282               0.001566603               0.001134322               0.000000000               0.000000000               0.000000000               0.000000000               0.000284672               0.004278210               0.000383055              -0.000428023               0.001568730               0.001140707               0.000000000               0.000000000               0.000000000               0.000000000               0.000297746               0.004276514               0.000274875              -0.000422909               0.001566460               0.001143551               0.000000000               0.000000000               0.000000000               0.000000000               0.000292526               0.004263091               0.000147928              -0.000423188               0.001562079               0.001138891               0.000000000               0.000000000               0.000000000               0.000000000               0.000273279               0.004246624               0.000075573              -0.000428347               0.001558310               0.001129962               0.000000000               0.000000000               0.000000000               0.000000000              -0.001791347               0.000044757               0.000139340              -0.000677349               0.000240700              -0.000436649               0.000000000               0.000000000               0.000000000               0.000000000              -0.000702427               0.000580306               0.000577952              -0.000335948               0.000305416              -0.000030533               0.000000000               0.000000000               0.000000000               0.000000000               0.000009666               0.001199722               0.000956277              -0.000146341               0.000448683               0.000302342               0.000000000               0.000000000               0.000000000               0.000000000               0.000298608               0.001800173               0.001025584              -0.000113044               0.000637733               0.000524688               0.000000000               0.000000000               0.000000000               0.000000000               0.000413381               0.002307617               0.000984857              -0.000133435               0.000813676               0.000680241               0.000000000               0.000000000               0.000000000               0.000000000               0.000453632               0.002721265               0.000906803              -0.000170046               0.000963761               0.000793715               0.000000000               0.000000000               0.000000000               0.000000000               0.000464053               0.003052805               0.000819748              -0.000207581               0.001086785               0.000879204               0.000000000               0.000000000               0.000000000               0.000000000               0.000461967               0.003327374               0.000739365              -0.000242684               0.001190008               0.000947324               0.000000000               0.000000000               0.000000000               0.000000000               0.000453728               0.003560239               0.000669893              -0.000274882               0.001278362               0.001003480               0.000000000               0.000000000               0.000000000               0.000000000               0.000443719               0.003755408               0.000604894              -0.000303031               0.001352801               0.001049770               0.000000000               0.000000000               0.000000000               0.000000000               0.000436397               0.003913429               0.000539365              -0.000325529               0.001412973               0.001087444               0.000000000               0.000000000               0.000000000               0.000000000               0.000433036               0.004030810               0.000475113              -0.000341462               0.001457411               0.001115949               0.000000000               0.000000000               0.000000000               0.000000000               0.000440453               0.004114827               0.000410164              -0.000349183               0.001487990               0.001138807               0.000000000               0.000000000               0.000000000               0.000000000               0.000465911               0.004175864               0.000337403              -0.000347266               0.001507696               0.001160430               0.000000000               0.000000000               0.000000000               0.000000000               0.000511051               0.004216792               0.000249333              -0.000335454               0.001517401               0.001181947               0.000000000               0.000000000               0.000000000               0.000000000               0.000570257               0.004234340               0.000137883              -0.000315446               0.001516581               0.001201136               0.000000000               0.000000000               0.000000000               0.000000000               0.000616287               0.004240696               0.000076553              -0.000298979               0.001513211               0.001214232               0.000000000               0.000000000               0.000000000               0.000000000              -0.002171314              -0.000121742               0.000043383              -0.000799025               0.000225759              -0.000573265               0.000000000               0.000000000               0.000000000               0.000000000              -0.000873021               0.000296859               0.000288608              -0.000364490               0.000220448              -0.000144042               0.000000000               0.000000000               0.000000000               0.000000000               0.000032163               0.000790613               0.000503918              -0.000086766               0.000292457               0.000205691               0.000000000               0.000000000               0.000000000               0.000000000               0.000410674               0.001360754               0.000552320              -0.000016092               0.000458944               0.000442852               0.000000000               0.000000000               0.000000000               0.000000000               0.000566283               0.001875004               0.000539022              -0.000022020               0.000632335               0.000610315               0.000000000               0.000000000               0.000000000               0.000000000               0.000621899               0.002315003               0.000501671              -0.000056163               0.000790381               0.000734218               0.000000000               0.000000000               0.000000000               0.000000000               0.000633133               0.002685789               0.000457248              -0.000098299               0.000928020               0.000829721               0.000000000               0.000000000               0.000000000               0.000000000               0.000626484               0.003001112               0.000415207              -0.000140207               0.001047096               0.000906889               0.000000000               0.000000000               0.000000000               0.000000000               0.000609402               0.003270229               0.000378591              -0.000180253               0.001150150               0.000969897               0.000000000               0.000000000               0.000000000               0.000000000               0.000590092               0.003503899               0.000344530              -0.000216703               0.001240189               0.001023486               0.000000000               0.000000000               0.000000000               0.000000000               0.000575679               0.003699454               0.000308557              -0.000246552               0.001315323               0.001068771               0.000000000               0.000000000               0.000000000               0.000000000               0.000570207               0.003853402               0.000272277              -0.000267847               0.001373737               0.001105890               0.000000000               0.000000000               0.000000000               0.000000000               0.000580082               0.003976177               0.000235559              -0.000279491               0.001418543               0.001139052               0.000000000               0.000000000               0.000000000               0.000000000               0.000612803               0.004072946               0.000194771              -0.000279316               0.001450741               0.001171424               0.000000000               0.000000000               0.000000000               0.000000000               0.000677289               0.004147925               0.000144708              -0.000264507               0.001470797               0.001206290               0.000000000               0.000000000               0.000000000               0.000000000               0.000782483               0.004199813               0.000079571              -0.000231545               0.001477105               0.001245560               0.000000000               0.000000000               0.000000000               0.000000000               0.000877620               0.004229354               0.000044845              -0.000199561               0.001476291               0.001276730               0.000000000               0.000000000               0.000000000               0.000000000              -0.002306292              -0.000174785              -0.000000000              -0.000843011               0.000222740              -0.000620270               0.000000000               0.000000000               0.000000000               0.000000000              -0.000934026               0.000199663               0.000000000              -0.000375217               0.000191625              -0.000183592               0.000000000               0.000000000               0.000000000               0.000000000               0.000039276               0.000646788               0.000000000              -0.000066120               0.000237634               0.000171514               0.000000000               0.000000000               0.000000000               0.000000000               0.000450114               0.001206036              -0.000000000               0.000018038               0.000395995               0.000414033               0.000000000               0.000000000               0.000000000               0.000000000               0.000622043               0.001720492              -0.000000000               0.000018204               0.000567424               0.000585628               0.000000000               0.000000000               0.000000000               0.000000000               0.000683263               0.002165972               0.000000000              -0.000014523               0.000726825               0.000712302               0.000000000               0.000000000               0.000000000               0.000000000               0.000695073               0.002549844               0.000000000              -0.000058078               0.000869299               0.000811221               0.000000000               0.000000000               0.000000000               0.000000000               0.000685569               0.002878638               0.000000000              -0.000102741               0.000993783               0.000891042               0.000000000               0.000000000               0.000000000               0.000000000               0.000667219               0.003161502              -0.000000000              -0.000144980               0.001102150               0.000957170               0.000000000               0.000000000               0.000000000               0.000000000               0.000645656               0.003410275              -0.000000000              -0.000184163               0.001198135               0.001013972               0.000000000               0.000000000               0.000000000               0.000000000               0.000628160               0.003618506              -0.000000000              -0.000216753               0.001278407               0.001061655               0.000000000               0.000000000               0.000000000               0.000000000               0.000622145               0.003781561              -0.000000000              -0.000239390               0.001340305               0.001100914               0.000000000               0.000000000               0.000000000               0.000000000               0.000633465               0.003913168               0.000000000              -0.000251596               0.001388242               0.001136646               0.000000000               0.000000000               0.000000000               0.000000000               0.000669161               0.004021835              -0.000000000              -0.000251794               0.001424529               0.001172736               0.000000000               0.000000000               0.000000000               0.000000000               0.000738533               0.004110538              -0.000000000              -0.000236867               0.001449121               0.001212255               0.000000000               0.000000000               0.000000000               0.000000000               0.000855924               0.004179575               0.000000000              -0.000201475               0.001460336               0.001258861               0.000000000               0.000000000               0.000000000               0.000000000               0.000965495               0.004220874               0.000000000              -0.000165548               0.001462127               0.001296579               0.000000000               0.000000000               0.000000000               0.000000000               0.001175762               0.013348756               0.000000000              -0.001227681               0.004858768               0.003631087               0.000000000               0.000000000               0.000000000               0.000000000               0.001257306               0.010841765              -0.000000000              -0.000883729               0.003908462               0.003024733               0.000000000               0.000000000               0.000000000               0.000000000               0.001732019               0.008811999              -0.000000000              -0.000451992               0.003087968               0.002635976               0.000000000               0.000000000               0.000000000               0.000000000               0.001774964               0.007686730               0.000000000              -0.000295229               0.002660627               0.002365398               0.000000000               0.000000000               0.000000000               0.000000000               0.001663629               0.007011646               0.000000000              -0.000252594               0.002421390               0.002168796               0.000000000               0.000000000               0.000000000               0.000000000               0.001503540               0.006586914              -0.000000000              -0.000259536               0.002282128               0.002022592               0.000000000               0.000000000               0.000000000               0.000000000               0.001332907               0.006301560              -0.000000000              -0.000287854               0.002196450               0.001908596               0.000000000               0.000000000               0.000000000               0.000000000               0.001166550               0.006098503              -0.000000000              -0.000324856               0.002141099               0.001816244               0.000000000               0.000000000               0.000000000               0.000000000               0.001012005               0.005952212               0.000000000              -0.000364524               0.002105559               0.001741035               0.000000000               0.000000000               0.000000000               0.000000000               0.000863888               0.005845741               0.000000000              -0.000406759               0.002084147               0.001677388               0.000000000               0.000000000               0.000000000               0.000000000               0.000713002               0.005761728               0.000000000              -0.000452839               0.002071503               0.001618664               0.000000000               0.000000000               0.000000000               0.000000000               0.000564709               0.005691120               0.000000000              -0.000499623               0.002063562               0.001563939               0.000000000               0.000000000               0.000000000               0.000000000               0.000426593               0.005628311               0.000000000              -0.000543565               0.002057273               0.001513708               0.000000000               0.000000000               0.000000000               0.000000000               0.000300212               0.005564996              -0.000000000              -0.000583044               0.002049328               0.001466284               0.000000000               0.000000000               0.000000000               0.000000000               0.000185055               0.005486507               0.000000000              -0.000616416               0.002034289               0.001417873               0.000000000               0.000000000               0.000000000               0.000000000               0.000085297               0.005380195               0.000000000              -0.000640537               0.002006893               0.001366356               0.000000000               0.000000000               0.000000000               0.000000000               0.000031687               0.005292489              -0.000000000              -0.000649677               0.001980704               0.001331028               0.000000000               0.000000000               0.000000000               0.000000000               0.001239098               0.013104452              -0.000977602              -0.001173392               0.004759238               0.003585846               0.000000000               0.000000000               0.000000000               0.000000000               0.001264142               0.010671734              -0.000583944              -0.000859912               0.003843846               0.002983935               0.000000000               0.000000000               0.000000000               0.000000000               0.001679547               0.008726668              -0.000181627              -0.000461002               0.003062528               0.002601525               0.000000000               0.000000000               0.000000000               0.000000000               0.001696047               0.007647236               0.000000406              -0.000319886               0.002655682               0.002335796               0.000000000               0.000000000               0.000000000               0.000000000               0.001575144               0.006995911               0.000085096              -0.000283809               0.002426550               0.002142741               0.000000000               0.000000000               0.000000000               0.000000000               0.001414440               0.006581460               0.000123391              -0.000292267               0.002291220               0.001998954               0.000000000               0.000000000               0.000000000               0.000000000               0.001247181               0.006302865               0.000135935              -0.000320164               0.002207656               0.001887491               0.000000000               0.000000000               0.000000000               0.000000000               0.001086934               0.006104116               0.000137411              -0.000355413               0.002153156               0.001797743               0.000000000               0.000000000               0.000000000               0.000000000               0.000937888               0.005958090               0.000136257              -0.000393052               0.002117028               0.001723975               0.000000000               0.000000000               0.000000000               0.000000000               0.000793529               0.005847098               0.000132988              -0.000433313               0.002093451               0.001660138               0.000000000               0.000000000               0.000000000               0.000000000               0.000650215               0.005757997               0.000127222              -0.000475918               0.002077952               0.001602035               0.000000000               0.000000000               0.000000000               0.000000000               0.000512925               0.005682595               0.000120512              -0.000517976               0.002066838               0.001548862               0.000000000               0.000000000               0.000000000               0.000000000               0.000386638               0.005613819               0.000113020              -0.000556737               0.002056833               0.001500097               0.000000000               0.000000000               0.000000000               0.000000000               0.000273450               0.005544770               0.000100376              -0.000590551               0.002045089               0.001454537               0.000000000               0.000000000               0.000000000               0.000000000               0.000170663               0.005464041               0.000078199              -0.000619005               0.002027664               0.001408659               0.000000000               0.000000000               0.000000000               0.000000000               0.000078800               0.005361783               0.000044147              -0.000640671               0.002000800               0.001360129               0.000000000               0.000000000               0.000000000               0.000000000               0.000028874               0.005282311               0.000026095              -0.000649459               0.001977239               0.001327780               0.000000000               0.000000000               0.000000000               0.000000000               0.001405659               0.012403991              -0.001834225              -0.001023375               0.004475747               0.003452372               0.000000000               0.000000000               0.000000000               0.000000000               0.001271690               0.010189995              -0.001094601              -0.000796864               0.003662252               0.002865388               0.000000000               0.000000000               0.000000000               0.000000000               0.001516635               0.008483260              -0.000346379              -0.000491668               0.002991615               0.002499946               0.000000000               0.000000000               0.000000000               0.000000000               0.001465207               0.007528253              -0.000017476              -0.000391578               0.002639919               0.002248341               0.000000000               0.000000000               0.000000000               0.000000000               0.001326877               0.006944248               0.000132167              -0.000370451               0.002438210               0.002067759               0.000000000               0.000000000               0.000000000               0.000000000               0.001172053               0.006561086               0.000199380              -0.000380615               0.002313879               0.001933264               0.000000000               0.000000000               0.000000000               0.000000000               0.001019054               0.006294994               0.000223044              -0.000404728               0.002233220               0.001828492               0.000000000               0.000000000               0.000000000               0.000000000               0.000873363               0.006100031               0.000226418              -0.000434992               0.002178320               0.001743329               0.000000000               0.000000000               0.000000000               0.000000000               0.000739248               0.005952159               0.000224686              -0.000466801               0.002139634               0.001672833               0.000000000               0.000000000               0.000000000               0.000000000               0.000611868               0.005837078               0.000220098              -0.000500183               0.002112401               0.001612218               0.000000000               0.000000000               0.000000000               0.000000000               0.000491114               0.005741426               0.000211670              -0.000533509               0.002091626               0.001558117               0.000000000               0.000000000               0.000000000               0.000000000               0.000380278               0.005655440               0.000200319              -0.000564324               0.002073236               0.001508911               0.000000000               0.000000000               0.000000000               0.000000000               0.000280683               0.005573906               0.000186272              -0.000591481               0.002055110               0.001463630               0.000000000               0.000000000               0.000000000               0.000000000               0.000196222               0.005493263               0.000163734              -0.000613073               0.002035427               0.001422354               0.000000000               0.000000000               0.000000000               0.000000000               0.000122405               0.005409093               0.000125757              -0.000630233               0.002013091               0.001382857               0.000000000               0.000000000               0.000000000               0.000000000               0.000055623               0.005320564               0.000070825              -0.000644210               0.001988241               0.001344030               0.000000000               0.000000000               0.000000000               0.000000000               0.000019786               0.005262764               0.000041875              -0.000650424               0.001971045               0.001320621               0.000000000               0.000000000               0.000000000               0.000000000               0.001615526               0.011329189              -0.002484071              -0.000810326               0.004046467               0.003236141               0.000000000               0.000000000               0.000000000               0.000000000               0.001257250               0.009464062              -0.001489124              -0.000711538               0.003391835               0.002680297               0.000000000               0.000000000               0.000000000               0.000000000               0.001259624               0.008114358              -0.000493304              -0.000541934               0.002885404               0.002343469               0.000000000               0.000000000               0.000000000               0.000000000               0.001123127               0.007336552              -0.000070539              -0.000495895               0.002610791               0.002114896               0.000000000               0.000000000               0.000000000               0.000000000               0.000968419               0.006841161               0.000115751              -0.000491987               0.002444360               0.001952373               0.000000000               0.000000000               0.000000000               0.000000000               0.000827804               0.006497958               0.000196127              -0.000501817               0.002333237               0.001831420               0.000000000               0.000000000               0.000000000               0.000000000               0.000702405               0.006243220               0.000226611              -0.000516999               0.002253386               0.001736386               0.000000000               0.000000000               0.000000000               0.000000000               0.000586048               0.006050573               0.000234562              -0.000536552               0.002195688               0.001659136               0.000000000               0.000000000               0.000000000               0.000000000               0.000481735               0.005905257               0.000237580              -0.000557505               0.002154234               0.001596729               0.000000000               0.000000000               0.000000000               0.000000000               0.000384725               0.005789815               0.000237239              -0.000579453               0.002123070               0.001543617               0.000000000               0.000000000               0.000000000               0.000000000               0.000294643               0.005688001               0.000228927              -0.000600507               0.002096150               0.001495643               0.000000000               0.000000000               0.000000000               0.000000000               0.000219210               0.005594373               0.000215125              -0.000617091               0.002070469               0.001453378               0.000000000               0.000000000               0.000000000               0.000000000               0.000157954               0.005505226               0.000197749              -0.000628919               0.002044697               0.001415778               0.000000000               0.000000000               0.000000000               0.000000000               0.000108445               0.005419637               0.000170025              -0.000636786               0.002018790               0.001382004               0.000000000               0.000000000               0.000000000               0.000000000               0.000069104               0.005341080               0.000127058              -0.000641719               0.001994249               0.001352529               0.000000000               0.000000000               0.000000000               0.000000000               0.000033430               0.005276147               0.000070238              -0.000646980               0.001974358               0.001327378               0.000000000               0.000000000               0.000000000               0.000000000               0.000014174               0.005244896               0.000039765              -0.000650295               0.001965046               0.001314751               0.000000000               0.000000000               0.000000000               0.000000000               0.001800486               0.009994123              -0.002883361              -0.000574084               0.003522702               0.002948618               0.000000000               0.000000000               0.000000000               0.000000000               0.001201582               0.008577533              -0.001755349              -0.000621598               0.003066348               0.002444750               0.000000000               0.000000000               0.000000000               0.000000000               0.000944724               0.007659025              -0.000635998              -0.000603105               0.002754018               0.002150913               0.000000000               0.000000000               0.000000000               0.000000000               0.000734448               0.007077516              -0.000177750              -0.000609270               0.002562239               0.001952968               0.000000000               0.000000000               0.000000000               0.000000000               0.000576067               0.006672482               0.000020301              -0.000618033               0.002430150               0.001812116               0.000000000               0.000000000               0.000000000               0.000000000               0.000461920               0.006369795               0.000106947              -0.000623003               0.002330911               0.001707909               0.000000000               0.000000000               0.000000000               0.000000000               0.000376134               0.006134096               0.000146892              -0.000625710               0.002253248               0.001627538               0.000000000               0.000000000               0.000000000               0.000000000               0.000301308               0.005955053               0.000168196              -0.000631390               0.002195461               0.001564071               0.000000000               0.000000000               0.000000000               0.000000000               0.000237441               0.005816857               0.000181856              -0.000638065               0.002151621               0.001513556               0.000000000               0.000000000               0.000000000               0.000000000               0.000179431               0.005697110               0.000187987              -0.000644851               0.002113968               0.001469117               0.000000000               0.000000000               0.000000000               0.000000000               0.000124624               0.005587387               0.000183712              -0.000651688               0.002079673               0.001427985               0.000000000               0.000000000               0.000000000               0.000000000               0.000084249               0.005486983               0.000171982              -0.000654278               0.002047069               0.001392791               0.000000000               0.000000000               0.000000000               0.000000000               0.000058739               0.005395464               0.000154719              -0.000652404               0.002015938               0.001363534               0.000000000               0.000000000               0.000000000               0.000000000               0.000041746               0.005314256               0.000127862              -0.000648626               0.001987610               0.001338984               0.000000000               0.000000000               0.000000000               0.000000000               0.000030956               0.005247961               0.000090654              -0.000644385               0.001964098               0.001319713               0.000000000               0.000000000               0.000000000               0.000000000               0.000016621               0.005202092               0.000047561              -0.000644027               0.001948689               0.001304662               0.000000000               0.000000000               0.000000000               0.000000000               0.000006625               0.005184196               0.000025493              -0.000645539               0.001943228               0.001297689               0.000000000               0.000000000               0.000000000               0.000000000               0.001899685               0.008533726              -0.003028505              -0.000354336               0.002962658               0.002608322               0.000000000               0.000000000               0.000000000               0.000000000               0.001094914               0.007621414              -0.001900841              -0.000542084               0.002721140               0.002179056               0.000000000               0.000000000               0.000000000               0.000000000               0.000607877               0.007159855              -0.000782789              -0.000667027               0.002608937               0.001941910               0.000000000               0.000000000               0.000000000               0.000000000               0.000357345               0.006766163              -0.000332285              -0.000711764               0.002492620               0.001780856               0.000000000               0.000000000               0.000000000               0.000000000               0.000219756               0.006448894              -0.000133781              -0.000723702               0.002390844               0.001667142               0.000000000               0.000000000               0.000000000               0.000000000               0.000146032               0.006189948              -0.000038686              -0.000718980               0.002302956               0.001583976               0.000000000               0.000000000               0.000000000               0.000000000               0.000106271               0.005984697               0.000017107              -0.000708234               0.002230957               0.001522723               0.000000000               0.000000000               0.000000000               0.000000000               0.000075236               0.005824096               0.000055036              -0.000699797               0.002174612               0.001474815               0.000000000               0.000000000               0.000000000               0.000000000               0.000047075               0.005685841               0.000079683              -0.000693075               0.002126286               0.001433211               0.000000000               0.000000000               0.000000000               0.000000000               0.000024619               0.005560715               0.000095060              -0.000685855               0.002082172               0.001396316               0.000000000               0.000000000               0.000000000               0.000000000               0.000008911               0.005447158               0.000099265              -0.000677551               0.002041552               0.001364000               0.000000000               0.000000000               0.000000000               0.000000000               0.000001211               0.005342538               0.000094723              -0.000667362               0.002003282               0.001335921               0.000000000               0.000000000               0.000000000               0.000000000               0.000000711               0.005249391               0.000086015              -0.000655906               0.001968415               0.001312509               0.000000000               0.000000000               0.000000000               0.000000000               0.000005639               0.005170911               0.000069933              -0.000644248               0.001938369               0.001294121               0.000000000               0.000000000               0.000000000               0.000000000               0.000010676               0.005109047               0.000047684              -0.000634626               0.001914540               0.001279915               0.000000000               0.000000000               0.000000000               0.000000000               0.000007284               0.005061712               0.000024393              -0.000629981               0.001897214               0.001267233               0.000000000               0.000000000               0.000000000               0.000000000              -0.000000462               0.005035590               0.000014649              -0.000629620               0.001888387               0.001258766               0.000000000               0.000000000               0.000000000               0.000000000               0.001870037               0.007074949              -0.002952498              -0.000183108               0.002419328               0.002236220               0.000000000               0.000000000               0.000000000               0.000000000               0.000940188               0.006678441              -0.001945137              -0.000482235               0.002386869               0.001904634               0.000000000               0.000000000               0.000000000               0.000000000               0.000288157               0.006652002              -0.000932964              -0.000723440               0.002458458               0.001735018               0.000000000               0.000000000               0.000000000               0.000000000               0.000038155               0.006426153              -0.000515386              -0.000788959               0.002405016               0.001616057               0.000000000               0.000000000               0.000000000               0.000000000              -0.000056876               0.006188008              -0.000315862              -0.000794828               0.002327591               0.001532763               0.000000000               0.000000000               0.000000000               0.000000000              -0.000079091               0.005976962              -0.000208321              -0.000776778               0.002251227               0.001474449               0.000000000               0.000000000               0.000000000               0.000000000              -0.000076448               0.005803051              -0.000135220              -0.000754048               0.002185680               0.001431633               0.000000000               0.000000000               0.000000000               0.000000000              -0.000074739               0.005652967              -0.000080192              -0.000734646               0.002129186               0.001394540               0.000000000               0.000000000               0.000000000               0.000000000              -0.000071918               0.005517928              -0.000040400              -0.000716709               0.002078194               0.001361485               0.000000000               0.000000000               0.000000000               0.000000000              -0.000063501               0.005394472              -0.000010008              -0.000698120               0.002030846               0.001332726               0.000000000               0.000000000               0.000000000               0.000000000              -0.000051258               0.005277488               0.000009744              -0.000678906               0.001985447               0.001306541               0.000000000               0.000000000               0.000000000               0.000000000              -0.000037415               0.005169883               0.000019383              -0.000660264               0.001943365               0.001283101               0.000000000               0.000000000               0.000000000               0.000000000              -0.000022686               0.005073733               0.000025459              -0.000642722               0.001905468               0.001262746               0.000000000               0.000000000               0.000000000               0.000000000              -0.000010231               0.004989905               0.000026842              -0.000627573               0.001872476               0.001244903               0.000000000               0.000000000               0.000000000               0.000000000              -0.000003963               0.004919352               0.000022170              -0.000616404               0.001845235               0.001228832               0.000000000               0.000000000               0.000000000               0.000000000              -0.000002106               0.004858384               0.000014418              -0.000608086               0.001822140               0.001214054               0.000000000               0.000000000               0.000000000               0.000000000              -0.000007694               0.004819027               0.000013592              -0.000605262               0.001808080               0.001202818               0.000000000               0.000000000               0.000000000               0.000000000               0.001713112               0.005709894              -0.002700224              -0.000071323               0.001927052               0.001855729               0.000000000               0.000000000               0.000000000               0.000000000               0.000744073               0.005803931              -0.001912355              -0.000446465               0.002083445               0.001636981               0.000000000               0.000000000               0.000000000               0.000000000               0.000020381               0.006147716              -0.001087159              -0.000760820               0.002302825               0.001542004               0.000000000               0.000000000               0.000000000               0.000000000              -0.000188715               0.006065078              -0.000709638              -0.000828901               0.002297973               0.001469072               0.000000000               0.000000000               0.000000000               0.000000000              -0.000231098               0.005900801              -0.000502483              -0.000824260               0.002241667               0.001417407               0.000000000               0.000000000               0.000000000               0.000000000              -0.000208688               0.005738532              -0.000375701              -0.000795573               0.002178016               0.001382443               0.000000000               0.000000000               0.000000000               0.000000000              -0.000175004               0.005593929              -0.000282415              -0.000764866               0.002119580               0.001354714               0.000000000               0.000000000               0.000000000               0.000000000              -0.000147833               0.005460507              -0.000206820              -0.000737999               0.002066150               0.001328152               0.000000000               0.000000000               0.000000000               0.000000000              -0.000121056               0.005334483              -0.000146939              -0.000712204               0.002015545               0.001303340               0.000000000               0.000000000               0.000000000               0.000000000              -0.000095291               0.005209075              -0.000098146              -0.000686867               0.001965296               0.001278430               0.000000000               0.000000000               0.000000000               0.000000000              -0.000069212               0.005086395              -0.000059801              -0.000661752               0.001916032               0.001254280               0.000000000               0.000000000               0.000000000               0.000000000              -0.000048132               0.004971453              -0.000030957              -0.000639480               0.001870294               0.001230815               0.000000000               0.000000000               0.000000000               0.000000000              -0.000033543               0.004867149              -0.000008808              -0.000620970               0.001829357               0.001208386               0.000000000               0.000000000               0.000000000               0.000000000              -0.000026502               0.004773029               0.000006709              -0.000606565               0.001793182               0.001186617               0.000000000               0.000000000               0.000000000               0.000000000              -0.000020516               0.004690547               0.000013783              -0.000594010               0.001761503               0.001167493               0.000000000               0.000000000               0.000000000               0.000000000              -0.000012874               0.004617592               0.000012723              -0.000582025               0.001733190               0.001151165               0.000000000               0.000000000               0.000000000               0.000000000              -0.000013600               0.004571805               0.000013540              -0.000576574               0.001716111               0.001139537               0.000000000               0.000000000               0.000000000               0.000000000               0.001477481               0.004532543              -0.002337237              -0.000012516               0.001515004               0.001502488               0.000000000               0.000000000               0.000000000               0.000000000               0.000558993               0.005021602              -0.001845749              -0.000418079               0.001813209               0.001395131               0.000000000               0.000000000               0.000000000               0.000000000              -0.000158914               0.005673529              -0.001265341              -0.000768783               0.002147418               0.001378635               0.000000000               0.000000000               0.000000000               0.000000000              -0.000313830               0.005735676              -0.000919526              -0.000834644               0.002190088               0.001355444               0.000000000               0.000000000               0.000000000               0.000000000              -0.000315295               0.005654178              -0.000696611              -0.000825006               0.002159709               0.001334703               0.000000000               0.000000000               0.000000000               0.000000000              -0.000265854               0.005541861              -0.000541998              -0.000792426               0.002111410               0.001318984               0.000000000               0.000000000               0.000000000               0.000000000              -0.000214844               0.005429882              -0.000424488              -0.000759300               0.002063043               0.001303743               0.000000000               0.000000000               0.000000000               0.000000000              -0.000173302               0.005320457              -0.000329713              -0.000730044               0.002016816               0.001286772               0.000000000               0.000000000               0.000000000               0.000000000              -0.000129544               0.005203933              -0.000252492              -0.000699069               0.001967650               0.001268581               0.000000000               0.000000000               0.000000000               0.000000000              -0.000091081               0.005076376              -0.000186112              -0.000668701               0.001915008               0.001246308               0.000000000               0.000000000               0.000000000               0.000000000              -0.000058178               0.004947885              -0.000129455              -0.000640301               0.001862712               0.001222411               0.000000000               0.000000000               0.000000000               0.000000000              -0.000037861               0.004823279              -0.000081211              -0.000617106               0.001813446               0.001196339               0.000000000               0.000000000               0.000000000               0.000000000              -0.000034604               0.004706741              -0.000042138              -0.000601318               0.001769337               0.001168020               0.000000000               0.000000000               0.000000000               0.000000000              -0.000044393               0.004598906              -0.000014202              -0.000591509               0.001730123               0.001138614               0.000000000               0.000000000               0.000000000               0.000000000              -0.000055308               0.004499629               0.000001932              -0.000583193               0.001694259               0.001111066               0.000000000               0.000000000               0.000000000               0.000000000              -0.000056161               0.004411939               0.000006687              -0.000572551               0.001661482               0.001088931               0.000000000               0.000000000               0.000000000               0.000000000              -0.000052276               0.004365534               0.000007241              -0.000565294               0.001643595               0.001078301               0.000000000               0.000000000               0.000000000               0.000000000               0.001144897               0.003411783              -0.001928666               0.000002861               0.001136295               0.001139156               0.000000000               0.000000000               0.000000000               0.000000000               0.000423781               0.004129143              -0.001765042              -0.000357226               0.001495442               0.001138216               0.000000000               0.000000000               0.000000000               0.000000000              -0.000214810               0.005002197              -0.001468467              -0.000705827               0.001902658               0.001196830               0.000000000               0.000000000               0.000000000               0.000000000              -0.000343050               0.005250213              -0.001165377              -0.000784919               0.002011693               0.001226774               0.000000000               0.000000000               0.000000000               0.000000000              -0.000336841               0.005292692              -0.000926664              -0.000787900               0.002026846               0.001238946               0.000000000               0.000000000               0.000000000               0.000000000              -0.000287000               0.005260609              -0.000741483              -0.000765199               0.002008585               0.001243386               0.000000000               0.000000000               0.000000000               0.000000000              -0.000233320               0.005206492              -0.000596839              -0.000738305               0.001981582               0.001243277               0.000000000               0.000000000               0.000000000               0.000000000              -0.000189411               0.005143750              -0.000483960              -0.000713996               0.001952565               0.001238569               0.000000000               0.000000000               0.000000000               0.000000000              -0.000146022               0.005060847              -0.000391712              -0.000687362               0.001916053               0.001228690               0.000000000               0.000000000               0.000000000               0.000000000              -0.000102534               0.004958388              -0.000310842              -0.000658247               0.001872195               0.001213948               0.000000000               0.000000000               0.000000000               0.000000000              -0.000067281               0.004845334              -0.000235833              -0.000630896               0.001825394               0.001194498               0.000000000               0.000000000               0.000000000               0.000000000              -0.000046404               0.004729163              -0.000163589              -0.000608545               0.001779220               0.001170675               0.000000000               0.000000000               0.000000000               0.000000000              -0.000044314               0.004616568              -0.000100796              -0.000593687               0.001736736               0.001143049               0.000000000               0.000000000               0.000000000               0.000000000              -0.000061243               0.004508008              -0.000052255              -0.000586466               0.001698143               0.001111677               0.000000000               0.000000000               0.000000000               0.000000000              -0.000089678               0.004408801              -0.000019627              -0.000584728               0.001664495               0.001079767               0.000000000               0.000000000               0.000000000               0.000000000              -0.000118373               0.004317150              -0.000002981              -0.000584032               0.001633713               0.001049681               0.000000000               0.000000000               0.000000000               0.000000000              -0.000131065               0.004269499               0.000002082              -0.000582835               0.001617431               0.001034595               0.000000000               0.000000000               0.000000000               0.000000000               0.000664811               0.002376034              -0.001489706              -0.000047702               0.000807903               0.000760201               0.000000000               0.000000000               0.000000000               0.000000000               0.000273522               0.003240535              -0.001635644              -0.000302497               0.001180999               0.000878502               0.000000000               0.000000000               0.000000000               0.000000000              -0.000197653               0.004250604              -0.001625379              -0.000605445               0.001618668               0.001013223               0.000000000               0.000000000               0.000000000               0.000000000              -0.000302310               0.004674575              -0.001400218              -0.000697687               0.001790738               0.001093051               0.000000000               0.000000000               0.000000000               0.000000000              -0.000301660               0.004852932              -0.001167545              -0.000719738               0.001857540               0.001137802               0.000000000               0.000000000               0.000000000               0.000000000              -0.000264483               0.004922508              -0.000963594              -0.000714493               0.001878984               0.001164491               0.000000000               0.000000000               0.000000000               0.000000000              -0.000216557               0.004945641              -0.000795148              -0.000699412               0.001881668               0.001182255               0.000000000               0.000000000               0.000000000               0.000000000              -0.000172736               0.004939790              -0.000666372              -0.000682248               0.001873996               0.001191748               0.000000000               0.000000000               0.000000000               0.000000000              -0.000134895               0.004904390              -0.000564009              -0.000663633               0.001855991               0.001192358               0.000000000               0.000000000               0.000000000               0.000000000              -0.000093980               0.004843883              -0.000472624              -0.000640726               0.001828187               0.001187461               0.000000000               0.000000000               0.000000000               0.000000000              -0.000061052               0.004760519              -0.000382781              -0.000617958               0.001792810               0.001174852               0.000000000               0.000000000               0.000000000               0.000000000              -0.000039237               0.004667431              -0.000293415              -0.000598141               0.001755175               0.001157034               0.000000000               0.000000000               0.000000000               0.000000000              -0.000032199               0.004571140              -0.000208736              -0.000583465               0.001718186               0.001134721               0.000000000               0.000000000               0.000000000               0.000000000              -0.000048763               0.004475300              -0.000132509              -0.000577697               0.001684317               0.001106620               0.000000000               0.000000000               0.000000000               0.000000000              -0.000088827               0.004387302              -0.000070803              -0.000581721               0.001656326               0.001074605               0.000000000               0.000000000               0.000000000               0.000000000              -0.000148851               0.004305211              -0.000025806              -0.000593969               0.001633046               0.001039077               0.000000000               0.000000000               0.000000000               0.000000000              -0.000193310               0.004258179              -0.000003175              -0.000604762               0.001620966               0.001016204               0.000000000               0.000000000               0.000000000               0.000000000               0.000074017               0.001493975              -0.001044619              -0.000158991               0.000550983               0.000391992               0.000000000               0.000000000               0.000000000               0.000000000               0.000068586               0.002397894              -0.001429815              -0.000274018               0.000890628               0.000616611               0.000000000               0.000000000               0.000000000               0.000000000              -0.000148882               0.003425003              -0.001660828              -0.000483956               0.001302974               0.000819018               0.000000000               0.000000000               0.000000000               0.000000000              -0.000196849               0.003974751              -0.001538082              -0.000570662               0.001515124               0.000944462               0.000000000               0.000000000               0.000000000               0.000000000              -0.000191845               0.004283099              -0.001341245              -0.000607329               0.001630128               0.001022799               0.000000000               0.000000000               0.000000000               0.000000000              -0.000167226               0.004462447              -0.001143829              -0.000620515               0.001694305               0.001073791               0.000000000               0.000000000               0.000000000               0.000000000              -0.000131780               0.004570817              -0.000970434              -0.000620769               0.001730513               0.001109744               0.000000000               0.000000000               0.000000000               0.000000000              -0.000095879               0.004637343              -0.000831260              -0.000615621               0.001750972               0.001135351               0.000000000               0.000000000               0.000000000               0.000000000              -0.000067132               0.004666643              -0.000721102              -0.000608503               0.001758367               0.001149863               0.000000000               0.000000000               0.000000000               0.000000000              -0.000039403               0.004663013              -0.000622790              -0.000597652               0.001753539               0.001155888               0.000000000               0.000000000               0.000000000               0.000000000              -0.000013743               0.004630008              -0.000525528              -0.000583903               0.001737955               0.001154052               0.000000000               0.000000000               0.000000000               0.000000000               0.000005526               0.004572704              -0.000430608              -0.000569514               0.001714057               0.001144543               0.000000000               0.000000000               0.000000000               0.000000000               0.000014735               0.004502932              -0.000334425              -0.000557340               0.001686742               0.001129403               0.000000000               0.000000000               0.000000000               0.000000000               0.000005902               0.004431646              -0.000237913              -0.000551741               0.001661114               0.001109373               0.000000000               0.000000000               0.000000000               0.000000000              -0.000031252               0.004362898              -0.000147273              -0.000557080               0.001639978               0.001082898               0.000000000               0.000000000               0.000000000               0.000000000              -0.000101473               0.004296774              -0.000066909              -0.000575148               0.001623959               0.001048812               0.000000000               0.000000000               0.000000000               0.000000000              -0.000166397               0.004249917              -0.000021908              -0.000593637               0.001614504               0.001020867               0.000000000               0.000000000               0.000000000               0.000000000              -0.000582832               0.000816604              -0.000644619              -0.000320637               0.000379077               0.000058440               0.000000000               0.000000000               0.000000000               0.000000000              -0.000184668               0.001649891              -0.001166230              -0.000275487               0.000641787               0.000366299               0.000000000               0.000000000               0.000000000               0.000000000              -0.000087535               0.002591152              -0.001558344              -0.000356720               0.000982615               0.000625894               0.000000000               0.000000000               0.000000000               0.000000000              -0.000041434               0.003207227              -0.001534320              -0.000416442               0.001207878               0.000791436               0.000000000               0.000000000               0.000000000               0.000000000              -0.000015286               0.003617848              -0.001392464              -0.000457963               0.001358591               0.000900628               0.000000000               0.000000000               0.000000000               0.000000000               0.000006239               0.003896592              -0.001226222              -0.000484734               0.001460429               0.000975695               0.000000000               0.000000000               0.000000000               0.000000000               0.000027317               0.004093701              -0.001068347              -0.000501468               0.001531709               0.001030241               0.000000000               0.000000000               0.000000000               0.000000000               0.000047238               0.004240708              -0.000933441              -0.000512373               0.001584346               0.001071973               0.000000000               0.000000000               0.000000000               0.000000000               0.000062654               0.004343750              -0.000823255              -0.000519473               0.001621060               0.001101587               0.000000000               0.000000000               0.000000000               0.000000000               0.000076092               0.004406924              -0.000724754              -0.000522330               0.001643070               0.001120740               0.000000000               0.000000000               0.000000000               0.000000000               0.000092123               0.004435985              -0.000628763              -0.000519951               0.001651964               0.001132013               0.000000000               0.000000000               0.000000000               0.000000000               0.000106538               0.004429068              -0.000535717              -0.000513681               0.001647568               0.001133887               0.000000000               0.000000000               0.000000000               0.000000000               0.000117275               0.004401205              -0.000439938              -0.000506171               0.001635777               0.001129606               0.000000000               0.000000000               0.000000000               0.000000000               0.000120293               0.004366310              -0.000336082              -0.000500678               0.001622315               0.001121637               0.000000000               0.000000000               0.000000000               0.000000000               0.000101963               0.004326495              -0.000227406              -0.000502574               0.001609675               0.001107101               0.000000000               0.000000000               0.000000000               0.000000000               0.000048296               0.004282319              -0.000115603              -0.000517178               0.001599818               0.001082640               0.000000000               0.000000000               0.000000000               0.000000000              -0.000012508               0.004244877              -0.000051312              -0.000535299               0.001593378               0.001058079               0.000000000               0.000000000               0.000000000               0.000000000              -0.001233477               0.000344835              -0.000334854              -0.000505658               0.000283495              -0.000222162               0.000000000               0.000000000               0.000000000               0.000000000              -0.000457530               0.001035639              -0.000873845              -0.000301029               0.000445552               0.000144523               0.000000000               0.000000000               0.000000000               0.000000000              -0.000030735               0.001823099              -0.001318028              -0.000239414               0.000687497               0.000448084               0.000000000               0.000000000               0.000000000               0.000000000               0.000136285               0.002449861              -0.001363042              -0.000255126               0.000901653               0.000646527               0.000000000               0.000000000               0.000000000               0.000000000               0.000202211               0.002924880              -0.001278419              -0.000289781               0.001071544               0.000781762               0.000000000               0.000000000               0.000000000               0.000000000               0.000229142               0.003284490              -0.001155599              -0.000324633               0.001203030               0.000878397               0.000000000               0.000000000               0.000000000               0.000000000               0.000241457               0.003559515              -0.001028885              -0.000354393               0.001304624               0.000950231               0.000000000               0.000000000               0.000000000               0.000000000               0.000247470               0.003777544              -0.000915028              -0.000379391               0.001385632               0.001006241               0.000000000               0.000000000               0.000000000               0.000000000               0.000249938               0.003951040              -0.000818389              -0.000400153               0.001450384               0.001050231               0.000000000               0.000000000               0.000000000               0.000000000               0.000251058               0.004084236              -0.000731417              -0.000416382               0.001500192               0.001083810               0.000000000               0.000000000               0.000000000               0.000000000               0.000254918               0.004182750              -0.000646274              -0.000427249               0.001536652               0.001109404               0.000000000               0.000000000               0.000000000               0.000000000               0.000260221               0.004240230              -0.000563411              -0.000432445               0.001557544               0.001125099               0.000000000               0.000000000               0.000000000               0.000000000               0.000269770               0.004267571              -0.000478285              -0.000432282               0.001566603               0.001134322               0.000000000               0.000000000               0.000000000               0.000000000               0.000284672               0.004278210              -0.000383055              -0.000428023               0.001568730               0.001140707               0.000000000               0.000000000               0.000000000               0.000000000               0.000297746               0.004276514              -0.000274875              -0.000422909               0.001566460               0.001143551               0.000000000               0.000000000               0.000000000               0.000000000               0.000292526               0.004263091              -0.000147928              -0.000423188               0.001562079               0.001138891               0.000000000               0.000000000               0.000000000               0.000000000               0.000273279               0.004246624              -0.000075573              -0.000428347               0.001558310               0.001129962               0.000000000               0.000000000               0.000000000               0.000000000              -0.001791347               0.000044757              -0.000139340              -0.000677349               0.000240700              -0.000436649               0.000000000               0.000000000               0.000000000               0.000000000              -0.000702427               0.000580306              -0.000577952              -0.000335948               0.000305416              -0.000030533               0.000000000               0.000000000               0.000000000               0.000000000               0.000009666               0.001199722              -0.000956277              -0.000146341               0.000448683               0.000302342               0.000000000               0.000000000               0.000000000               0.000000000               0.000298608               0.001800173              -0.001025584              -0.000113044               0.000637733               0.000524688               0.000000000               0.000000000               0.000000000               0.000000000               0.000413381               0.002307617              -0.000984857              -0.000133435               0.000813676               0.000680241               0.000000000               0.000000000               0.000000000               0.000000000               0.000453632               0.002721265              -0.000906803              -0.000170046               0.000963761               0.000793715               0.000000000               0.000000000               0.000000000               0.000000000               0.000464053               0.003052805              -0.000819748              -0.000207581               0.001086785               0.000879204               0.000000000               0.000000000               0.000000000               0.000000000               0.000461967               0.003327374              -0.000739365              -0.000242684               0.001190008               0.000947324               0.000000000               0.000000000               0.000000000               0.000000000               0.000453728               0.003560239              -0.000669893              -0.000274882               0.001278362               0.001003480               0.000000000               0.000000000               0.000000000               0.000000000               0.000443719               0.003755408              -0.000604894              -0.000303031               0.001352801               0.001049770               0.000000000               0.000000000               0.000000000               0.000000000               0.000436397               0.003913429              -0.000539365              -0.000325529               0.001412973               0.001087444               0.000000000               0.000000000               0.000000000               0.000000000               0.000433036               0.004030810              -0.000475113              -0.000341462               0.001457411               0.001115949               0.000000000               0.000000000               0.000000000               0.000000000               0.000440453               0.004114827              -0.000410164              -0.000349183               0.001487990               0.001138807               0.000000000               0.000000000               0.000000000               0.000000000               0.000465911               0.004175864              -0.000337403              -0.000347266               0.001507696               0.001160430               0.000000000               0.000000000               0.000000000               0.000000000               0.000511051               0.004216792              -0.000249333              -0.000335454               0.001517401               0.001181947               0.000000000               0.000000000               0.000000000               0.000000000               0.000570257               0.004234340              -0.000137883              -0.000315446               0.001516581               0.001201136               0.000000000               0.000000000               0.000000000               0.000000000               0.000616287               0.004240696              -0.000076553              -0.000298979               0.001513211               0.001214232               0.000000000               0.000000000               0.000000000               0.000000000              -0.002171314              -0.000121742              -0.000043383              -0.000799025               0.000225759              -0.000573265               0.000000000               0.000000000               0.000000000               0.000000000              -0.000873021               0.000296859              -0.000288608              -0.000364490               0.000220448              -0.000144042               0.000000000               0.000000000               0.000000000               0.000000000               0.000032163               0.000790613              -0.000503918              -0.000086766               0.000292457               0.000205691               0.000000000               0.000000000               0.000000000               0.000000000               0.000410674               0.001360754              -0.000552320              -0.000016092               0.000458944               0.000442852               0.000000000               0.000000000               0.000000000               0.000000000               0.000566283               0.001875004              -0.000539022              -0.000022020               0.000632335               0.000610315               0.000000000               0.000000000               0.000000000               0.000000000               0.000621899               0.002315003              -0.000501671              -0.000056163               0.000790381               0.000734218               0.000000000               0.000000000               0.000000000               0.000000000               0.000633133               0.002685789              -0.000457248              -0.000098299               0.000928020               0.000829721               0.000000000               0.000000000               0.000000000               0.000000000               0.000626484               0.003001112              -0.000415207              -0.000140207               0.001047096               0.000906889               0.000000000               0.000000000               0.000000000               0.000000000               0.000609402               0.003270229              -0.000378591              -0.000180253               0.001150150               0.000969897               0.000000000               0.000000000               0.000000000               0.000000000               0.000590092               0.003503899              -0.000344530              -0.000216703               0.001240189               0.001023486               0.000000000               0.000000000               0.000000000               0.000000000               0.000575679               0.003699454              -0.000308557              -0.000246552               0.001315323               0.001068771               0.000000000               0.000000000               0.000000000               0.000000000               0.000570207               0.003853402              -0.000272277              -0.000267847               0.001373737               0.001105890               0.000000000               0.000000000               0.000000000               0.000000000               0.000580082               0.003976177              -0.000235559              -0.000279491               0.001418543               0.001139052               0.000000000               0.000000000               0.000000000               0.000000000               0.000612803               0.004072946              -0.000194771              -0.000279316               0.001450741               0.001171424               0.000000000               0.000000000               0.000000000               0.000000000               0.000677289               0.004147925              -0.000144708              -0.000264507               0.001470797               0.001206290               0.000000000               0.000000000               0.000000000               0.000000000               0.000782483               0.004199813              -0.000079571              -0.000231545               0.001477105               0.001245560               0.000000000               0.000000000               0.000000000               0.000000000               0.000877620               0.004229354              -0.000044845              -0.000199561               0.001476291               0.001276730               0.000000000               0.000000000               0.000000000               0.000000000               0.000000000               0.000000000               0.000000000               0.000000000               0.000000000               0.000000000               0.000000000               0.000000000               0.000000000               0.000000000               0.000000000               0.000000000               0.000000000               0.000000000               0.000000000               0.000000000               0.000000000               0.000000000               0.000000000               0.000000000               0.000000000               0.000000000               0.000000000               0.000000000               0.000000000               0.000000000               0.000000000               0.000000000               0.000000000               0.000000000               0.000000000               0.000000000               0.000000000               0.000000000               0.000000000               0.000000000               0.000000000               0.000000000               0.000000000               0.000000000               0.000000000               0.000000000               0.000000000               0.000000000               0.000000000               0.000000000               0.000000000               0.000000000               0.000000000               0.000000000               0.000000000               0.000000000               0.000000000               0.000000000               0.000000000               0.000000000               0.000000000               0.000000000               0.000000000               0.000000000               0.000000000               0.000000000               0.000000000               0.000000000               0.000000000               0.000000000               0.000000000               0.000000000               0.000000000               0.000000000               0.000000000               0.000000000               0.000000000               0.000000000               0.000000000               0.000000000               0.000000000               0.000000000               0.000000000               0.000000000               0.000000000               0.000000000               0.000000000               0.000000000               0.000000000               0.000000000               0.000000000               0.000000000               0.000000000               0.000000000               0.000000000               0.000000000               0.000000000               0.000000000               0.000000000               0.000000000               0.000000000               0.000000000               0.000000000               0.000000000               0.000000000               0.000000000               0.000000000               0.000000000               0.000000000               0.000000000               0.000000000               0.000000000               0.000000000               0.000000000               0.000000000               0.000000000               0.000000000               0.000000000               0.000000000               0.000000000               0.000000000               0.000000000               0.000000000               0.000000000               0.000000000               0.000000000               0.000000000               0.000000000               0.000000000               0.000000000               0.000000000               0.000000000               0.000000000               0.000000000               0.000000000               0.000000000               0.000000000               0.000000000               0.000000000               0.000000000               0.000000000               0.000000000               0.000000000               0.000000000               0.000000000               0.000000000               0.000000000               0.000000000               0.000000000               0.000000000               0.000000000               0.000000000               0.000000000               0.000000000               0.000000000               0.000000000               0.000000000               0.000000000               0.000000000               0.000000000               0.000000000               0.000000000               0.000000000               0.000000000               0.000000000               0.000000000               0.000000000               0.000000000               0.000000000               0.000000000               0.000000000               0.000000000               0.000000000               0.000000000               0.000000000               0.000000000               0.000000000               0.000000000               0.000000000               0.000000000               0.000000000               0.000000000               0.000000000               0.000000000               0.000000000               0.000000000               0.000000000               0.000000000               0.000000000               0.000000000               0.000000000               0.000000000               0.000000000               0.000000000               0.000000000               0.000000000               0.000000000               0.000000000               0.000000000               0.000000000               0.000000000               0.000000000               0.000000000               0.000000000               0.000000000               0.000000000               0.000000000               0.000000000               0.000000000               0.000000000               0.000000000               0.000000000               0.000000000               0.000000000               0.000000000               0.000000000               0.000000000               0.000000000               0.000000000               0.000000000               0.000000000               0.000000000               0.000000000               0.000000000               0.000000000               0.000000000               0.000000000               0.000000000               0.000000000               0.000000000               0.000000000               0.000000000               0.000000000               0.000000000               0.000000000               0.000000000               0.000000000               0.000000000               0.000000000               0.000000000               0.000000000               0.000000000               0.000000000               0.000000000               0.000000000               0.000000000               0.000000000               0.000000000               0.000000000               0.000000000               0.000000000               0.000000000               0.000000000               0.000000000               0.000000000               0.000000000               0.000000000               0.000000000               0.000000000               0.000000000               0.000000000               0.000000000               0.000000000               0.000000000               0.000000000               0.000000000               0.000000000               0.000000000               0.000000000               0.000000000               0.000000000               0.000000000               0.000000000               0.000000000               0.000000000               0.000000000               0.000000000               0.000000000               0.000000000               0.000000000               0.000000000               0.000000000               0.000000000               0.000000000               0.000000000               0.000000000               0.000000000               0.000000000               0.000000000               0.000000000               0.000000000               0.000000000               0.000000000               0.000000000               0.000000000               0.000000000               0.000000000               0.000000000               0.000000000               0.000000000               0.000000000               0.000000000               0.000000000               0.000000000               0.000000000               0.000000000               0.000000000               0.000000000               0.000000000               0.000000000               0.000000000               0.000000000               0.000000000               0.000000000               0.000000000               0.000000000               0.000000000               0.000000000               0.000000000               0.000000000               0.000000000               0.000000000               0.000000000               0.000000000               0.000000000               0.000000000               0.000000000               0.000000000               0.000000000               0.000000000               0.000000000               0.000000000               0.000000000               0.000000000               0.000000000               0.000000000               0.000000000               0.000000000               0.000000000               0.000000000               0.000000000               0.000000000               0.000000000               0.000000000               0.001239098               0.013104452               0.000977602              -0.001173392               0.004759238               0.003585846               0.000000000               0.000000000               0.000000000               0.000000000               0.001264142               0.010671734               0.000583944              -0.000859912               0.003843846               0.002983935               0.000000000               0.000000000               0.000000000               0.000000000               0.001679547               0.008726668               0.000181627              -0.000461002               0.003062528               0.002601525               0.000000000               0.000000000               0.000000000               0.000000000               0.001696047               0.007647236              -0.000000406              -0.000319886               0.002655682               0.002335796               0.000000000               0.000000000               0.000000000               0.000000000               0.001575144               0.006995911              -0.000085096              -0.000283809               0.002426550               0.002142741               0.000000000               0.000000000               0.000000000               0.000000000               0.001414440               0.006581460              -0.000123391              -0.000292267               0.002291220               0.001998954               0.000000000               0.000000000               0.000000000               0.000000000               0.001247181               0.006302865              -0.000135935              -0.000320164               0.002207656               0.001887491               0.000000000               0.000000000               0.000000000               0.000000000               0.001086934               0.006104116              -0.000137411              -0.000355413               0.002153156               0.001797743               0.000000000               0.000000000               0.000000000               0.000000000               0.000937888               0.005958090              -0.000136257              -0.000393052               0.002117028               0.001723975               0.000000000               0.000000000               0.000000000               0.000000000               0.000793529               0.005847098              -0.000132988              -0.000433313               0.002093451               0.001660138               0.000000000               0.000000000               0.000000000               0.000000000               0.000650215               0.005757997              -0.000127222              -0.000475918               0.002077952               0.001602035               0.000000000               0.000000000               0.000000000               0.000000000               0.000512925               0.005682595              -0.000120512              -0.000517976               0.002066838               0.001548862               0.000000000               0.000000000               0.000000000               0.000000000               0.000386638               0.005613819              -0.000113020              -0.000556737               0.002056833               0.001500097               0.000000000               0.000000000               0.000000000               0.000000000               0.000273450               0.005544770              -0.000100376              -0.000590551               0.002045089               0.001454537               0.000000000               0.000000000               0.000000000               0.000000000               0.000170663               0.005464041              -0.000078199              -0.000619005               0.002027664               0.001408659               0.000000000               0.000000000               0.000000000               0.000000000               0.000078800               0.005361783              -0.000044147              -0.000640671               0.002000800               0.001360129               0.000000000               0.000000000               0.000000000               0.000000000               0.000028874               0.005282311              -0.000026095              -0.000649459               0.001977239               0.001327780               0.000000000               0.000000000               0.000000000               0.000000000               0.001405659               0.012403991               0.001834225              -0.001023375               0.004475747               0.003452372               0.000000000               0.000000000               0.000000000               0.000000000               0.001271690               0.010189995               0.001094601              -0.000796864               0.003662252               0.002865388               0.000000000               0.000000000               0.000000000               0.000000000               0.001516635               0.008483260               0.000346379              -0.000491668               0.002991615               0.002499946               0.000000000               0.000000000               0.000000000               0.000000000               0.001465207               0.007528253               0.000017476              -0.000391578               0.002639919               0.002248341               0.000000000               0.000000000               0.000000000               0.000000000               0.001326877               0.006944248              -0.000132167              -0.000370451               0.002438210               0.002067759               0.000000000               0.000000000               0.000000000               0.000000000               0.001172053               0.006561086              -0.000199380              -0.000380615               0.002313879               0.001933264               0.000000000               0.000000000               0.000000000               0.000000000               0.001019054               0.006294994              -0.000223044              -0.000404728               0.002233220               0.001828492               0.000000000               0.000000000               0.000000000               0.000000000               0.000873363               0.006100031              -0.000226418              -0.000434992               0.002178320               0.001743329               0.000000000               0.000000000               0.000000000               0.000000000               0.000739248               0.005952159              -0.000224686              -0.000466801               0.002139634               0.001672833               0.000000000               0.000000000               0.000000000               0.000000000               0.000611868               0.005837078              -0.000220098              -0.000500183               0.002112401               0.001612218               0.000000000               0.000000000               0.000000000               0.000000000               0.000491114               0.005741426              -0.000211670              -0.000533509               0.002091626               0.001558117               0.000000000               0.000000000               0.000000000               0.000000000               0.000380278               0.005655440              -0.000200319              -0.000564324               0.002073236               0.001508911               0.000000000               0.000000000               0.000000000               0.000000000               0.000280683               0.005573906              -0.000186272              -0.000591481               0.002055110               0.001463630               0.000000000               0.000000000               0.000000000               0.000000000               0.000196222               0.005493263              -0.000163734              -0.000613073               0.002035427               0.001422354               0.000000000               0.000000000               0.000000000               0.000000000               0.000122405               0.005409093              -0.000125757              -0.000630233               0.002013091               0.001382857               0.000000000               0.000000000               0.000000000               0.000000000               0.000055623               0.005320564              -0.000070825              -0.000644210               0.001988241               0.001344030               0.000000000               0.000000000               0.000000000               0.000000000               0.000019786               0.005262764              -0.000041875              -0.000650424               0.001971045               0.001320621               0.000000000               0.000000000               0.000000000               0.000000000               0.001615526               0.011329189               0.002484071              -0.000810326               0.004046467               0.003236141               0.000000000               0.000000000               0.000000000               0.000000000               0.001257250               0.009464062               0.001489124              -0.000711538               0.003391835               0.002680297               0.000000000               0.000000000               0.000000000               0.000000000               0.001259624               0.008114358               0.000493304              -0.000541934               0.002885404               0.002343469               0.000000000               0.000000000               0.000000000               0.000000000               0.001123127               0.007336552               0.000070539              -0.000495895               0.002610791               0.002114896               0.000000000               0.000000000               0.000000000               0.000000000               0.000968419               0.006841161              -0.000115751              -0.000491987               0.002444360               0.001952373               0.000000000               0.000000000               0.000000000               0.000000000               0.000827804               0.006497958              -0.000196127              -0.000501817               0.002333237               0.001831420               0.000000000               0.000000000               0.000000000               0.000000000               0.000702405               0.006243220              -0.000226611              -0.000516999               0.002253386               0.001736386               0.000000000               0.000000000               0.000000000               0.000000000               0.000586048               0.006050573              -0.000234562              -0.000536552               0.002195688               0.001659136               0.000000000               0.000000000               0.000000000               0.000000000               0.000481735               0.005905257              -0.000237580              -0.000557505               0.002154234               0.001596729               0.000000000               0.000000000               0.000000000               0.000000000               0.000384725               0.005789815              -0.000237239              -0.000579453               0.002123070               0.001543617               0.000000000               0.000000000               0.000000000               0.000000000               0.000294643               0.005688001              -0.000228927              -0.000600507               0.002096150               0.001495643               0.000000000               0.000000000               0.000000000               0.000000000               0.000219210               0.005594373              -0.000215125              -0.000617091               0.002070469               0.001453378               0.000000000               0.000000000               0.000000000               0.000000000               0.000157954               0.005505226              -0.000197749              -0.000628919               0.002044697               0.001415778               0.000000000               0.000000000               0.000000000               0.000000000               0.000108445               0.005419637              -0.000170025              -0.000636786               0.002018790               0.001382004               0.000000000               0.000000000               0.000000000               0.000000000               0.000069104               0.005341080              -0.000127058              -0.000641719               0.001994249               0.001352529               0.000000000               0.000000000               0.000000000               0.000000000               0.000033430               0.005276147              -0.000070238              -0.000646980               0.001974358               0.001327378               0.000000000               0.000000000               0.000000000               0.000000000               0.000014174               0.005244896              -0.000039765              -0.000650295               0.001965046               0.001314751               0.000000000               0.000000000               0.000000000               0.000000000               0.001800486               0.009994123               0.002883361              -0.000574084               0.003522702               0.002948618               0.000000000               0.000000000               0.000000000               0.000000000               0.001201582               0.008577533               0.001755349              -0.000621598               0.003066348               0.002444750               0.000000000               0.000000000               0.000000000               0.000000000               0.000944724               0.007659025               0.000635998              -0.000603105               0.002754018               0.002150913               0.000000000               0.000000000               0.000000000               0.000000000               0.000734448               0.007077516               0.000177750              -0.000609270               0.002562239               0.001952968               0.000000000               0.000000000               0.000000000               0.000000000               0.000576067               0.006672482              -0.000020301              -0.000618033               0.002430150               0.001812116               0.000000000               0.000000000               0.000000000               0.000000000               0.000461920               0.006369795              -0.000106947              -0.000623003               0.002330911               0.001707909               0.000000000               0.000000000               0.000000000               0.000000000               0.000376134               0.006134096              -0.000146892              -0.000625710               0.002253248               0.001627538               0.000000000               0.000000000               0.000000000               0.000000000               0.000301308               0.005955053              -0.000168196              -0.000631390               0.002195461               0.001564071               0.000000000               0.000000000               0.000000000               0.000000000               0.000237441               0.005816857              -0.000181856              -0.000638065               0.002151621               0.001513556               0.000000000               0.000000000               0.000000000               0.000000000               0.000179431               0.005697110              -0.000187987              -0.000644851               0.002113968               0.001469117               0.000000000               0.000000000               0.000000000               0.000000000               0.000124624               0.005587387              -0.000183712              -0.000651688               0.002079673               0.001427985               0.000000000               0.000000000               0.000000000               0.000000000               0.000084249               0.005486983              -0.000171982              -0.000654278               0.002047069               0.001392791               0.000000000               0.000000000               0.000000000               0.000000000               0.000058739               0.005395464              -0.000154719              -0.000652404               0.002015938               0.001363534               0.000000000               0.000000000               0.000000000               0.000000000               0.000041746               0.005314256              -0.000127862              -0.000648626               0.001987610               0.001338984               0.000000000               0.000000000               0.000000000               0.000000000               0.000030956               0.005247961              -0.000090654              -0.000644385               0.001964098               0.001319713               0.000000000               0.000000000               0.000000000               0.000000000               0.000016621               0.005202092              -0.000047561              -0.000644027               0.001948689               0.001304662               0.000000000               0.000000000               0.000000000               0.000000000               0.000006625               0.005184196              -0.000025493              -0.000645539               0.001943228               0.001297689               0.000000000               0.000000000               0.000000000               0.000000000               0.001899685               0.008533726               0.003028505              -0.000354336               0.002962658               0.002608322               0.000000000               0.000000000               0.000000000               0.000000000               0.001094914               0.007621414               0.001900841              -0.000542084               0.002721140               0.002179056               0.000000000               0.000000000               0.000000000               0.000000000               0.000607877               0.007159855               0.000782789              -0.000667027               0.002608937               0.001941910               0.000000000               0.000000000               0.000000000               0.000000000               0.000357345               0.006766163               0.000332285              -0.000711764               0.002492620               0.001780856               0.000000000               0.000000000               0.000000000               0.000000000               0.000219756               0.006448894               0.000133781              -0.000723702               0.002390844               0.001667142               0.000000000               0.000000000               0.000000000               0.000000000               0.000146032               0.006189948               0.000038686              -0.000718980               0.002302956               0.001583976               0.000000000               0.000000000               0.000000000               0.000000000               0.000106271               0.005984697              -0.000017107              -0.000708234               0.002230957               0.001522723               0.000000000               0.000000000               0.000000000               0.000000000               0.000075236               0.005824096              -0.000055036              -0.000699797               0.002174612               0.001474815               0.000000000               0.000000000               0.000000000               0.000000000               0.000047075               0.005685841              -0.000079683              -0.000693075               0.002126286               0.001433211               0.000000000               0.000000000               0.000000000               0.000000000               0.000024619               0.005560715              -0.000095060              -0.000685855               0.002082172               0.001396316               0.000000000               0.000000000               0.000000000               0.000000000               0.000008911               0.005447158              -0.000099265              -0.000677551               0.002041552               0.001364000               0.000000000               0.000000000               0.000000000               0.000000000               0.000001211               0.005342538              -0.000094723              -0.000667362               0.002003282               0.001335921               0.000000000               0.000000000               0.000000000               0.000000000               0.000000711               0.005249391              -0.000086015              -0.000655906               0.001968415               0.001312509               0.000000000               0.000000000               0.000000000               0.000000000               0.000005639               0.005170911              -0.000069933              -0.000644248               0.001938369               0.001294121               0.000000000               0.000000000               0.000000000               0.000000000               0.000010676               0.005109047              -0.000047684              -0.000634626               0.001914540               0.001279915               0.000000000               0.000000000               0.000000000               0.000000000               0.000007284               0.005061712              -0.000024393              -0.000629981               0.001897214               0.001267233               0.000000000               0.000000000               0.000000000               0.000000000              -0.000000462               0.005035590              -0.000014649              -0.000629620               0.001888387               0.001258766               0.000000000               0.000000000               0.000000000               0.000000000               0.001870037               0.007074949               0.002952498              -0.000183108               0.002419328               0.002236220               0.000000000               0.000000000               0.000000000               0.000000000               0.000940188               0.006678441               0.001945137              -0.000482235               0.002386869               0.001904634               0.000000000               0.000000000               0.000000000               0.000000000               0.000288157               0.006652002               0.000932964              -0.000723440               0.002458458               0.001735018               0.000000000               0.000000000               0.000000000               0.000000000               0.000038155               0.006426153               0.000515386              -0.000788959               0.002405016               0.001616057               0.000000000               0.000000000               0.000000000               0.000000000              -0.000056876               0.006188008               0.000315862              -0.000794828               0.002327591               0.001532763               0.000000000               0.000000000               0.000000000               0.000000000              -0.000079091               0.005976962               0.000208321              -0.000776778               0.002251227               0.001474449               0.000000000               0.000000000               0.000000000               0.000000000              -0.000076448               0.005803051               0.000135220              -0.000754048               0.002185680               0.001431633               0.000000000               0.000000000               0.000000000               0.000000000              -0.000074739               0.005652967               0.000080192              -0.000734646               0.002129186               0.001394540               0.000000000               0.000000000               0.000000000               0.000000000              -0.000071918               0.005517928               0.000040400              -0.000716709               0.002078194               0.001361485               0.000000000               0.000000000               0.000000000               0.000000000              -0.000063501               0.005394472               0.000010008              -0.000698120               0.002030846               0.001332726               0.000000000               0.000000000               0.000000000               0.000000000              -0.000051258               0.005277488              -0.000009744              -0.000678906               0.001985447               0.001306541               0.000000000               0.000000000               0.000000000               0.000000000              -0.000037415               0.005169883              -0.000019383              -0.000660264               0.001943365               0.001283101               0.000000000               0.000000000               0.000000000               0.000000000              -0.000022686               0.005073733              -0.000025459              -0.000642722               0.001905468               0.001262746               0.000000000               0.000000000               0.000000000               0.000000000              -0.000010231               0.004989905              -0.000026842              -0.000627573               0.001872476               0.001244903               0.000000000               0.000000000               0.000000000               0.000000000              -0.000003963               0.004919352              -0.000022170              -0.000616404               0.001845235               0.001228832               0.000000000               0.000000000               0.000000000               0.000000000              -0.000002106               0.004858384              -0.000014418              -0.000608086               0.001822140               0.001214054               0.000000000               0.000000000               0.000000000               0.000000000              -0.000007694               0.004819027              -0.000013592              -0.000605262               0.001808080               0.001202818               0.000000000               0.000000000               0.000000000               0.000000000               0.001713112               0.005709894               0.002700224              -0.000071323               0.001927052               0.001855729               0.000000000               0.000000000               0.000000000               0.000000000               0.000744073               0.005803931               0.001912355              -0.000446465               0.002083445               0.001636981               0.000000000               0.000000000               0.000000000               0.000000000               0.000020381               0.006147716               0.001087159              -0.000760820               0.002302825               0.001542004               0.000000000               0.000000000               0.000000000               0.000000000              -0.000188715               0.006065078               0.000709638              -0.000828901               0.002297973               0.001469072               0.000000000               0.000000000               0.000000000               0.000000000              -0.000231098               0.005900801               0.000502483              -0.000824260               0.002241667               0.001417407               0.000000000               0.000000000               0.000000000               0.000000000              -0.000208688               0.005738532               0.000375701              -0.000795573               0.002178016               0.001382443               0.000000000               0.000000000               0.000000000               0.000000000              -0.000175004               0.005593929               0.000282415              -0.000764866               0.002119580               0.001354714               0.000000000               0.000000000               0.000000000               0.000000000              -0.000147833               0.005460507               0.000206820              -0.000737999               0.002066150               0.001328152               0.000000000               0.000000000               0.000000000               0.000000000              -0.000121056               0.005334483               0.000146939              -0.000712204               0.002015545               0.001303340               0.000000000               0.000000000               0.000000000               0.000000000              -0.000095291               0.005209075               0.000098146              -0.000686867               0.001965296               0.001278430               0.000000000               0.000000000               0.000000000               0.000000000              -0.000069212               0.005086395               0.000059801              -0.000661752               0.001916032               0.001254280               0.000000000               0.000000000               0.000000000               0.000000000              -0.000048132               0.004971453               0.000030957              -0.000639480               0.001870294               0.001230815               0.000000000               0.000000000               0.000000000               0.000000000              -0.000033543               0.004867149               0.000008808              -0.000620970               0.001829357               0.001208386               0.000000000               0.000000000               0.000000000               0.000000000              -0.000026502               0.004773029              -0.000006709              -0.000606565               0.001793182               0.001186617               0.000000000               0.000000000               0.000000000               0.000000000              -0.000020516               0.004690547              -0.000013783              -0.000594010               0.001761503               0.001167493               0.000000000               0.000000000               0.000000000               0.000000000              -0.000012874               0.004617592              -0.000012723              -0.000582025               0.001733190               0.001151165               0.000000000               0.000000000               0.000000000               0.000000000              -0.000013600               0.004571805              -0.000013540              -0.000576574               0.001716111               0.001139537               0.000000000               0.000000000               0.000000000               0.000000000               0.001477481               0.004532543               0.002337237              -0.000012516               0.001515004               0.001502488               0.000000000               0.000000000               0.000000000               0.000000000               0.000558993               0.005021602               0.001845749              -0.000418079               0.001813209               0.001395131               0.000000000               0.000000000               0.000000000               0.000000000              -0.000158914               0.005673529               0.001265341              -0.000768783               0.002147418               0.001378635               0.000000000               0.000000000               0.000000000               0.000000000              -0.000313830               0.005735676               0.000919526              -0.000834644               0.002190088               0.001355444               0.000000000               0.000000000               0.000000000               0.000000000              -0.000315295               0.005654178               0.000696611              -0.000825006               0.002159709               0.001334703               0.000000000               0.000000000               0.000000000               0.000000000              -0.000265854               0.005541861               0.000541998              -0.000792426               0.002111410               0.001318984               0.000000000               0.000000000               0.000000000               0.000000000              -0.000214844               0.005429882               0.000424488              -0.000759300               0.002063043               0.001303743               0.000000000               0.000000000               0.000000000               0.000000000              -0.000173302               0.005320457               0.000329713              -0.000730044               0.002016816               0.001286772               0.000000000               0.000000000               0.000000000               0.000000000              -0.000129544               0.005203933               0.000252492              -0.000699069               0.001967650               0.001268581               0.000000000               0.000000000               0.000000000               0.000000000              -0.000091081               0.005076376               0.000186112              -0.000668701               0.001915008               0.001246308               0.000000000               0.000000000               0.000000000               0.000000000              -0.000058178               0.004947885               0.000129455              -0.000640301               0.001862712               0.001222411               0.000000000               0.000000000               0.000000000               0.000000000              -0.000037861               0.004823279               0.000081211              -0.000617106               0.001813446               0.001196339               0.000000000               0.000000000               0.000000000               0.000000000              -0.000034604               0.004706741               0.000042138              -0.000601318               0.001769337               0.001168020               0.000000000               0.000000000               0.000000000               0.000000000              -0.000044393               0.004598906               0.000014202              -0.000591509               0.001730123               0.001138614               0.000000000               0.000000000               0.000000000               0.000000000              -0.000055308               0.004499629              -0.000001932              -0.000583193               0.001694259               0.001111066               0.000000000               0.000000000               0.000000000               0.000000000              -0.000056161               0.004411939              -0.000006687              -0.000572551               0.001661482               0.001088931               0.000000000               0.000000000               0.000000000               0.000000000              -0.000052276               0.004365534              -0.000007241              -0.000565294               0.001643595               0.001078301               0.000000000               0.000000000               0.000000000               0.000000000               0.001144897               0.003411783               0.001928666               0.000002861               0.001136295               0.001139156               0.000000000               0.000000000               0.000000000               0.000000000               0.000423781               0.004129143               0.001765042              -0.000357226               0.001495442               0.001138216               0.000000000               0.000000000               0.000000000               0.000000000              -0.000214810               0.005002197               0.001468467              -0.000705827               0.001902658               0.001196830               0.000000000               0.000000000               0.000000000               0.000000000              -0.000343050               0.005250213               0.001165377              -0.000784919               0.002011693               0.001226774               0.000000000               0.000000000               0.000000000               0.000000000              -0.000336841               0.005292692               0.000926664              -0.000787900               0.002026846               0.001238946               0.000000000               0.000000000               0.000000000               0.000000000              -0.000287000               0.005260609               0.000741483              -0.000765199               0.002008585               0.001243386               0.000000000               0.000000000               0.000000000               0.000000000              -0.000233320               0.005206492               0.000596839              -0.000738305               0.001981582               0.001243277               0.000000000               0.000000000               0.000000000               0.000000000              -0.000189411               0.005143750               0.000483960              -0.000713996               0.001952565               0.001238569               0.000000000               0.000000000               0.000000000               0.000000000              -0.000146022               0.005060847               0.000391712              -0.000687362               0.001916053               0.001228690               0.000000000               0.000000000               0.000000000               0.000000000              -0.000102534               0.004958388               0.000310842              -0.000658247               0.001872195               0.001213948               0.000000000               0.000000000               0.000000000               0.000000000              -0.000067281               0.004845334               0.000235833              -0.000630896               0.001825394               0.001194498               0.000000000               0.000000000               0.000000000               0.000000000              -0.000046404               0.004729163               0.000163589              -0.000608545               0.001779220               0.001170675               0.000000000               0.000000000               0.000000000               0.000000000              -0.000044314               0.004616568               0.000100796              -0.000593687               0.001736736               0.001143049               0.000000000               0.000000000               0.000000000               0.000000000              -0.000061243               0.004508008               0.000052255              -0.000586466               0.001698143               0.001111677               0.000000000               0.000000000               0.000000000               0.000000000              -0.000089678               0.004408801               0.000019627              -0.000584728               0.001664495               0.001079767               0.000000000               0.000000000               0.000000000               0.000000000              -0.000118373               0.004317150               0.000002981              -0.000584032               0.001633713               0.001049681               0.000000000               0.000000000               0.000000000               0.000000000              -0.000131065               0.004269499              -0.000002082              -0.000582835               0.001617431               0.001034595               0.000000000               0.000000000               0.000000000               0.000000000               0.000664811               0.002376034               0.001489706              -0.000047702               0.000807903               0.000760201               0.000000000               0.000000000               0.000000000               0.000000000               0.000273522               0.003240535               0.001635644              -0.000302497               0.001180999               0.000878502               0.000000000               0.000000000               0.000000000               0.000000000              -0.000197653               0.004250604               0.001625379              -0.000605445               0.001618668               0.001013223               0.000000000               0.000000000               0.000000000               0.000000000              -0.000302310               0.004674575               0.001400218              -0.000697687               0.001790738               0.001093051               0.000000000               0.000000000               0.000000000               0.000000000              -0.000301660               0.004852932               0.001167545              -0.000719738               0.001857540               0.001137802               0.000000000               0.000000000               0.000000000               0.000000000              -0.000264483               0.004922508               0.000963594              -0.000714493               0.001878984               0.001164491               0.000000000               0.000000000               0.000000000               0.000000000              -0.000216557               0.004945641               0.000795148              -0.000699412               0.001881668               0.001182255               0.000000000               0.000000000               0.000000000               0.000000000              -0.000172736               0.004939790               0.000666372              -0.000682248               0.001873996               0.001191748               0.000000000               0.000000000               0.000000000               0.000000000              -0.000134895               0.004904390               0.000564009              -0.000663633               0.001855991               0.001192358               0.000000000               0.000000000               0.000000000               0.000000000              -0.000093980               0.004843883               0.000472624              -0.000640726               0.001828187               0.001187461               0.000000000               0.000000000               0.000000000               0.000000000              -0.000061052               0.004760519               0.000382781              -0.000617958               0.001792810               0.001174852               0.000000000               0.000000000               0.000000000               0.000000000              -0.000039237               0.004667431               0.000293415              -0.000598141               0.001755175               0.001157034               0.000000000               0.000000000               0.000000000               0.000000000              -0.000032199               0.004571140               0.000208736              -0.000583465               0.001718186               0.001134721               0.000000000               0.000000000               0.000000000               0.000000000              -0.000048763               0.004475300               0.000132509              -0.000577697               0.001684317               0.001106620               0.000000000               0.000000000               0.000000000               0.000000000              -0.000088827               0.004387302               0.000070803              -0.000581721               0.001656326               0.001074605               0.000000000               0.000000000               0.000000000               0.000000000              -0.000148851               0.004305211               0.000025806              -0.000593969               0.001633046               0.001039077               0.000000000               0.000000000               0.000000000               0.000000000              -0.000193310               0.004258179               0.000003175              -0.000604762               0.001620966               0.001016204               0.000000000               0.000000000               0.000000000               0.000000000               0.000074017               0.001493975               0.001044619              -0.000158991               0.000550983               0.000391992               0.000000000               0.000000000               0.000000000               0.000000000               0.000068586               0.002397894               0.001429815              -0.000274018               0.000890628               0.000616611               0.000000000               0.000000000               0.000000000               0.000000000              -0.000148882               0.003425003               0.001660828              -0.000483956               0.001302974               0.000819018               0.000000000               0.000000000               0.000000000               0.000000000              -0.000196849               0.003974751               0.001538082              -0.000570662               0.001515124               0.000944462               0.000000000               0.000000000               0.000000000               0.000000000              -0.000191845               0.004283099               0.001341245              -0.000607329               0.001630128               0.001022799               0.000000000               0.000000000               0.000000000               0.000000000              -0.000167226               0.004462447               0.001143829              -0.000620515               0.001694305               0.001073791               0.000000000               0.000000000               0.000000000               0.000000000              -0.000131780               0.004570817               0.000970434              -0.000620769               0.001730513               0.001109744               0.000000000               0.000000000               0.000000000               0.000000000              -0.000095879               0.004637343               0.000831260              -0.000615621               0.001750972               0.001135351               0.000000000               0.000000000               0.000000000               0.000000000              -0.000067132               0.004666643               0.000721102              -0.000608503               0.001758367               0.001149863               0.000000000               0.000000000               0.000000000               0.000000000              -0.000039403               0.004663013               0.000622790              -0.000597652               0.001753539               0.001155888               0.000000000               0.000000000               0.000000000               0.000000000              -0.000013743               0.004630008               0.000525528              -0.000583903               0.001737955               0.001154052               0.000000000               0.000000000               0.000000000               0.000000000               0.000005526               0.004572704               0.000430608              -0.000569514               0.001714057               0.001144543               0.000000000               0.000000000               0.000000000               0.000000000               0.000014735               0.004502932               0.000334425              -0.000557340               0.001686742               0.001129403               0.000000000               0.000000000               0.000000000               0.000000000               0.000005902               0.004431646               0.000237913              -0.000551741               0.001661114               0.001109373               0.000000000               0.000000000               0.000000000               0.000000000              -0.000031252               0.004362898               0.000147273              -0.000557080               0.001639978               0.001082898               0.000000000               0.000000000               0.000000000               0.000000000              -0.000101473               0.004296774               0.000066909              -0.000575148               0.001623959               0.001048812               0.000000000               0.000000000               0.000000000               0.000000000              -0.000166397               0.004249917               0.000021908              -0.000593637               0.001614504               0.001020867               0.000000000               0.000000000               0.000000000               0.000000000              -0.000582832               0.000816604               0.000644619              -0.000320637               0.000379077               0.000058440               0.000000000               0.000000000               0.000000000               0.000000000              -0.000184668               0.001649891               0.001166230              -0.000275487               0.000641787               0.000366299               0.000000000               0.000000000               0.000000000               0.000000000              -0.000087535               0.002591152               0.001558344              -0.000356720               0.000982615               0.000625894               0.000000000               0.000000000               0.000000000               0.000000000              -0.000041434               0.003207227               0.001534320              -0.000416442               0.001207878               0.000791436               0.000000000               0.000000000               0.000000000               0.000000000              -0.000015286               0.003617848               0.001392464              -0.000457963               0.001358591               0.000900628               0.000000000               0.000000000               0.000000000               0.000000000               0.000006239               0.003896592               0.001226222              -0.000484734               0.001460429               0.000975695               0.000000000               0.000000000               0.000000000               0.000000000               0.000027317               0.004093701               0.001068347              -0.000501468               0.001531709               0.001030241               0.000000000               0.000000000               0.000000000               0.000000000               0.000047238               0.004240708               0.000933441              -0.000512373               0.001584346               0.001071973               0.000000000               0.000000000               0.000000000               0.000000000               0.000062654               0.004343750               0.000823255              -0.000519473               0.001621060               0.001101587               0.000000000               0.000000000               0.000000000               0.000000000               0.000076092               0.004406924               0.000724754              -0.000522330               0.001643070               0.001120740               0.000000000               0.000000000               0.000000000               0.000000000               0.000092123               0.004435985               0.000628763              -0.000519951               0.001651964               0.001132013               0.000000000               0.000000000               0.000000000               0.000000000               0.000106538               0.004429068               0.000535717              -0.000513681               0.001647568               0.001133887               0.000000000               0.000000000               0.000000000               0.000000000               0.000117275               0.004401205               0.000439938              -0.000506171               0.001635777               0.001129606               0.000000000               0.000000000               0.000000000               0.000000000               0.000120293               0.004366310               0.000336082              -0.000500678               0.001622315               0.001121637               0.000000000               0.000000000               0.000000000               0.000000000               0.000101963               0.004326495               0.000227406              -0.000502574               0.001609675               0.001107101               0.000000000               0.000000000               0.000000000               0.000000000               0.000048296               0.004282319               0.000115603              -0.000517178               0.001599818               0.001082640               0.000000000               0.000000000               0.000000000               0.000000000              -0.000012508               0.004244877               0.000051312              -0.000535299               0.001593378               0.001058079               0.000000000               0.000000000               0.000000000               0.000000000              -0.001233477               0.000344835               0.000334854              -0.000505658               0.000283495              -0.000222162               0.000000000               0.000000000               0.000000000               0.000000000              -0.000457530               0.001035639               0.000873845              -0.000301029               0.000445552               0.000144523               0.000000000               0.000000000               0.000000000               0.000000000              -0.000030735               0.001823099               0.001318028              -0.000239414               0.000687497               0.000448084               0.000000000               0.000000000               0.000000000               0.000000000               0.000136285               0.002449861               0.001363042              -0.000255126               0.000901653               0.000646527               0.000000000               0.000000000               0.000000000               0.000000000               0.000202211               0.002924880               0.001278419              -0.000289781               0.001071544               0.000781762               0.000000000               0.000000000               0.000000000               0.000000000               0.000229142               0.003284490               0.001155599              -0.000324633               0.001203030               0.000878397               0.000000000               0.000000000               0.000000000               0.000000000               0.000241457               0.003559515               0.001028885              -0.000354393               0.001304624               0.000950231               0.000000000               0.000000000               0.000000000               0.000000000               0.000247470               0.003777544               0.000915028              -0.000379391               0.001385632               0.001006241               0.000000000               0.000000000               0.000000000               0.000000000               0.000249938               0.003951040               0.000818389              -0.000400153               0.001450384               0.001050231               0.000000000               0.000000000               0.000000000               0.000000000               0.000251058               0.004084236               0.000731417              -0.000416382               0.001500192               0.001083810               0.000000000               0.000000000               0.000000000               0.000000000               0.000254918               0.004182750               0.000646274              -0.000427249               0.001536652               0.001109404               0.000000000               0.000000000               0.000000000               0.000000000               0.000260221               0.004240230               0.000563411              -0.000432445               0.001557544               0.001125099               0.000000000               0.000000000               0.000000000               0.000000000               0.000269770               0.004267571               0.000478285              -0.000432282               0.001566603               0.001134322               0.000000000               0.000000000               0.000000000               0.000000000               0.000284672               0.004278210               0.000383055              -0.000428023               0.001568730               0.001140707               0.000000000               0.000000000               0.000000000               0.000000000               0.000297746               0.004276514               0.000274875              -0.000422909               0.001566460               0.001143551               0.000000000               0.000000000               0.000000000               0.000000000               0.000292526               0.004263091               0.000147928              -0.000423188               0.001562079               0.001138891               0.000000000               0.000000000               0.000000000               0.000000000               0.000273279               0.004246624               0.000075573              -0.000428347               0.001558310               0.001129962               0.000000000               0.000000000               0.000000000               0.000000000              -0.001791347               0.000044757               0.000139340              -0.000677349               0.000240700              -0.000436649               0.000000000               0.000000000               0.000000000               0.000000000              -0.000702427               0.000580306               0.000577952              -0.000335948               0.000305416              -0.000030533               0.000000000               0.000000000               0.000000000               0.000000000               0.000009666               0.001199722               0.000956277              -0.000146341               0.000448683               0.000302342               0.000000000               0.000000000               0.000000000               0.000000000               0.000298608               0.001800173               0.001025584              -0.000113044               0.000637733               0.000524688               0.000000000               0.000000000               0.000000000               0.000000000               0.000413381               0.002307617               0.000984857              -0.000133435               0.000813676               0.000680241               0.000000000               0.000000000               0.000000000               0.000000000               0.000453632               0.002721265               0.000906803              -0.000170046               0.000963761               0.000793715               0.000000000               0.000000000               0.000000000               0.000000000               0.000464053               0.003052805               0.000819748              -0.000207581               0.001086785               0.000879204               0.000000000               0.000000000               0.000000000               0.000000000               0.000461967               0.003327374               0.000739365              -0.000242684               0.001190008               0.000947324               0.000000000               0.000000000               0.000000000               0.000000000               0.000453728               0.003560239               0.000669893              -0.000274882               0.001278362               0.001003480               0.000000000               0.000000000               0.000000000               0.000000000               0.000443719               0.003755408               0.000604894              -0.000303031               0.001352801               0.001049770               0.000000000               0.000000000               0.000000000               0.000000000               0.000436397               0.003913429               0.000539365              -0.000325529               0.001412973               0.001087444               0.000000000               0.000000000               0.000000000               0.000000000               0.000433036               0.004030810               0.000475113              -0.000341462               0.001457411               0.001115949               0.000000000               0.000000000               0.000000000               0.000000000               0.000440453               0.004114827               0.000410164              -0.000349183               0.001487990               0.001138807               0.000000000               0.000000000               0.000000000               0.000000000               0.000465911               0.004175864               0.000337403              -0.000347266               0.001507696               0.001160430               0.000000000               0.000000000               0.000000000               0.000000000               0.000511051               0.004216792               0.000249333              -0.000335454               0.001517401               0.001181947               0.000000000               0.000000000               0.000000000               0.000000000               0.000570257               0.004234340               0.000137883              -0.000315446               0.001516581               0.001201136               0.000000000               0.000000000               0.000000000               0.000000000               0.000616287               0.004240696               0.000076553              -0.000298979               0.001513211               0.001214232               0.000000000               0.000000000               0.000000000               0.000000000              -0.002171314              -0.000121742               0.000043383              -0.000799025               0.000225759              -0.000573265               0.000000000               0.000000000               0.000000000               0.000000000              -0.000873021               0.000296859               0.000288608              -0.000364490               0.000220448              -0.000144042               0.000000000               0.000000000               0.000000000               0.000000000               0.000032163               0.000790613               0.000503918              -0.000086766               0.000292457               0.000205691               0.000000000               0.000000000               0.000000000               0.000000000               0.000410674               0.001360754               0.000552320              -0.000016092               0.000458944               0.000442852               0.000000000               0.000000000               0.000000000               0.000000000               0.000566283               0.001875004               0.000539022              -0.000022020               0.000632335               0.000610315               0.000000000               0.000000000               0.000000000               0.000000000               0.000621899               0.002315003               0.000501671              -0.000056163               0.000790381               0.000734218               0.000000000               0.000000000               0.000000000               0.000000000               0.000633133               0.002685789               0.000457248              -0.000098299               0.000928020               0.000829721               0.000000000               0.000000000               0.000000000               0.000000000               0.000626484               0.003001112               0.000415207              -0.000140207               0.001047096               0.000906889               0.000000000               0.000000000               0.000000000               0.000000000               0.000609402               0.003270229               0.000378591              -0.000180253               0.001150150               0.000969897               0.000000000               0.000000000               0.000000000               0.000000000               0.000590092               0.003503899               0.000344530              -0.000216703               0.001240189               0.001023486               0.000000000               0.000000000               0.000000000               0.000000000               0.000575679               0.003699454               0.000308557              -0.000246552               0.001315323               0.001068771               0.000000000               0.000000000               0.000000000               0.000000000               0.000570207               0.003853402               0.000272277              -0.000267847               0.001373737               0.001105890               0.000000000               0.000000000               0.000000000               0.000000000               0.000580082               0.003976177               0.000235559              -0.000279491               0.001418543               0.001139052               0.000000000               0.000000000               0.000000000               0.000000000               0.000612803               0.004072946               0.000194771              -0.000279316               0.001450741               0.001171424               0.000000000               0.000000000               0.000000000               0.000000000               0.000677289               0.004147925               0.000144708              -0.000264507               0.001470797               0.001206290               0.000000000               0.000000000               0.000000000               0.000000000               0.000782483               0.004199813               0.000079571              -0.000231545               0.001477105               0.001245560               0.000000000               0.000000000               0.000000000               0.000000000               0.000877620               0.004229354               0.000044845              -0.000199561               0.001476291               0.001276730               0.000000000               0.000000000               0.000000000               0.000000000               0.000000000               0.000000000               0.000000000               0.000000000               0.000000000               0.000000000               0.000000000               0.000000000               0.000000000               0.000000000               0.000000000               0.000000000               0.000000000               0.000000000               0.000000000               0.000000000               0.000000000               0.000000000               0.000000000               0.000000000               0.000000000               0.000000000               0.000000000               0.000000000               0.000000000               0.000000000               0.000000000               0.000000000               0.000000000               0.000000000               0.000000000               0.000000000               0.000000000               0.000000000               0.000000000               0.000000000               0.000000000               0.000000000               0.000000000               0.000000000               0.000000000               0.000000000               0.000000000               0.000000000               0.000000000               0.000000000               0.000000000               0.000000000               0.000000000               0.000000000               0.000000000               0.000000000               0.000000000               0.000000000               0.000000000               0.000000000               0.000000000               0.000000000               0.000000000               0.000000000               0.000000000               0.000000000               0.000000000               0.000000000               0.000000000               0.000000000               0.000000000               0.000000000               0.000000000               0.000000000               0.000000000               0.000000000               0.000000000               0.000000000               0.000000000               0.000000000               0.000000000               0.000000000               0.000000000               0.000000000               0.000000000               0.000000000               0.000000000               0.000000000               0.000000000               0.000000000               0.000000000               0.000000000               0.000000000               0.000000000               0.000000000               0.000000000               0.000000000               0.000000000               0.000000000               0.000000000               0.000000000               0.000000000               0.000000000               0.000000000               0.000000000               0.000000000               0.000000000               0.000000000               0.000000000               0.000000000               0.000000000               0.000000000               0.000000000               0.000000000               0.000000000               0.000000000               0.000000000               0.000000000               0.000000000               0.000000000               0.000000000               0.000000000               0.000000000               0.000000000               0.000000000               0.000000000               0.000000000               0.000000000               0.000000000               0.000000000               0.000000000               0.000000000               0.000000000               0.000000000               0.000000000               0.000000000               0.000000000               0.000000000               0.000000000               0.000000000               0.000000000               0.000000000               0.000000000               0.000000000               0.000000000               0.000000000               0.000000000               0.000000000               0.000000000               0.000000000               0.000000000               0.000000000               0.000000000               0.000000000               0.000000000               0.000000000               0.000000000               0.000000000               0.000000000               0.000000000               0.000000000               0.000000000               0.000000000               0.000000000               0.000000000               0.000000000               0.000000000               0.000000000               0.000000000               0.000000000               0.000000000               0.000000000               0.000000000               0.000000000 </DataArray>
</PointData>
</Piece>
</UnstructuredGrid> </VTKFile>
