<?xml version="1.0"?>
<VTKFile type="UnstructuredGrid" version="0.1">
<UnstructuredGrid>
<Piece NumberOfPoints="      1156" NumberOfCells="      1024">
<Points>
<DataArray type="Float64"                                    Name="coordinates"                                                      NumberOfComponents=" 3" format="ascii">
              0.133000000               0.000000000               0.000000000               0.155937500               0.000000000               0.000000000               0.178875000               0.000000000               0.000000000               0.201812500               0.000000000               0.000000000               0.224750000               0.000000000               0.000000000               0.247687500               0.000000000               0.000000000               0.270625000               0.000000000               0.000000000               0.293562500               0.000000000               0.000000000               0.316500000               0.000000000               0.000000000               0.339437500               0.000000000               0.000000000               0.362375000               0.000000000               0.000000000               0.385312500               0.000000000               0.000000000               0.408250000               0.000000000               0.000000000               0.431187500               0.000000000               0.000000000               0.454125000               0.000000000               0.000000000               0.477062500               0.000000000               0.000000000               0.500000000               0.000000000               0.000000000               0.132359569               0.013036280               0.000000000               0.155337096               0.016127762               0.000000000               0.178314623               0.019219245               0.000000000               0.201292150               0.022310727               0.000000000               0.224269676               0.025402210               0.000000000               0.247247203               0.028493692               0.000000000               0.270224730               0.031585175               0.000000000               0.293202257               0.034676657               0.000000000               0.316179784               0.037768140               0.000000000               0.339157311               0.040859622               0.000000000               0.362134838               0.043951105               0.000000000               0.385112365               0.047042587               0.000000000               0.408089892               0.050134070               0.000000000               0.431067419               0.053225552               0.000000000               0.454044946               0.056317035               0.000000000               0.477022473               0.059408517               0.000000000               0.500000000               0.062500000               0.000000000               0.130444442               0.025947013               0.000000000               0.153541665               0.032137825               0.000000000               0.176638887               0.038328636               0.000000000               0.199736109               0.044519448               0.000000000               0.222833332               0.050710260               0.000000000               0.245930554               0.056901071               0.000000000               0.269027776               0.063091883               0.000000000               0.292124999               0.069282695               0.000000000               0.315222221               0.075473506               0.000000000               0.338319444               0.081664318               0.000000000               0.361416666               0.087855130               0.000000000               0.384513888               0.094045942               0.000000000               0.407611111               0.100236753               0.000000000               0.430708333               0.106427565               0.000000000               0.453805555               0.112618377               0.000000000               0.476902778               0.118809188               0.000000000               0.500000000               0.125000000               0.000000000               0.127273065               0.038607862               0.000000000               0.150568498               0.047913621               0.000000000               0.173863932               0.057219379               0.000000000               0.197159365               0.066525138               0.000000000               0.220454798               0.075830897               0.000000000               0.243750232               0.085136655               0.000000000               0.267045665               0.094442414               0.000000000               0.290341099               0.103748172               0.000000000               0.313636532               0.113053931               0.000000000               0.336931966               0.122359690               0.000000000               0.360227399               0.131665448               0.000000000               0.383522833               0.140971207               0.000000000               0.406818266               0.150276966               0.000000000               0.430113700               0.159582724               0.000000000               0.453409133               0.168888483               0.000000000               0.476704567               0.178194241               0.000000000               0.500000000               0.187500000               0.000000000               0.122875978               0.050896897               0.000000000               0.146446229               0.063340840               0.000000000               0.170016481               0.075784784               0.000000000               0.193586732               0.088228728               0.000000000               0.217156983               0.100672672               0.000000000               0.240727235               0.113116616               0.000000000               0.264297486               0.125560560               0.000000000               0.287867738               0.138004504               0.000000000               0.311437989               0.150448448               0.000000000               0.335008240               0.162892392               0.000000000               0.358578492               0.175336336               0.000000000               0.382148743               0.187780280               0.000000000               0.405718994               0.200224224               0.000000000               0.429289246               0.212668168               0.000000000               0.452859497               0.225112112               0.000000000               0.476429749               0.237556056               0.000000000               0.500000000               0.250000000               0.000000000               0.117295528               0.062695766               0.000000000               0.141214558               0.078308531               0.000000000               0.165133587               0.093921295               0.000000000               0.189052617               0.109534060               0.000000000               0.212971646               0.125146824               0.000000000               0.236890676               0.140759589               0.000000000               0.260809705               0.156372354               0.000000000               0.284728735               0.171985118               0.000000000               0.308647764               0.187597883               0.000000000               0.332566794               0.203210648               0.000000000               0.356485823               0.218823412               0.000000000               0.380404853               0.234436177               0.000000000               0.404323882               0.250048941               0.000000000               0.428242912               0.265661706               0.000000000               0.452161941               0.281274471               0.000000000               0.476080971               0.296887235               0.000000000               0.500000000               0.312500000               0.000000000               0.110585458               0.073890841               0.000000000               0.134923867               0.092710163               0.000000000               0.159262276               0.111529486               0.000000000               0.183600685               0.130348808               0.000000000               0.207939094               0.149168131               0.000000000               0.232277503               0.167987453               0.000000000               0.256615912               0.186806776               0.000000000               0.280954320               0.205626098               0.000000000               0.305292729               0.224445420               0.000000000               0.329631138               0.243264743               0.000000000               0.353969547               0.262084065               0.000000000               0.378307956               0.280903388               0.000000000               0.402646365               0.299722710               0.000000000               0.426984773               0.318542033               0.000000000               0.451323182               0.337361355               0.000000000               0.475661591               0.356180678               0.000000000               0.500000000               0.375000000               0.000000000               0.102810390               0.084374307               0.000000000               0.127634741               0.106444663               0.000000000               0.152459092               0.128515018               0.000000000               0.177283442               0.150585374               0.000000000               0.202107793               0.172655730               0.000000000               0.226932143               0.194726086               0.000000000               0.251756494               0.216796442               0.000000000               0.276580845               0.238866798               0.000000000               0.301405195               0.260937153               0.000000000               0.326229546               0.283007509               0.000000000               0.351053896               0.305077865               0.000000000               0.375878247               0.327148221               0.000000000               0.400702598               0.349218577               0.000000000               0.425526948               0.371288933               0.000000000               0.450351299               0.393359288               0.000000000               0.475175649               0.415429644               0.000000000               0.500000000               0.437500000               0.000000000               0.094045202               0.094045202               0.000000000               0.119417377               0.119417377               0.000000000               0.144789552               0.144789552               0.000000000               0.170161727               0.170161727               0.000000000               0.195533901               0.195533901               0.000000000               0.220906076               0.220906076               0.000000000               0.246278251               0.246278251               0.000000000               0.271650426               0.271650426               0.000000000               0.297022601               0.297022601               0.000000000               0.322394776               0.322394776               0.000000000               0.347766951               0.347766951               0.000000000               0.373139126               0.373139126               0.000000000               0.398511300               0.398511300               0.000000000               0.423883475               0.423883475               0.000000000               0.449255650               0.449255650               0.000000000               0.474627825               0.474627825               0.000000000               0.500000000               0.500000000               0.000000000               0.084374307               0.102810390               0.000000000               0.106444663               0.127634741               0.000000000               0.128515018               0.152459092               0.000000000               0.150585374               0.177283442               0.000000000               0.172655730               0.202107793               0.000000000               0.194726086               0.226932143               0.000000000               0.216796442               0.251756494               0.000000000               0.238866798               0.276580845               0.000000000               0.260937153               0.301405195               0.000000000               0.283007509               0.326229546               0.000000000               0.305077865               0.351053896               0.000000000               0.327148221               0.375878247               0.000000000               0.349218577               0.400702598               0.000000000               0.371288933               0.425526948               0.000000000               0.393359288               0.450351299               0.000000000               0.415429644               0.475175649               0.000000000               0.437500000               0.500000000               0.000000000               0.073890841               0.110585458               0.000000000               0.092710163               0.134923867               0.000000000               0.111529486               0.159262276               0.000000000               0.130348808               0.183600685               0.000000000               0.149168131               0.207939094               0.000000000               0.167987453               0.232277503               0.000000000               0.186806776               0.256615912               0.000000000               0.205626098               0.280954320               0.000000000               0.224445420               0.305292729               0.000000000               0.243264743               0.329631138               0.000000000               0.262084065               0.353969547               0.000000000               0.280903388               0.378307956               0.000000000               0.299722710               0.402646365               0.000000000               0.318542033               0.426984773               0.000000000               0.337361355               0.451323182               0.000000000               0.356180678               0.475661591               0.000000000               0.375000000               0.500000000               0.000000000               0.062695766               0.117295528               0.000000000               0.078308531               0.141214558               0.000000000               0.093921295               0.165133587               0.000000000               0.109534060               0.189052617               0.000000000               0.125146824               0.212971646               0.000000000               0.140759589               0.236890676               0.000000000               0.156372354               0.260809705               0.000000000               0.171985118               0.284728735               0.000000000               0.187597883               0.308647764               0.000000000               0.203210648               0.332566794               0.000000000               0.218823412               0.356485823               0.000000000               0.234436177               0.380404853               0.000000000               0.250048941               0.404323882               0.000000000               0.265661706               0.428242912               0.000000000               0.281274471               0.452161941               0.000000000               0.296887235               0.476080971               0.000000000               0.312500000               0.500000000               0.000000000               0.050896897               0.122875978               0.000000000               0.063340840               0.146446229               0.000000000               0.075784784               0.170016481               0.000000000               0.088228728               0.193586732               0.000000000               0.100672672               0.217156983               0.000000000               0.113116616               0.240727235               0.000000000               0.125560560               0.264297486               0.000000000               0.138004504               0.287867738               0.000000000               0.150448448               0.311437989               0.000000000               0.162892392               0.335008240               0.000000000               0.175336336               0.358578492               0.000000000               0.187780280               0.382148743               0.000000000               0.200224224               0.405718994               0.000000000               0.212668168               0.429289246               0.000000000               0.225112112               0.452859497               0.000000000               0.237556056               0.476429749               0.000000000               0.250000000               0.500000000               0.000000000               0.038607862               0.127273065               0.000000000               0.047913621               0.150568498               0.000000000               0.057219379               0.173863932               0.000000000               0.066525138               0.197159365               0.000000000               0.075830897               0.220454798               0.000000000               0.085136655               0.243750232               0.000000000               0.094442414               0.267045665               0.000000000               0.103748172               0.290341099               0.000000000               0.113053931               0.313636532               0.000000000               0.122359690               0.336931966               0.000000000               0.131665448               0.360227399               0.000000000               0.140971207               0.383522833               0.000000000               0.150276966               0.406818266               0.000000000               0.159582724               0.430113700               0.000000000               0.168888483               0.453409133               0.000000000               0.178194241               0.476704567               0.000000000               0.187500000               0.500000000               0.000000000               0.025947013               0.130444442               0.000000000               0.032137825               0.153541665               0.000000000               0.038328636               0.176638887               0.000000000               0.044519448               0.199736109               0.000000000               0.050710260               0.222833332               0.000000000               0.056901071               0.245930554               0.000000000               0.063091883               0.269027776               0.000000000               0.069282695               0.292124999               0.000000000               0.075473506               0.315222221               0.000000000               0.081664318               0.338319444               0.000000000               0.087855130               0.361416666               0.000000000               0.094045942               0.384513888               0.000000000               0.100236753               0.407611111               0.000000000               0.106427565               0.430708333               0.000000000               0.112618377               0.453805555               0.000000000               0.118809188               0.476902778               0.000000000               0.125000000               0.500000000               0.000000000               0.013036280               0.132359569               0.000000000               0.016127762               0.155337096               0.000000000               0.019219245               0.178314623               0.000000000               0.022310727               0.201292150               0.000000000               0.025402210               0.224269676               0.000000000               0.028493692               0.247247203               0.000000000               0.031585175               0.270224730               0.000000000               0.034676657               0.293202257               0.000000000               0.037768140               0.316179784               0.000000000               0.040859622               0.339157311               0.000000000               0.043951105               0.362134838               0.000000000               0.047042587               0.385112365               0.000000000               0.050134070               0.408089892               0.000000000               0.053225552               0.431067419               0.000000000               0.056317035               0.454044946               0.000000000               0.059408517               0.477022473               0.000000000               0.062500000               0.500000000               0.000000000               0.000000000               0.133000000               0.000000000               0.000000000               0.155937500               0.000000000               0.000000000               0.178875000               0.000000000               0.000000000               0.201812500               0.000000000               0.000000000               0.224750000               0.000000000               0.000000000               0.247687500               0.000000000               0.000000000               0.270625000               0.000000000               0.000000000               0.293562500               0.000000000               0.000000000               0.316500000               0.000000000               0.000000000               0.339437500               0.000000000               0.000000000               0.362375000               0.000000000               0.000000000               0.385312500               0.000000000               0.000000000               0.408250000               0.000000000               0.000000000               0.431187500               0.000000000               0.000000000               0.454125000               0.000000000               0.000000000               0.477062500               0.000000000               0.000000000               0.500000000               0.000000000               0.133000000               0.000000000               0.000000000               0.155937500               0.000000000               0.000000000               0.178875000               0.000000000               0.000000000               0.201812500               0.000000000               0.000000000               0.224750000               0.000000000               0.000000000               0.247687500               0.000000000               0.000000000               0.270625000               0.000000000               0.000000000               0.293562500               0.000000000               0.000000000               0.316500000               0.000000000               0.000000000               0.339437500               0.000000000               0.000000000               0.362375000               0.000000000               0.000000000               0.385312500               0.000000000               0.000000000               0.408250000               0.000000000               0.000000000               0.431187500               0.000000000               0.000000000               0.454125000               0.000000000               0.000000000               0.477062500               0.000000000               0.000000000               0.500000000               0.000000000               0.000000000               0.132359569              -0.013036280               0.000000000               0.155337096              -0.016127762               0.000000000               0.178314623              -0.019219245               0.000000000               0.201292150              -0.022310727               0.000000000               0.224269676              -0.025402210               0.000000000               0.247247203              -0.028493692               0.000000000               0.270224730              -0.031585175               0.000000000               0.293202257              -0.034676657               0.000000000               0.316179784              -0.037768140               0.000000000               0.339157311              -0.040859622               0.000000000               0.362134838              -0.043951105               0.000000000               0.385112365              -0.047042587               0.000000000               0.408089892              -0.050134070               0.000000000               0.431067419              -0.053225552               0.000000000               0.454044946              -0.056317035               0.000000000               0.477022473              -0.059408517               0.000000000               0.500000000              -0.062500000               0.000000000               0.130444442              -0.025947013               0.000000000               0.153541665              -0.032137825               0.000000000               0.176638887              -0.038328636               0.000000000               0.199736109              -0.044519448               0.000000000               0.222833332              -0.050710260               0.000000000               0.245930554              -0.056901071               0.000000000               0.269027776              -0.063091883               0.000000000               0.292124999              -0.069282695               0.000000000               0.315222221              -0.075473506               0.000000000               0.338319444              -0.081664318               0.000000000               0.361416666              -0.087855130               0.000000000               0.384513888              -0.094045942               0.000000000               0.407611111              -0.100236753               0.000000000               0.430708333              -0.106427565               0.000000000               0.453805555              -0.112618377               0.000000000               0.476902778              -0.118809188               0.000000000               0.500000000              -0.125000000               0.000000000               0.127273065              -0.038607862               0.000000000               0.150568498              -0.047913621               0.000000000               0.173863932              -0.057219379               0.000000000               0.197159365              -0.066525138               0.000000000               0.220454798              -0.075830897               0.000000000               0.243750232              -0.085136655               0.000000000               0.267045665              -0.094442414               0.000000000               0.290341099              -0.103748172               0.000000000               0.313636532              -0.113053931               0.000000000               0.336931966              -0.122359690               0.000000000               0.360227399              -0.131665448               0.000000000               0.383522833              -0.140971207               0.000000000               0.406818266              -0.150276966               0.000000000               0.430113700              -0.159582724               0.000000000               0.453409133              -0.168888483               0.000000000               0.476704567              -0.178194241               0.000000000               0.500000000              -0.187500000               0.000000000               0.122875978              -0.050896897               0.000000000               0.146446229              -0.063340840               0.000000000               0.170016481              -0.075784784               0.000000000               0.193586732              -0.088228728               0.000000000               0.217156983              -0.100672672               0.000000000               0.240727235              -0.113116616               0.000000000               0.264297486              -0.125560560               0.000000000               0.287867738              -0.138004504               0.000000000               0.311437989              -0.150448448               0.000000000               0.335008240              -0.162892392               0.000000000               0.358578492              -0.175336336               0.000000000               0.382148743              -0.187780280               0.000000000               0.405718994              -0.200224224               0.000000000               0.429289246              -0.212668168               0.000000000               0.452859497              -0.225112112               0.000000000               0.476429749              -0.237556056               0.000000000               0.500000000              -0.250000000               0.000000000               0.117295528              -0.062695766               0.000000000               0.141214558              -0.078308531               0.000000000               0.165133587              -0.093921295               0.000000000               0.189052617              -0.109534060               0.000000000               0.212971646              -0.125146824               0.000000000               0.236890676              -0.140759589               0.000000000               0.260809705              -0.156372354               0.000000000               0.284728735              -0.171985118               0.000000000               0.308647764              -0.187597883               0.000000000               0.332566794              -0.203210648               0.000000000               0.356485823              -0.218823412               0.000000000               0.380404853              -0.234436177               0.000000000               0.404323882              -0.250048941               0.000000000               0.428242912              -0.265661706               0.000000000               0.452161941              -0.281274471               0.000000000               0.476080971              -0.296887235               0.000000000               0.500000000              -0.312500000               0.000000000               0.110585458              -0.073890841               0.000000000               0.134923867              -0.092710163               0.000000000               0.159262276              -0.111529486               0.000000000               0.183600685              -0.130348808               0.000000000               0.207939094              -0.149168131               0.000000000               0.232277503              -0.167987453               0.000000000               0.256615912              -0.186806776               0.000000000               0.280954320              -0.205626098               0.000000000               0.305292729              -0.224445420               0.000000000               0.329631138              -0.243264743               0.000000000               0.353969547              -0.262084065               0.000000000               0.378307956              -0.280903388               0.000000000               0.402646365              -0.299722710               0.000000000               0.426984773              -0.318542033               0.000000000               0.451323182              -0.337361355               0.000000000               0.475661591              -0.356180678               0.000000000               0.500000000              -0.375000000               0.000000000               0.102810390              -0.084374307               0.000000000               0.127634741              -0.106444663               0.000000000               0.152459092              -0.128515018               0.000000000               0.177283442              -0.150585374               0.000000000               0.202107793              -0.172655730               0.000000000               0.226932143              -0.194726086               0.000000000               0.251756494              -0.216796442               0.000000000               0.276580845              -0.238866798               0.000000000               0.301405195              -0.260937153               0.000000000               0.326229546              -0.283007509               0.000000000               0.351053896              -0.305077865               0.000000000               0.375878247              -0.327148221               0.000000000               0.400702598              -0.349218577               0.000000000               0.425526948              -0.371288933               0.000000000               0.450351299              -0.393359288               0.000000000               0.475175649              -0.415429644               0.000000000               0.500000000              -0.437500000               0.000000000               0.094045202              -0.094045202               0.000000000               0.119417377              -0.119417377               0.000000000               0.144789552              -0.144789552               0.000000000               0.170161727              -0.170161727               0.000000000               0.195533901              -0.195533901               0.000000000               0.220906076              -0.220906076               0.000000000               0.246278251              -0.246278251               0.000000000               0.271650426              -0.271650426               0.000000000               0.297022601              -0.297022601               0.000000000               0.322394776              -0.322394776               0.000000000               0.347766951              -0.347766951               0.000000000               0.373139126              -0.373139126               0.000000000               0.398511300              -0.398511300               0.000000000               0.423883475              -0.423883475               0.000000000               0.449255650              -0.449255650               0.000000000               0.474627825              -0.474627825               0.000000000               0.500000000              -0.500000000               0.000000000               0.084374307              -0.102810390               0.000000000               0.106444663              -0.127634741               0.000000000               0.128515018              -0.152459092               0.000000000               0.150585374              -0.177283442               0.000000000               0.172655730              -0.202107793               0.000000000               0.194726086              -0.226932143               0.000000000               0.216796442              -0.251756494               0.000000000               0.238866798              -0.276580845               0.000000000               0.260937153              -0.301405195               0.000000000               0.283007509              -0.326229546               0.000000000               0.305077865              -0.351053896               0.000000000               0.327148221              -0.375878247               0.000000000               0.349218577              -0.400702598               0.000000000               0.371288933              -0.425526948               0.000000000               0.393359288              -0.450351299               0.000000000               0.415429644              -0.475175649               0.000000000               0.437500000              -0.500000000               0.000000000               0.073890841              -0.110585458               0.000000000               0.092710163              -0.134923867               0.000000000               0.111529486              -0.159262276               0.000000000               0.130348808              -0.183600685               0.000000000               0.149168131              -0.207939094               0.000000000               0.167987453              -0.232277503               0.000000000               0.186806776              -0.256615912               0.000000000               0.205626098              -0.280954320               0.000000000               0.224445420              -0.305292729               0.000000000               0.243264743              -0.329631138               0.000000000               0.262084065              -0.353969547               0.000000000               0.280903388              -0.378307956               0.000000000               0.299722710              -0.402646365               0.000000000               0.318542033              -0.426984773               0.000000000               0.337361355              -0.451323182               0.000000000               0.356180678              -0.475661591               0.000000000               0.375000000              -0.500000000               0.000000000               0.062695766              -0.117295528               0.000000000               0.078308531              -0.141214558               0.000000000               0.093921295              -0.165133587               0.000000000               0.109534060              -0.189052617               0.000000000               0.125146824              -0.212971646               0.000000000               0.140759589              -0.236890676               0.000000000               0.156372354              -0.260809705               0.000000000               0.171985118              -0.284728735               0.000000000               0.187597883              -0.308647764               0.000000000               0.203210648              -0.332566794               0.000000000               0.218823412              -0.356485823               0.000000000               0.234436177              -0.380404853               0.000000000               0.250048941              -0.404323882               0.000000000               0.265661706              -0.428242912               0.000000000               0.281274471              -0.452161941               0.000000000               0.296887235              -0.476080971               0.000000000               0.312500000              -0.500000000               0.000000000               0.050896897              -0.122875978               0.000000000               0.063340840              -0.146446229               0.000000000               0.075784784              -0.170016481               0.000000000               0.088228728              -0.193586732               0.000000000               0.100672672              -0.217156983               0.000000000               0.113116616              -0.240727235               0.000000000               0.125560560              -0.264297486               0.000000000               0.138004504              -0.287867738               0.000000000               0.150448448              -0.311437989               0.000000000               0.162892392              -0.335008240               0.000000000               0.175336336              -0.358578492               0.000000000               0.187780280              -0.382148743               0.000000000               0.200224224              -0.405718994               0.000000000               0.212668168              -0.429289246               0.000000000               0.225112112              -0.452859497               0.000000000               0.237556056              -0.476429749               0.000000000               0.250000000              -0.500000000               0.000000000               0.038607862              -0.127273065               0.000000000               0.047913621              -0.150568498               0.000000000               0.057219379              -0.173863932               0.000000000               0.066525138              -0.197159365               0.000000000               0.075830897              -0.220454798               0.000000000               0.085136655              -0.243750232               0.000000000               0.094442414              -0.267045665               0.000000000               0.103748172              -0.290341099               0.000000000               0.113053931              -0.313636532               0.000000000               0.122359690              -0.336931966               0.000000000               0.131665448              -0.360227399               0.000000000               0.140971207              -0.383522833               0.000000000               0.150276966              -0.406818266               0.000000000               0.159582724              -0.430113700               0.000000000               0.168888483              -0.453409133               0.000000000               0.178194241              -0.476704567               0.000000000               0.187500000              -0.500000000               0.000000000               0.025947013              -0.130444442               0.000000000               0.032137825              -0.153541665               0.000000000               0.038328636              -0.176638887               0.000000000               0.044519448              -0.199736109               0.000000000               0.050710260              -0.222833332               0.000000000               0.056901071              -0.245930554               0.000000000               0.063091883              -0.269027776               0.000000000               0.069282695              -0.292124999               0.000000000               0.075473506              -0.315222221               0.000000000               0.081664318              -0.338319444               0.000000000               0.087855130              -0.361416666               0.000000000               0.094045942              -0.384513888               0.000000000               0.100236753              -0.407611111               0.000000000               0.106427565              -0.430708333               0.000000000               0.112618377              -0.453805555               0.000000000               0.118809188              -0.476902778               0.000000000               0.125000000              -0.500000000               0.000000000               0.013036280              -0.132359569               0.000000000               0.016127762              -0.155337096               0.000000000               0.019219245              -0.178314623               0.000000000               0.022310727              -0.201292150               0.000000000               0.025402210              -0.224269676               0.000000000               0.028493692              -0.247247203               0.000000000               0.031585175              -0.270224730               0.000000000               0.034676657              -0.293202257               0.000000000               0.037768140              -0.316179784               0.000000000               0.040859622              -0.339157311               0.000000000               0.043951105              -0.362134838               0.000000000               0.047042587              -0.385112365               0.000000000               0.050134070              -0.408089892               0.000000000               0.053225552              -0.431067419               0.000000000               0.056317035              -0.454044946               0.000000000               0.059408517              -0.477022473               0.000000000               0.062500000              -0.500000000               0.000000000               0.000000000              -0.133000000               0.000000000               0.000000000              -0.155937500               0.000000000               0.000000000              -0.178875000               0.000000000               0.000000000              -0.201812500               0.000000000               0.000000000              -0.224750000               0.000000000               0.000000000              -0.247687500               0.000000000               0.000000000              -0.270625000               0.000000000               0.000000000              -0.293562500               0.000000000               0.000000000              -0.316500000               0.000000000               0.000000000              -0.339437500               0.000000000               0.000000000              -0.362375000               0.000000000               0.000000000              -0.385312500               0.000000000               0.000000000              -0.408250000               0.000000000               0.000000000              -0.431187500               0.000000000               0.000000000              -0.454125000               0.000000000               0.000000000              -0.477062500               0.000000000               0.000000000              -0.500000000               0.000000000              -0.133000000               0.000000000               0.000000000              -0.155937500               0.000000000               0.000000000              -0.178875000               0.000000000               0.000000000              -0.201812500               0.000000000               0.000000000              -0.224750000               0.000000000               0.000000000              -0.247687500               0.000000000               0.000000000              -0.270625000               0.000000000               0.000000000              -0.293562500               0.000000000               0.000000000              -0.316500000               0.000000000               0.000000000              -0.339437500               0.000000000               0.000000000              -0.362375000               0.000000000               0.000000000              -0.385312500               0.000000000               0.000000000              -0.408250000               0.000000000               0.000000000              -0.431187500               0.000000000               0.000000000              -0.454125000               0.000000000               0.000000000              -0.477062500               0.000000000               0.000000000              -0.500000000               0.000000000               0.000000000              -0.132359569              -0.013036280               0.000000000              -0.155337096              -0.016127762               0.000000000              -0.178314623              -0.019219245               0.000000000              -0.201292150              -0.022310727               0.000000000              -0.224269676              -0.025402210               0.000000000              -0.247247203              -0.028493692               0.000000000              -0.270224730              -0.031585175               0.000000000              -0.293202257              -0.034676657               0.000000000              -0.316179784              -0.037768140               0.000000000              -0.339157311              -0.040859622               0.000000000              -0.362134838              -0.043951105               0.000000000              -0.385112365              -0.047042587               0.000000000              -0.408089892              -0.050134070               0.000000000              -0.431067419              -0.053225552               0.000000000              -0.454044946              -0.056317035               0.000000000              -0.477022473              -0.059408517               0.000000000              -0.500000000              -0.062500000               0.000000000              -0.130444442              -0.025947013               0.000000000              -0.153541665              -0.032137825               0.000000000              -0.176638887              -0.038328636               0.000000000              -0.199736109              -0.044519448               0.000000000              -0.222833332              -0.050710260               0.000000000              -0.245930554              -0.056901071               0.000000000              -0.269027776              -0.063091883               0.000000000              -0.292124999              -0.069282695               0.000000000              -0.315222221              -0.075473506               0.000000000              -0.338319444              -0.081664318               0.000000000              -0.361416666              -0.087855130               0.000000000              -0.384513888              -0.094045942               0.000000000              -0.407611111              -0.100236753               0.000000000              -0.430708333              -0.106427565               0.000000000              -0.453805555              -0.112618377               0.000000000              -0.476902778              -0.118809188               0.000000000              -0.500000000              -0.125000000               0.000000000              -0.127273065              -0.038607862               0.000000000              -0.150568498              -0.047913621               0.000000000              -0.173863932              -0.057219379               0.000000000              -0.197159365              -0.066525138               0.000000000              -0.220454798              -0.075830897               0.000000000              -0.243750232              -0.085136655               0.000000000              -0.267045665              -0.094442414               0.000000000              -0.290341099              -0.103748172               0.000000000              -0.313636532              -0.113053931               0.000000000              -0.336931966              -0.122359690               0.000000000              -0.360227399              -0.131665448               0.000000000              -0.383522833              -0.140971207               0.000000000              -0.406818266              -0.150276966               0.000000000              -0.430113700              -0.159582724               0.000000000              -0.453409133              -0.168888483               0.000000000              -0.476704567              -0.178194241               0.000000000              -0.500000000              -0.187500000               0.000000000              -0.122875978              -0.050896897               0.000000000              -0.146446229              -0.063340840               0.000000000              -0.170016481              -0.075784784               0.000000000              -0.193586732              -0.088228728               0.000000000              -0.217156983              -0.100672672               0.000000000              -0.240727235              -0.113116616               0.000000000              -0.264297486              -0.125560560               0.000000000              -0.287867738              -0.138004504               0.000000000              -0.311437989              -0.150448448               0.000000000              -0.335008240              -0.162892392               0.000000000              -0.358578492              -0.175336336               0.000000000              -0.382148743              -0.187780280               0.000000000              -0.405718994              -0.200224224               0.000000000              -0.429289246              -0.212668168               0.000000000              -0.452859497              -0.225112112               0.000000000              -0.476429749              -0.237556056               0.000000000              -0.500000000              -0.250000000               0.000000000              -0.117295528              -0.062695766               0.000000000              -0.141214558              -0.078308531               0.000000000              -0.165133587              -0.093921295               0.000000000              -0.189052617              -0.109534060               0.000000000              -0.212971646              -0.125146824               0.000000000              -0.236890676              -0.140759589               0.000000000              -0.260809705              -0.156372354               0.000000000              -0.284728735              -0.171985118               0.000000000              -0.308647764              -0.187597883               0.000000000              -0.332566794              -0.203210648               0.000000000              -0.356485823              -0.218823412               0.000000000              -0.380404853              -0.234436177               0.000000000              -0.404323882              -0.250048941               0.000000000              -0.428242912              -0.265661706               0.000000000              -0.452161941              -0.281274471               0.000000000              -0.476080971              -0.296887235               0.000000000              -0.500000000              -0.312500000               0.000000000              -0.110585458              -0.073890841               0.000000000              -0.134923867              -0.092710163               0.000000000              -0.159262276              -0.111529486               0.000000000              -0.183600685              -0.130348808               0.000000000              -0.207939094              -0.149168131               0.000000000              -0.232277503              -0.167987453               0.000000000              -0.256615912              -0.186806776               0.000000000              -0.280954320              -0.205626098               0.000000000              -0.305292729              -0.224445420               0.000000000              -0.329631138              -0.243264743               0.000000000              -0.353969547              -0.262084065               0.000000000              -0.378307956              -0.280903388               0.000000000              -0.402646365              -0.299722710               0.000000000              -0.426984773              -0.318542033               0.000000000              -0.451323182              -0.337361355               0.000000000              -0.475661591              -0.356180678               0.000000000              -0.500000000              -0.375000000               0.000000000              -0.102810390              -0.084374307               0.000000000              -0.127634741              -0.106444663               0.000000000              -0.152459092              -0.128515018               0.000000000              -0.177283442              -0.150585374               0.000000000              -0.202107793              -0.172655730               0.000000000              -0.226932143              -0.194726086               0.000000000              -0.251756494              -0.216796442               0.000000000              -0.276580845              -0.238866798               0.000000000              -0.301405195              -0.260937153               0.000000000              -0.326229546              -0.283007509               0.000000000              -0.351053896              -0.305077865               0.000000000              -0.375878247              -0.327148221               0.000000000              -0.400702598              -0.349218577               0.000000000              -0.425526948              -0.371288933               0.000000000              -0.450351299              -0.393359288               0.000000000              -0.475175649              -0.415429644               0.000000000              -0.500000000              -0.437500000               0.000000000              -0.094045202              -0.094045202               0.000000000              -0.119417377              -0.119417377               0.000000000              -0.144789552              -0.144789552               0.000000000              -0.170161727              -0.170161727               0.000000000              -0.195533901              -0.195533901               0.000000000              -0.220906076              -0.220906076               0.000000000              -0.246278251              -0.246278251               0.000000000              -0.271650426              -0.271650426               0.000000000              -0.297022601              -0.297022601               0.000000000              -0.322394776              -0.322394776               0.000000000              -0.347766951              -0.347766951               0.000000000              -0.373139126              -0.373139126               0.000000000              -0.398511300              -0.398511300               0.000000000              -0.423883475              -0.423883475               0.000000000              -0.449255650              -0.449255650               0.000000000              -0.474627825              -0.474627825               0.000000000              -0.500000000              -0.500000000               0.000000000              -0.084374307              -0.102810390               0.000000000              -0.106444663              -0.127634741               0.000000000              -0.128515018              -0.152459092               0.000000000              -0.150585374              -0.177283442               0.000000000              -0.172655730              -0.202107793               0.000000000              -0.194726086              -0.226932143               0.000000000              -0.216796442              -0.251756494               0.000000000              -0.238866798              -0.276580845               0.000000000              -0.260937153              -0.301405195               0.000000000              -0.283007509              -0.326229546               0.000000000              -0.305077865              -0.351053896               0.000000000              -0.327148221              -0.375878247               0.000000000              -0.349218577              -0.400702598               0.000000000              -0.371288933              -0.425526948               0.000000000              -0.393359288              -0.450351299               0.000000000              -0.415429644              -0.475175649               0.000000000              -0.437500000              -0.500000000               0.000000000              -0.073890841              -0.110585458               0.000000000              -0.092710163              -0.134923867               0.000000000              -0.111529486              -0.159262276               0.000000000              -0.130348808              -0.183600685               0.000000000              -0.149168131              -0.207939094               0.000000000              -0.167987453              -0.232277503               0.000000000              -0.186806776              -0.256615912               0.000000000              -0.205626098              -0.280954320               0.000000000              -0.224445420              -0.305292729               0.000000000              -0.243264743              -0.329631138               0.000000000              -0.262084065              -0.353969547               0.000000000              -0.280903388              -0.378307956               0.000000000              -0.299722710              -0.402646365               0.000000000              -0.318542033              -0.426984773               0.000000000              -0.337361355              -0.451323182               0.000000000              -0.356180678              -0.475661591               0.000000000              -0.375000000              -0.500000000               0.000000000              -0.062695766              -0.117295528               0.000000000              -0.078308531              -0.141214558               0.000000000              -0.093921295              -0.165133587               0.000000000              -0.109534060              -0.189052617               0.000000000              -0.125146824              -0.212971646               0.000000000              -0.140759589              -0.236890676               0.000000000              -0.156372354              -0.260809705               0.000000000              -0.171985118              -0.284728735               0.000000000              -0.187597883              -0.308647764               0.000000000              -0.203210648              -0.332566794               0.000000000              -0.218823412              -0.356485823               0.000000000              -0.234436177              -0.380404853               0.000000000              -0.250048941              -0.404323882               0.000000000              -0.265661706              -0.428242912               0.000000000              -0.281274471              -0.452161941               0.000000000              -0.296887235              -0.476080971               0.000000000              -0.312500000              -0.500000000               0.000000000              -0.050896897              -0.122875978               0.000000000              -0.063340840              -0.146446229               0.000000000              -0.075784784              -0.170016481               0.000000000              -0.088228728              -0.193586732               0.000000000              -0.100672672              -0.217156983               0.000000000              -0.113116616              -0.240727235               0.000000000              -0.125560560              -0.264297486               0.000000000              -0.138004504              -0.287867738               0.000000000              -0.150448448              -0.311437989               0.000000000              -0.162892392              -0.335008240               0.000000000              -0.175336336              -0.358578492               0.000000000              -0.187780280              -0.382148743               0.000000000              -0.200224224              -0.405718994               0.000000000              -0.212668168              -0.429289246               0.000000000              -0.225112112              -0.452859497               0.000000000              -0.237556056              -0.476429749               0.000000000              -0.250000000              -0.500000000               0.000000000              -0.038607862              -0.127273065               0.000000000              -0.047913621              -0.150568498               0.000000000              -0.057219379              -0.173863932               0.000000000              -0.066525138              -0.197159365               0.000000000              -0.075830897              -0.220454798               0.000000000              -0.085136655              -0.243750232               0.000000000              -0.094442414              -0.267045665               0.000000000              -0.103748172              -0.290341099               0.000000000              -0.113053931              -0.313636532               0.000000000              -0.122359690              -0.336931966               0.000000000              -0.131665448              -0.360227399               0.000000000              -0.140971207              -0.383522833               0.000000000              -0.150276966              -0.406818266               0.000000000              -0.159582724              -0.430113700               0.000000000              -0.168888483              -0.453409133               0.000000000              -0.178194241              -0.476704567               0.000000000              -0.187500000              -0.500000000               0.000000000              -0.025947013              -0.130444442               0.000000000              -0.032137825              -0.153541665               0.000000000              -0.038328636              -0.176638887               0.000000000              -0.044519448              -0.199736109               0.000000000              -0.050710260              -0.222833332               0.000000000              -0.056901071              -0.245930554               0.000000000              -0.063091883              -0.269027776               0.000000000              -0.069282695              -0.292124999               0.000000000              -0.075473506              -0.315222221               0.000000000              -0.081664318              -0.338319444               0.000000000              -0.087855130              -0.361416666               0.000000000              -0.094045942              -0.384513888               0.000000000              -0.100236753              -0.407611111               0.000000000              -0.106427565              -0.430708333               0.000000000              -0.112618377              -0.453805555               0.000000000              -0.118809188              -0.476902778               0.000000000              -0.125000000              -0.500000000               0.000000000              -0.013036280              -0.132359569               0.000000000              -0.016127762              -0.155337096               0.000000000              -0.019219245              -0.178314623               0.000000000              -0.022310727              -0.201292150               0.000000000              -0.025402210              -0.224269676               0.000000000              -0.028493692              -0.247247203               0.000000000              -0.031585175              -0.270224730               0.000000000              -0.034676657              -0.293202257               0.000000000              -0.037768140              -0.316179784               0.000000000              -0.040859622              -0.339157311               0.000000000              -0.043951105              -0.362134838               0.000000000              -0.047042587              -0.385112365               0.000000000              -0.050134070              -0.408089892               0.000000000              -0.053225552              -0.431067419               0.000000000              -0.056317035              -0.454044946               0.000000000              -0.059408517              -0.477022473               0.000000000              -0.062500000              -0.500000000               0.000000000               0.000000000              -0.133000000               0.000000000               0.000000000              -0.155937500               0.000000000               0.000000000              -0.178875000               0.000000000               0.000000000              -0.201812500               0.000000000               0.000000000              -0.224750000               0.000000000               0.000000000              -0.247687500               0.000000000               0.000000000              -0.270625000               0.000000000               0.000000000              -0.293562500               0.000000000               0.000000000              -0.316500000               0.000000000               0.000000000              -0.339437500               0.000000000               0.000000000              -0.362375000               0.000000000               0.000000000              -0.385312500               0.000000000               0.000000000              -0.408250000               0.000000000               0.000000000              -0.431187500               0.000000000               0.000000000              -0.454125000               0.000000000               0.000000000              -0.477062500               0.000000000               0.000000000              -0.500000000               0.000000000              -0.133000000               0.000000000               0.000000000              -0.155937500               0.000000000               0.000000000              -0.178875000               0.000000000               0.000000000              -0.201812500               0.000000000               0.000000000              -0.224750000               0.000000000               0.000000000              -0.247687500               0.000000000               0.000000000              -0.270625000               0.000000000               0.000000000              -0.293562500               0.000000000               0.000000000              -0.316500000               0.000000000               0.000000000              -0.339437500               0.000000000               0.000000000              -0.362375000               0.000000000               0.000000000              -0.385312500               0.000000000               0.000000000              -0.408250000               0.000000000               0.000000000              -0.431187500               0.000000000               0.000000000              -0.454125000               0.000000000               0.000000000              -0.477062500               0.000000000               0.000000000              -0.500000000               0.000000000               0.000000000              -0.132359569               0.013036280               0.000000000              -0.155337096               0.016127762               0.000000000              -0.178314623               0.019219245               0.000000000              -0.201292150               0.022310727               0.000000000              -0.224269676               0.025402210               0.000000000              -0.247247203               0.028493692               0.000000000              -0.270224730               0.031585175               0.000000000              -0.293202257               0.034676657               0.000000000              -0.316179784               0.037768140               0.000000000              -0.339157311               0.040859622               0.000000000              -0.362134838               0.043951105               0.000000000              -0.385112365               0.047042587               0.000000000              -0.408089892               0.050134070               0.000000000              -0.431067419               0.053225552               0.000000000              -0.454044946               0.056317035               0.000000000              -0.477022473               0.059408517               0.000000000              -0.500000000               0.062500000               0.000000000              -0.130444442               0.025947013               0.000000000              -0.153541665               0.032137825               0.000000000              -0.176638887               0.038328636               0.000000000              -0.199736109               0.044519448               0.000000000              -0.222833332               0.050710260               0.000000000              -0.245930554               0.056901071               0.000000000              -0.269027776               0.063091883               0.000000000              -0.292124999               0.069282695               0.000000000              -0.315222221               0.075473506               0.000000000              -0.338319444               0.081664318               0.000000000              -0.361416666               0.087855130               0.000000000              -0.384513888               0.094045942               0.000000000              -0.407611111               0.100236753               0.000000000              -0.430708333               0.106427565               0.000000000              -0.453805555               0.112618377               0.000000000              -0.476902778               0.118809188               0.000000000              -0.500000000               0.125000000               0.000000000              -0.127273065               0.038607862               0.000000000              -0.150568498               0.047913621               0.000000000              -0.173863932               0.057219379               0.000000000              -0.197159365               0.066525138               0.000000000              -0.220454798               0.075830897               0.000000000              -0.243750232               0.085136655               0.000000000              -0.267045665               0.094442414               0.000000000              -0.290341099               0.103748172               0.000000000              -0.313636532               0.113053931               0.000000000              -0.336931966               0.122359690               0.000000000              -0.360227399               0.131665448               0.000000000              -0.383522833               0.140971207               0.000000000              -0.406818266               0.150276966               0.000000000              -0.430113700               0.159582724               0.000000000              -0.453409133               0.168888483               0.000000000              -0.476704567               0.178194241               0.000000000              -0.500000000               0.187500000               0.000000000              -0.122875978               0.050896897               0.000000000              -0.146446229               0.063340840               0.000000000              -0.170016481               0.075784784               0.000000000              -0.193586732               0.088228728               0.000000000              -0.217156983               0.100672672               0.000000000              -0.240727235               0.113116616               0.000000000              -0.264297486               0.125560560               0.000000000              -0.287867738               0.138004504               0.000000000              -0.311437989               0.150448448               0.000000000              -0.335008240               0.162892392               0.000000000              -0.358578492               0.175336336               0.000000000              -0.382148743               0.187780280               0.000000000              -0.405718994               0.200224224               0.000000000              -0.429289246               0.212668168               0.000000000              -0.452859497               0.225112112               0.000000000              -0.476429749               0.237556056               0.000000000              -0.500000000               0.250000000               0.000000000              -0.117295528               0.062695766               0.000000000              -0.141214558               0.078308531               0.000000000              -0.165133587               0.093921295               0.000000000              -0.189052617               0.109534060               0.000000000              -0.212971646               0.125146824               0.000000000              -0.236890676               0.140759589               0.000000000              -0.260809705               0.156372354               0.000000000              -0.284728735               0.171985118               0.000000000              -0.308647764               0.187597883               0.000000000              -0.332566794               0.203210648               0.000000000              -0.356485823               0.218823412               0.000000000              -0.380404853               0.234436177               0.000000000              -0.404323882               0.250048941               0.000000000              -0.428242912               0.265661706               0.000000000              -0.452161941               0.281274471               0.000000000              -0.476080971               0.296887235               0.000000000              -0.500000000               0.312500000               0.000000000              -0.110585458               0.073890841               0.000000000              -0.134923867               0.092710163               0.000000000              -0.159262276               0.111529486               0.000000000              -0.183600685               0.130348808               0.000000000              -0.207939094               0.149168131               0.000000000              -0.232277503               0.167987453               0.000000000              -0.256615912               0.186806776               0.000000000              -0.280954320               0.205626098               0.000000000              -0.305292729               0.224445420               0.000000000              -0.329631138               0.243264743               0.000000000              -0.353969547               0.262084065               0.000000000              -0.378307956               0.280903388               0.000000000              -0.402646365               0.299722710               0.000000000              -0.426984773               0.318542033               0.000000000              -0.451323182               0.337361355               0.000000000              -0.475661591               0.356180678               0.000000000              -0.500000000               0.375000000               0.000000000              -0.102810390               0.084374307               0.000000000              -0.127634741               0.106444663               0.000000000              -0.152459092               0.128515018               0.000000000              -0.177283442               0.150585374               0.000000000              -0.202107793               0.172655730               0.000000000              -0.226932143               0.194726086               0.000000000              -0.251756494               0.216796442               0.000000000              -0.276580845               0.238866798               0.000000000              -0.301405195               0.260937153               0.000000000              -0.326229546               0.283007509               0.000000000              -0.351053896               0.305077865               0.000000000              -0.375878247               0.327148221               0.000000000              -0.400702598               0.349218577               0.000000000              -0.425526948               0.371288933               0.000000000              -0.450351299               0.393359288               0.000000000              -0.475175649               0.415429644               0.000000000              -0.500000000               0.437500000               0.000000000              -0.094045202               0.094045202               0.000000000              -0.119417377               0.119417377               0.000000000              -0.144789552               0.144789552               0.000000000              -0.170161727               0.170161727               0.000000000              -0.195533901               0.195533901               0.000000000              -0.220906076               0.220906076               0.000000000              -0.246278251               0.246278251               0.000000000              -0.271650426               0.271650426               0.000000000              -0.297022601               0.297022601               0.000000000              -0.322394776               0.322394776               0.000000000              -0.347766951               0.347766951               0.000000000              -0.373139126               0.373139126               0.000000000              -0.398511300               0.398511300               0.000000000              -0.423883475               0.423883475               0.000000000              -0.449255650               0.449255650               0.000000000              -0.474627825               0.474627825               0.000000000              -0.500000000               0.500000000               0.000000000              -0.084374307               0.102810390               0.000000000              -0.106444663               0.127634741               0.000000000              -0.128515018               0.152459092               0.000000000              -0.150585374               0.177283442               0.000000000              -0.172655730               0.202107793               0.000000000              -0.194726086               0.226932143               0.000000000              -0.216796442               0.251756494               0.000000000              -0.238866798               0.276580845               0.000000000              -0.260937153               0.301405195               0.000000000              -0.283007509               0.326229546               0.000000000              -0.305077865               0.351053896               0.000000000              -0.327148221               0.375878247               0.000000000              -0.349218577               0.400702598               0.000000000              -0.371288933               0.425526948               0.000000000              -0.393359288               0.450351299               0.000000000              -0.415429644               0.475175649               0.000000000              -0.437500000               0.500000000               0.000000000              -0.073890841               0.110585458               0.000000000              -0.092710163               0.134923867               0.000000000              -0.111529486               0.159262276               0.000000000              -0.130348808               0.183600685               0.000000000              -0.149168131               0.207939094               0.000000000              -0.167987453               0.232277503               0.000000000              -0.186806776               0.256615912               0.000000000              -0.205626098               0.280954320               0.000000000              -0.224445420               0.305292729               0.000000000              -0.243264743               0.329631138               0.000000000              -0.262084065               0.353969547               0.000000000              -0.280903388               0.378307956               0.000000000              -0.299722710               0.402646365               0.000000000              -0.318542033               0.426984773               0.000000000              -0.337361355               0.451323182               0.000000000              -0.356180678               0.475661591               0.000000000              -0.375000000               0.500000000               0.000000000              -0.062695766               0.117295528               0.000000000              -0.078308531               0.141214558               0.000000000              -0.093921295               0.165133587               0.000000000              -0.109534060               0.189052617               0.000000000              -0.125146824               0.212971646               0.000000000              -0.140759589               0.236890676               0.000000000              -0.156372354               0.260809705               0.000000000              -0.171985118               0.284728735               0.000000000              -0.187597883               0.308647764               0.000000000              -0.203210648               0.332566794               0.000000000              -0.218823412               0.356485823               0.000000000              -0.234436177               0.380404853               0.000000000              -0.250048941               0.404323882               0.000000000              -0.265661706               0.428242912               0.000000000              -0.281274471               0.452161941               0.000000000              -0.296887235               0.476080971               0.000000000              -0.312500000               0.500000000               0.000000000              -0.050896897               0.122875978               0.000000000              -0.063340840               0.146446229               0.000000000              -0.075784784               0.170016481               0.000000000              -0.088228728               0.193586732               0.000000000              -0.100672672               0.217156983               0.000000000              -0.113116616               0.240727235               0.000000000              -0.125560560               0.264297486               0.000000000              -0.138004504               0.287867738               0.000000000              -0.150448448               0.311437989               0.000000000              -0.162892392               0.335008240               0.000000000              -0.175336336               0.358578492               0.000000000              -0.187780280               0.382148743               0.000000000              -0.200224224               0.405718994               0.000000000              -0.212668168               0.429289246               0.000000000              -0.225112112               0.452859497               0.000000000              -0.237556056               0.476429749               0.000000000              -0.250000000               0.500000000               0.000000000              -0.038607862               0.127273065               0.000000000              -0.047913621               0.150568498               0.000000000              -0.057219379               0.173863932               0.000000000              -0.066525138               0.197159365               0.000000000              -0.075830897               0.220454798               0.000000000              -0.085136655               0.243750232               0.000000000              -0.094442414               0.267045665               0.000000000              -0.103748172               0.290341099               0.000000000              -0.113053931               0.313636532               0.000000000              -0.122359690               0.336931966               0.000000000              -0.131665448               0.360227399               0.000000000              -0.140971207               0.383522833               0.000000000              -0.150276966               0.406818266               0.000000000              -0.159582724               0.430113700               0.000000000              -0.168888483               0.453409133               0.000000000              -0.178194241               0.476704567               0.000000000              -0.187500000               0.500000000               0.000000000              -0.025947013               0.130444442               0.000000000              -0.032137825               0.153541665               0.000000000              -0.038328636               0.176638887               0.000000000              -0.044519448               0.199736109               0.000000000              -0.050710260               0.222833332               0.000000000              -0.056901071               0.245930554               0.000000000              -0.063091883               0.269027776               0.000000000              -0.069282695               0.292124999               0.000000000              -0.075473506               0.315222221               0.000000000              -0.081664318               0.338319444               0.000000000              -0.087855130               0.361416666               0.000000000              -0.094045942               0.384513888               0.000000000              -0.100236753               0.407611111               0.000000000              -0.106427565               0.430708333               0.000000000              -0.112618377               0.453805555               0.000000000              -0.118809188               0.476902778               0.000000000              -0.125000000               0.500000000               0.000000000              -0.013036280               0.132359569               0.000000000              -0.016127762               0.155337096               0.000000000              -0.019219245               0.178314623               0.000000000              -0.022310727               0.201292150               0.000000000              -0.025402210               0.224269676               0.000000000              -0.028493692               0.247247203               0.000000000              -0.031585175               0.270224730               0.000000000              -0.034676657               0.293202257               0.000000000              -0.037768140               0.316179784               0.000000000              -0.040859622               0.339157311               0.000000000              -0.043951105               0.362134838               0.000000000              -0.047042587               0.385112365               0.000000000              -0.050134070               0.408089892               0.000000000              -0.053225552               0.431067419               0.000000000              -0.056317035               0.454044946               0.000000000              -0.059408517               0.477022473               0.000000000              -0.062500000               0.500000000               0.000000000               0.000000000               0.133000000               0.000000000               0.000000000               0.155937500               0.000000000               0.000000000               0.178875000               0.000000000               0.000000000               0.201812500               0.000000000               0.000000000               0.224750000               0.000000000               0.000000000               0.247687500               0.000000000               0.000000000               0.270625000               0.000000000               0.000000000               0.293562500               0.000000000               0.000000000               0.316500000               0.000000000               0.000000000               0.339437500               0.000000000               0.000000000               0.362375000               0.000000000               0.000000000               0.385312500               0.000000000               0.000000000               0.408250000               0.000000000               0.000000000               0.431187500               0.000000000               0.000000000               0.454125000               0.000000000               0.000000000               0.477062500               0.000000000               0.000000000               0.500000000               0.000000000 </DataArray>
</Points>
<Cells>
<DataArray type="Int32"                                    Name="connectivity"                                                      NumberOfComponents=" 1" format="ascii">
         0          1         18         17          1          2         19         18          2          3         20         19          3          4         21         20          4          5         22         21          5          6         23         22          6          7         24         23          7          8         25         24          8          9         26         25          9         10         27         26         10         11         28         27         11         12         29         28         12         13         30         29         13         14         31         30         14         15         32         31         15         16         33         32         17         18         35         34         18         19         36         35         19         20         37         36         20         21         38         37         21         22         39         38         22         23         40         39         23         24         41         40         24         25         42         41         25         26         43         42         26         27         44         43         27         28         45         44         28         29         46         45         29         30         47         46         30         31         48         47         31         32         49         48         32         33         50         49         34         35         52         51         35         36         53         52         36         37         54         53         37         38         55         54         38         39         56         55         39         40         57         56         40         41         58         57         41         42         59         58         42         43         60         59         43         44         61         60         44         45         62         61         45         46         63         62         46         47         64         63         47         48         65         64         48         49         66         65         49         50         67         66         51         52         69         68         52         53         70         69         53         54         71         70         54         55         72         71         55         56         73         72         56         57         74         73         57         58         75         74         58         59         76         75         59         60         77         76         60         61         78         77         61         62         79         78         62         63         80         79         63         64         81         80         64         65         82         81         65         66         83         82         66         67         84         83         68         69         86         85         69         70         87         86         70         71         88         87         71         72         89         88         72         73         90         89         73         74         91         90         74         75         92         91         75         76         93         92         76         77         94         93         77         78         95         94         78         79         96         95         79         80         97         96         80         81         98         97         81         82         99         98         82         83        100         99         83         84        101        100         85         86        103        102         86         87        104        103         87         88        105        104         88         89        106        105         89         90        107        106         90         91        108        107         91         92        109        108         92         93        110        109         93         94        111        110         94         95        112        111         95         96        113        112         96         97        114        113         97         98        115        114         98         99        116        115         99        100        117        116        100        101        118        117        102        103        120        119        103        104        121        120        104        105        122        121        105        106        123        122        106        107        124        123        107        108        125        124        108        109        126        125        109        110        127        126        110        111        128        127        111        112        129        128        112        113        130        129        113        114        131        130        114        115        132        131        115        116        133        132        116        117        134        133        117        118        135        134        119        120        137        136        120        121        138        137        121        122        139        138        122        123        140        139        123        124        141        140        124        125        142        141        125        126        143        142        126        127        144        143        127        128        145        144        128        129        146        145        129        130        147        146        130        131        148        147        131        132        149        148        132        133        150        149        133        134        151        150        134        135        152        151        136        137        154        153        137        138        155        154        138        139        156        155        139        140        157        156        140        141        158        157        141        142        159        158        142        143        160        159        143        144        161        160        144        145        162        161        145        146        163        162        146        147        164        163        147        148        165        164        148        149        166        165        149        150        167        166        150        151        168        167        151        152        169        168        153        154        171        170        154        155        172        171        155        156        173        172        156        157        174        173        157        158        175        174        158        159        176        175        159        160        177        176        160        161        178        177        161        162        179        178        162        163        180        179        163        164        181        180        164        165        182        181        165        166        183        182        166        167        184        183        167        168        185        184        168        169        186        185        170        171        188        187        171        172        189        188        172        173        190        189        173        174        191        190        174        175        192        191        175        176        193        192        176        177        194        193        177        178        195        194        178        179        196        195        179        180        197        196        180        181        198        197        181        182        199        198        182        183        200        199        183        184        201        200        184        185        202        201        185        186        203        202        187        188        205        204        188        189        206        205        189        190        207        206        190        191        208        207        191        192        209        208        192        193        210        209        193        194        211        210        194        195        212        211        195        196        213        212        196        197        214        213        197        198        215        214        198        199        216        215        199        200        217        216        200        201        218        217        201        202        219        218        202        203        220        219        204        205        222        221        205        206        223        222        206        207        224        223        207        208        225        224        208        209        226        225        209        210        227        226        210        211        228        227        211        212        229        228        212        213        230        229        213        214        231        230        214        215        232        231        215        216        233        232        216        217        234        233        217        218        235        234        218        219        236        235        219        220        237        236        221        222        239        238        222        223        240        239        223        224        241        240        224        225        242        241        225        226        243        242        226        227        244        243        227        228        245        244        228        229        246        245        229        230        247        246        230        231        248        247        231        232        249        248        232        233        250        249        233        234        251        250        234        235        252        251        235        236        253        252        236        237        254        253        238        239        256        255        239        240        257        256        240        241        258        257        241        242        259        258        242        243        260        259        243        244        261        260        244        245        262        261        245        246        263        262        246        247        264        263        247        248        265        264        248        249        266        265        249        250        267        266        250        251        268        267        251        252        269        268        252        253        270        269        253        254        271        270        255        256        273        272        256        257        274        273        257        258        275        274        258        259        276        275        259        260        277        276        260        261        278        277        261        262        279        278        262        263        280        279        263        264        281        280        264        265        282        281        265        266        283        282        266        267        284        283        267        268        285        284        268        269        286        285        269        270        287        286        270        271        288        287        306        307          1          0        307        308          2          1        308        309          3          2        309        310          4          3        310        311          5          4        311        312          6          5        312        313          7          6        313        314          8          7        314        315          9          8        315        316         10          9        316        317         11         10        317        318         12         11        318        319         13         12        319        320         14         13        320        321         15         14        321        322         16         15        323        324        307        306        324        325        308        307        325        326        309        308        326        327        310        309        327        328        311        310        328        329        312        311        329        330        313        312        330        331        314        313        331        332        315        314        332        333        316        315        333        334        317        316        334        335        318        317        335        336        319        318        336        337        320        319        337        338        321        320        338        339        322        321        340        341        324        323        341        342        325        324        342        343        326        325        343        344        327        326        344        345        328        327        345        346        329        328        346        347        330        329        347        348        331        330        348        349        332        331        349        350        333        332        350        351        334        333        351        352        335        334        352        353        336        335        353        354        337        336        354        355        338        337        355        356        339        338        357        358        341        340        358        359        342        341        359        360        343        342        360        361        344        343        361        362        345        344        362        363        346        345        363        364        347        346        364        365        348        347        365        366        349        348        366        367        350        349        367        368        351        350        368        369        352        351        369        370        353        352        370        371        354        353        371        372        355        354        372        373        356        355        374        375        358        357        375        376        359        358        376        377        360        359        377        378        361        360        378        379        362        361        379        380        363        362        380        381        364        363        381        382        365        364        382        383        366        365        383        384        367        366        384        385        368        367        385        386        369        368        386        387        370        369        387        388        371        370        388        389        372        371        389        390        373        372        391        392        375        374        392        393        376        375        393        394        377        376        394        395        378        377        395        396        379        378        396        397        380        379        397        398        381        380        398        399        382        381        399        400        383        382        400        401        384        383        401        402        385        384        402        403        386        385        403        404        387        386        404        405        388        387        405        406        389        388        406        407        390        389        408        409        392        391        409        410        393        392        410        411        394        393        411        412        395        394        412        413        396        395        413        414        397        396        414        415        398        397        415        416        399        398        416        417        400        399        417        418        401        400        418        419        402        401        419        420        403        402        420        421        404        403        421        422        405        404        422        423        406        405        423        424        407        406        425        426        409        408        426        427        410        409        427        428        411        410        428        429        412        411        429        430        413        412        430        431        414        413        431        432        415        414        432        433        416        415        433        434        417        416        434        435        418        417        435        436        419        418        436        437        420        419        437        438        421        420        438        439        422        421        439        440        423        422        440        441        424        423        442        443        426        425        443        444        427        426        444        445        428        427        445        446        429        428        446        447        430        429        447        448        431        430        448        449        432        431        449        450        433        432        450        451        434        433        451        452        435        434        452        453        436        435        453        454        437        436        454        455        438        437        455        456        439        438        456        457        440        439        457        458        441        440        459        460        443        442        460        461        444        443        461        462        445        444        462        463        446        445        463        464        447        446        464        465        448        447        465        466        449        448        466        467        450        449        467        468        451        450        468        469        452        451        469        470        453        452        470        471        454        453        471        472        455        454        472        473        456        455        473        474        457        456        474        475        458        457        476        477        460        459        477        478        461        460        478        479        462        461        479        480        463        462        480        481        464        463        481        482        465        464        482        483        466        465        483        484        467        466        484        485        468        467        485        486        469        468        486        487        470        469        487        488        471        470        488        489        472        471        489        490        473        472        490        491        474        473        491        492        475        474        493        494        477        476        494        495        478        477        495        496        479        478        496        497        480        479        497        498        481        480        498        499        482        481        499        500        483        482        500        501        484        483        501        502        485        484        502        503        486        485        503        504        487        486        504        505        488        487        505        506        489        488        506        507        490        489        507        508        491        490        508        509        492        491        510        511        494        493        511        512        495        494        512        513        496        495        513        514        497        496        514        515        498        497        515        516        499        498        516        517        500        499        517        518        501        500        518        519        502        501        519        520        503        502        520        521        504        503        521        522        505        504        522        523        506        505        523        524        507        506        524        525        508        507        525        526        509        508        527        528        511        510        528        529        512        511        529        530        513        512        530        531        514        513        531        532        515        514        532        533        516        515        533        534        517        516        534        535        518        517        535        536        519        518        536        537        520        519        537        538        521        520        538        539        522        521        539        540        523        522        540        541        524        523        541        542        525        524        542        543        526        525        544        545        528        527        545        546        529        528        546        547        530        529        547        548        531        530        548        549        532        531        549        550        533        532        550        551        534        533        551        552        535        534        552        553        536        535        553        554        537        536        554        555        538        537        555        556        539        538        556        557        540        539        557        558        541        540        558        559        542        541        559        560        543        542        561        562        545        544        562        563        546        545        563        564        547        546        564        565        548        547        565        566        549        548        566        567        550        549        567        568        551        550        568        569        552        551        569        570        553        552        570        571        554        553        571        572        555        554        572        573        556        555        573        574        557        556        574        575        558        557        575        576        559        558        576        577        560        559        578        579        596        595        579        580        597        596        580        581        598        597        581        582        599        598        582        583        600        599        583        584        601        600        584        585        602        601        585        586        603        602        586        587        604        603        587        588        605        604        588        589        606        605        589        590        607        606        590        591        608        607        591        592        609        608        592        593        610        609        593        594        611        610        595        596        613        612        596        597        614        613        597        598        615        614        598        599        616        615        599        600        617        616        600        601        618        617        601        602        619        618        602        603        620        619        603        604        621        620        604        605        622        621        605        606        623        622        606        607        624        623        607        608        625        624        608        609        626        625        609        610        627        626        610        611        628        627        612        613        630        629        613        614        631        630        614        615        632        631        615        616        633        632        616        617        634        633        617        618        635        634        618        619        636        635        619        620        637        636        620        621        638        637        621        622        639        638        622        623        640        639        623        624        641        640        624        625        642        641        625        626        643        642        626        627        644        643        627        628        645        644        629        630        647        646        630        631        648        647        631        632        649        648        632        633        650        649        633        634        651        650        634        635        652        651        635        636        653        652        636        637        654        653        637        638        655        654        638        639        656        655        639        640        657        656        640        641        658        657        641        642        659        658        642        643        660        659        643        644        661        660        644        645        662        661        646        647        664        663        647        648        665        664        648        649        666        665        649        650        667        666        650        651        668        667        651        652        669        668        652        653        670        669        653        654        671        670        654        655        672        671        655        656        673        672        656        657        674        673        657        658        675        674        658        659        676        675        659        660        677        676        660        661        678        677        661        662        679        678        663        664        681        680        664        665        682        681        665        666        683        682        666        667        684        683        667        668        685        684        668        669        686        685        669        670        687        686        670        671        688        687        671        672        689        688        672        673        690        689        673        674        691        690        674        675        692        691        675        676        693        692        676        677        694        693        677        678        695        694        678        679        696        695        680        681        698        697        681        682        699        698        682        683        700        699        683        684        701        700        684        685        702        701        685        686        703        702        686        687        704        703        687        688        705        704        688        689        706        705        689        690        707        706        690        691        708        707        691        692        709        708        692        693        710        709        693        694        711        710        694        695        712        711        695        696        713        712        697        698        715        714        698        699        716        715        699        700        717        716        700        701        718        717        701        702        719        718        702        703        720        719        703        704        721        720        704        705        722        721        705        706        723        722        706        707        724        723        707        708        725        724        708        709        726        725        709        710        727        726        710        711        728        727        711        712        729        728        712        713        730        729        714        715        732        731        715        716        733        732        716        717        734        733        717        718        735        734        718        719        736        735        719        720        737        736        720        721        738        737        721        722        739        738        722        723        740        739        723        724        741        740        724        725        742        741        725        726        743        742        726        727        744        743        727        728        745        744        728        729        746        745        729        730        747        746        731        732        749        748        732        733        750        749        733        734        751        750        734        735        752        751        735        736        753        752        736        737        754        753        737        738        755        754        738        739        756        755        739        740        757        756        740        741        758        757        741        742        759        758        742        743        760        759        743        744        761        760        744        745        762        761        745        746        763        762        746        747        764        763        748        749        766        765        749        750        767        766        750        751        768        767        751        752        769        768        752        753        770        769        753        754        771        770        754        755        772        771        755        756        773        772        756        757        774        773        757        758        775        774        758        759        776        775        759        760        777        776        760        761        778        777        761        762        779        778        762        763        780        779        763        764        781        780        765        766        783        782        766        767        784        783        767        768        785        784        768        769        786        785        769        770        787        786        770        771        788        787        771        772        789        788        772        773        790        789        773        774        791        790        774        775        792        791        775        776        793        792        776        777        794        793        777        778        795        794        778        779        796        795        779        780        797        796        780        781        798        797        782        783        800        799        783        784        801        800        784        785        802        801        785        786        803        802        786        787        804        803        787        788        805        804        788        789        806        805        789        790        807        806        790        791        808        807        791        792        809        808        792        793        810        809        793        794        811        810        794        795        812        811        795        796        813        812        796        797        814        813        797        798        815        814        799        800        817        816        800        801        818        817        801        802        819        818        802        803        820        819        803        804        821        820        804        805        822        821        805        806        823        822        806        807        824        823        807        808        825        824        808        809        826        825        809        810        827        826        810        811        828        827        811        812        829        828        812        813        830        829        813        814        831        830        814        815        832        831        816        817        834        833        817        818        835        834        818        819        836        835        819        820        837        836        820        821        838        837        821        822        839        838        822        823        840        839        823        824        841        840        824        825        842        841        825        826        843        842        826        827        844        843        827        828        845        844        828        829        846        845        829        830        847        846        830        831        848        847        831        832        849        848        833        834        562        561        834        835        563        562        835        836        564        563        836        837        565        564        837        838        566        565        838        839        567        566        839        840        568        567        840        841        569        568        841        842        570        569        842        843        571        570        843        844        572        571        844        845        573        572        845        846        574        573        846        847        575        574        847        848        576        575        848        849        577        576        884        885        579        578        885        886        580        579        886        887        581        580        887        888        582        581        888        889        583        582        889        890        584        583        890        891        585        584        891        892        586        585        892        893        587        586        893        894        588        587        894        895        589        588        895        896        590        589        896        897        591        590        897        898        592        591        898        899        593        592        899        900        594        593        901        902        885        884        902        903        886        885        903        904        887        886        904        905        888        887        905        906        889        888        906        907        890        889        907        908        891        890        908        909        892        891        909        910        893        892        910        911        894        893        911        912        895        894        912        913        896        895        913        914        897        896        914        915        898        897        915        916        899        898        916        917        900        899        918        919        902        901        919        920        903        902        920        921        904        903        921        922        905        904        922        923        906        905        923        924        907        906        924        925        908        907        925        926        909        908        926        927        910        909        927        928        911        910        928        929        912        911        929        930        913        912        930        931        914        913        931        932        915        914        932        933        916        915        933        934        917        916        935        936        919        918        936        937        920        919        937        938        921        920        938        939        922        921        939        940        923        922        940        941        924        923        941        942        925        924        942        943        926        925        943        944        927        926        944        945        928        927        945        946        929        928        946        947        930        929        947        948        931        930        948        949        932        931        949        950        933        932        950        951        934        933        952        953        936        935        953        954        937        936        954        955        938        937        955        956        939        938        956        957        940        939        957        958        941        940        958        959        942        941        959        960        943        942        960        961        944        943        961        962        945        944        962        963        946        945        963        964        947        946        964        965        948        947        965        966        949        948        966        967        950        949        967        968        951        950        969        970        953        952        970        971        954        953        971        972        955        954        972        973        956        955        973        974        957        956        974        975        958        957        975        976        959        958        976        977        960        959        977        978        961        960        978        979        962        961        979        980        963        962        980        981        964        963        981        982        965        964        982        983        966        965        983        984        967        966        984        985        968        967        986        987        970        969        987        988        971        970        988        989        972        971        989        990        973        972        990        991        974        973        991        992        975        974        992        993        976        975        993        994        977        976        994        995        978        977        995        996        979        978        996        997        980        979        997        998        981        980        998        999        982        981        999       1000        983        982       1000       1001        984        983       1001       1002        985        984       1003       1004        987        986       1004       1005        988        987       1005       1006        989        988       1006       1007        990        989       1007       1008        991        990       1008       1009        992        991       1009       1010        993        992       1010       1011        994        993       1011       1012        995        994       1012       1013        996        995       1013       1014        997        996       1014       1015        998        997       1015       1016        999        998       1016       1017       1000        999       1017       1018       1001       1000       1018       1019       1002       1001       1020       1021       1004       1003       1021       1022       1005       1004       1022       1023       1006       1005       1023       1024       1007       1006       1024       1025       1008       1007       1025       1026       1009       1008       1026       1027       1010       1009       1027       1028       1011       1010       1028       1029       1012       1011       1029       1030       1013       1012       1030       1031       1014       1013       1031       1032       1015       1014       1032       1033       1016       1015       1033       1034       1017       1016       1034       1035       1018       1017       1035       1036       1019       1018       1037       1038       1021       1020       1038       1039       1022       1021       1039       1040       1023       1022       1040       1041       1024       1023       1041       1042       1025       1024       1042       1043       1026       1025       1043       1044       1027       1026       1044       1045       1028       1027       1045       1046       1029       1028       1046       1047       1030       1029       1047       1048       1031       1030       1048       1049       1032       1031       1049       1050       1033       1032       1050       1051       1034       1033       1051       1052       1035       1034       1052       1053       1036       1035       1054       1055       1038       1037       1055       1056       1039       1038       1056       1057       1040       1039       1057       1058       1041       1040       1058       1059       1042       1041       1059       1060       1043       1042       1060       1061       1044       1043       1061       1062       1045       1044       1062       1063       1046       1045       1063       1064       1047       1046       1064       1065       1048       1047       1065       1066       1049       1048       1066       1067       1050       1049       1067       1068       1051       1050       1068       1069       1052       1051       1069       1070       1053       1052       1071       1072       1055       1054       1072       1073       1056       1055       1073       1074       1057       1056       1074       1075       1058       1057       1075       1076       1059       1058       1076       1077       1060       1059       1077       1078       1061       1060       1078       1079       1062       1061       1079       1080       1063       1062       1080       1081       1064       1063       1081       1082       1065       1064       1082       1083       1066       1065       1083       1084       1067       1066       1084       1085       1068       1067       1085       1086       1069       1068       1086       1087       1070       1069       1088       1089       1072       1071       1089       1090       1073       1072       1090       1091       1074       1073       1091       1092       1075       1074       1092       1093       1076       1075       1093       1094       1077       1076       1094       1095       1078       1077       1095       1096       1079       1078       1096       1097       1080       1079       1097       1098       1081       1080       1098       1099       1082       1081       1099       1100       1083       1082       1100       1101       1084       1083       1101       1102       1085       1084       1102       1103       1086       1085       1103       1104       1087       1086       1105       1106       1089       1088       1106       1107       1090       1089       1107       1108       1091       1090       1108       1109       1092       1091       1109       1110       1093       1092       1110       1111       1094       1093       1111       1112       1095       1094       1112       1113       1096       1095       1113       1114       1097       1096       1114       1115       1098       1097       1115       1116       1099       1098       1116       1117       1100       1099       1117       1118       1101       1100       1118       1119       1102       1101       1119       1120       1103       1102       1120       1121       1104       1103       1122       1123       1106       1105       1123       1124       1107       1106       1124       1125       1108       1107       1125       1126       1109       1108       1126       1127       1110       1109       1127       1128       1111       1110       1128       1129       1112       1111       1129       1130       1113       1112       1130       1131       1114       1113       1131       1132       1115       1114       1132       1133       1116       1115       1133       1134       1117       1116       1134       1135       1118       1117       1135       1136       1119       1118       1136       1137       1120       1119       1137       1138       1121       1120        272        273       1123       1122        273        274       1124       1123        274        275       1125       1124        275        276       1126       1125        276        277       1127       1126        277        278       1128       1127        278        279       1129       1128        279        280       1130       1129        280        281       1131       1130        281        282       1132       1131        282        283       1133       1132        283        284       1134       1133        284        285       1135       1134        285        286       1136       1135        286        287       1137       1136        287        288       1138       1137 </DataArray>
<DataArray type="Int32"                                    Name="offsets"                                                      NumberOfComponents=" 1" format="ascii">
         4          8         12         16         20         24         28         32         36         40         44         48         52         56         60         64         68         72         76         80         84         88         92         96        100        104        108        112        116        120        124        128        132        136        140        144        148        152        156        160        164        168        172        176        180        184        188        192        196        200        204        208        212        216        220        224        228        232        236        240        244        248        252        256        260        264        268        272        276        280        284        288        292        296        300        304        308        312        316        320        324        328        332        336        340        344        348        352        356        360        364        368        372        376        380        384        388        392        396        400        404        408        412        416        420        424        428        432        436        440        444        448        452        456        460        464        468        472        476        480        484        488        492        496        500        504        508        512        516        520        524        528        532        536        540        544        548        552        556        560        564        568        572        576        580        584        588        592        596        600        604        608        612        616        620        624        628        632        636        640        644        648        652        656        660        664        668        672        676        680        684        688        692        696        700        704        708        712        716        720        724        728        732        736        740        744        748        752        756        760        764        768        772        776        780        784        788        792        796        800        804        808        812        816        820        824        828        832        836        840        844        848        852        856        860        864        868        872        876        880        884        888        892        896        900        904        908        912        916        920        924        928        932        936        940        944        948        952        956        960        964        968        972        976        980        984        988        992        996       1000       1004       1008       1012       1016       1020       1024       1028       1032       1036       1040       1044       1048       1052       1056       1060       1064       1068       1072       1076       1080       1084       1088       1092       1096       1100       1104       1108       1112       1116       1120       1124       1128       1132       1136       1140       1144       1148       1152       1156       1160       1164       1168       1172       1176       1180       1184       1188       1192       1196       1200       1204       1208       1212       1216       1220       1224       1228       1232       1236       1240       1244       1248       1252       1256       1260       1264       1268       1272       1276       1280       1284       1288       1292       1296       1300       1304       1308       1312       1316       1320       1324       1328       1332       1336       1340       1344       1348       1352       1356       1360       1364       1368       1372       1376       1380       1384       1388       1392       1396       1400       1404       1408       1412       1416       1420       1424       1428       1432       1436       1440       1444       1448       1452       1456       1460       1464       1468       1472       1476       1480       1484       1488       1492       1496       1500       1504       1508       1512       1516       1520       1524       1528       1532       1536       1540       1544       1548       1552       1556       1560       1564       1568       1572       1576       1580       1584       1588       1592       1596       1600       1604       1608       1612       1616       1620       1624       1628       1632       1636       1640       1644       1648       1652       1656       1660       1664       1668       1672       1676       1680       1684       1688       1692       1696       1700       1704       1708       1712       1716       1720       1724       1728       1732       1736       1740       1744       1748       1752       1756       1760       1764       1768       1772       1776       1780       1784       1788       1792       1796       1800       1804       1808       1812       1816       1820       1824       1828       1832       1836       1840       1844       1848       1852       1856       1860       1864       1868       1872       1876       1880       1884       1888       1892       1896       1900       1904       1908       1912       1916       1920       1924       1928       1932       1936       1940       1944       1948       1952       1956       1960       1964       1968       1972       1976       1980       1984       1988       1992       1996       2000       2004       2008       2012       2016       2020       2024       2028       2032       2036       2040       2044       2048       2052       2056       2060       2064       2068       2072       2076       2080       2084       2088       2092       2096       2100       2104       2108       2112       2116       2120       2124       2128       2132       2136       2140       2144       2148       2152       2156       2160       2164       2168       2172       2176       2180       2184       2188       2192       2196       2200       2204       2208       2212       2216       2220       2224       2228       2232       2236       2240       2244       2248       2252       2256       2260       2264       2268       2272       2276       2280       2284       2288       2292       2296       2300       2304       2308       2312       2316       2320       2324       2328       2332       2336       2340       2344       2348       2352       2356       2360       2364       2368       2372       2376       2380       2384       2388       2392       2396       2400       2404       2408       2412       2416       2420       2424       2428       2432       2436       2440       2444       2448       2452       2456       2460       2464       2468       2472       2476       2480       2484       2488       2492       2496       2500       2504       2508       2512       2516       2520       2524       2528       2532       2536       2540       2544       2548       2552       2556       2560       2564       2568       2572       2576       2580       2584       2588       2592       2596       2600       2604       2608       2612       2616       2620       2624       2628       2632       2636       2640       2644       2648       2652       2656       2660       2664       2668       2672       2676       2680       2684       2688       2692       2696       2700       2704       2708       2712       2716       2720       2724       2728       2732       2736       2740       2744       2748       2752       2756       2760       2764       2768       2772       2776       2780       2784       2788       2792       2796       2800       2804       2808       2812       2816       2820       2824       2828       2832       2836       2840       2844       2848       2852       2856       2860       2864       2868       2872       2876       2880       2884       2888       2892       2896       2900       2904       2908       2912       2916       2920       2924       2928       2932       2936       2940       2944       2948       2952       2956       2960       2964       2968       2972       2976       2980       2984       2988       2992       2996       3000       3004       3008       3012       3016       3020       3024       3028       3032       3036       3040       3044       3048       3052       3056       3060       3064       3068       3072       3076       3080       3084       3088       3092       3096       3100       3104       3108       3112       3116       3120       3124       3128       3132       3136       3140       3144       3148       3152       3156       3160       3164       3168       3172       3176       3180       3184       3188       3192       3196       3200       3204       3208       3212       3216       3220       3224       3228       3232       3236       3240       3244       3248       3252       3256       3260       3264       3268       3272       3276       3280       3284       3288       3292       3296       3300       3304       3308       3312       3316       3320       3324       3328       3332       3336       3340       3344       3348       3352       3356       3360       3364       3368       3372       3376       3380       3384       3388       3392       3396       3400       3404       3408       3412       3416       3420       3424       3428       3432       3436       3440       3444       3448       3452       3456       3460       3464       3468       3472       3476       3480       3484       3488       3492       3496       3500       3504       3508       3512       3516       3520       3524       3528       3532       3536       3540       3544       3548       3552       3556       3560       3564       3568       3572       3576       3580       3584       3588       3592       3596       3600       3604       3608       3612       3616       3620       3624       3628       3632       3636       3640       3644       3648       3652       3656       3660       3664       3668       3672       3676       3680       3684       3688       3692       3696       3700       3704       3708       3712       3716       3720       3724       3728       3732       3736       3740       3744       3748       3752       3756       3760       3764       3768       3772       3776       3780       3784       3788       3792       3796       3800       3804       3808       3812       3816       3820       3824       3828       3832       3836       3840       3844       3848       3852       3856       3860       3864       3868       3872       3876       3880       3884       3888       3892       3896       3900       3904       3908       3912       3916       3920       3924       3928       3932       3936       3940       3944       3948       3952       3956       3960       3964       3968       3972       3976       3980       3984       3988       3992       3996       4000       4004       4008       4012       4016       4020       4024       4028       4032       4036       4040       4044       4048       4052       4056       4060       4064       4068       4072       4076       4080       4084       4088       4092       4096 </DataArray>
<DataArray type="UInt8"                                    Name="types"                                                      NumberOfComponents=" 1" format="ascii">
         9          9          9          9          9          9          9          9          9          9          9          9          9          9          9          9          9          9          9          9          9          9          9          9          9          9          9          9          9          9          9          9          9          9          9          9          9          9          9          9          9          9          9          9          9          9          9          9          9          9          9          9          9          9          9          9          9          9          9          9          9          9          9          9          9          9          9          9          9          9          9          9          9          9          9          9          9          9          9          9          9          9          9          9          9          9          9          9          9          9          9          9          9          9          9          9          9          9          9          9          9          9          9          9          9          9          9          9          9          9          9          9          9          9          9          9          9          9          9          9          9          9          9          9          9          9          9          9          9          9          9          9          9          9          9          9          9          9          9          9          9          9          9          9          9          9          9          9          9          9          9          9          9          9          9          9          9          9          9          9          9          9          9          9          9          9          9          9          9          9          9          9          9          9          9          9          9          9          9          9          9          9          9          9          9          9          9          9          9          9          9          9          9          9          9          9          9          9          9          9          9          9          9          9          9          9          9          9          9          9          9          9          9          9          9          9          9          9          9          9          9          9          9          9          9          9          9          9          9          9          9          9          9          9          9          9          9          9          9          9          9          9          9          9          9          9          9          9          9          9          9          9          9          9          9          9          9          9          9          9          9          9          9          9          9          9          9          9          9          9          9          9          9          9          9          9          9          9          9          9          9          9          9          9          9          9          9          9          9          9          9          9          9          9          9          9          9          9          9          9          9          9          9          9          9          9          9          9          9          9          9          9          9          9          9          9          9          9          9          9          9          9          9          9          9          9          9          9          9          9          9          9          9          9          9          9          9          9          9          9          9          9          9          9          9          9          9          9          9          9          9          9          9          9          9          9          9          9          9          9          9          9          9          9          9          9          9          9          9          9          9          9          9          9          9          9          9          9          9          9          9          9          9          9          9          9          9          9          9          9          9          9          9          9          9          9          9          9          9          9          9          9          9          9          9          9          9          9          9          9          9          9          9          9          9          9          9          9          9          9          9          9          9          9          9          9          9          9          9          9          9          9          9          9          9          9          9          9          9          9          9          9          9          9          9          9          9          9          9          9          9          9          9          9          9          9          9          9          9          9          9          9          9          9          9          9          9          9          9          9          9          9          9          9          9          9          9          9          9          9          9          9          9          9          9          9          9          9          9          9          9          9          9          9          9          9          9          9          9          9          9          9          9          9          9          9          9          9          9          9          9          9          9          9          9          9          9          9          9          9          9          9          9          9          9          9          9          9          9          9          9          9          9          9          9          9          9          9          9          9          9          9          9          9          9          9          9          9          9          9          9          9          9          9          9          9          9          9          9          9          9          9          9          9          9          9          9          9          9          9          9          9          9          9          9          9          9          9          9          9          9          9          9          9          9          9          9          9          9          9          9          9          9          9          9          9          9          9          9          9          9          9          9          9          9          9          9          9          9          9          9          9          9          9          9          9          9          9          9          9          9          9          9          9          9          9          9          9          9          9          9          9          9          9          9          9          9          9          9          9          9          9          9          9          9          9          9          9          9          9          9          9          9          9          9          9          9          9          9          9          9          9          9          9          9          9          9          9          9          9          9          9          9          9          9          9          9          9          9          9          9          9          9          9          9          9          9          9          9          9          9          9          9          9          9          9          9          9          9          9          9          9          9          9          9          9          9          9          9          9          9          9          9          9          9          9          9          9          9          9          9          9          9          9          9          9          9          9          9          9          9          9          9          9          9          9          9          9          9          9          9          9          9          9          9          9          9          9          9          9          9          9          9          9          9          9          9          9          9          9          9          9          9          9          9          9          9          9          9          9          9          9          9          9          9          9          9          9          9          9          9          9          9          9          9          9          9          9          9          9          9          9          9          9          9          9          9          9          9          9          9          9          9          9          9          9          9          9          9          9          9          9          9          9          9          9          9          9          9          9          9          9          9          9          9          9          9          9          9          9          9          9          9          9          9          9          9          9          9          9          9          9          9          9          9          9          9          9          9          9          9          9          9          9          9          9          9          9          9          9          9          9          9          9          9          9          9          9          9          9          9          9          9          9          9          9          9          9          9          9          9          9          9          9          9          9          9          9          9          9          9          9          9          9          9          9          9          9          9          9          9          9          9          9          9          9          9          9          9          9          9          9          9          9          9          9          9          9          9          9          9          9          9          9          9          9          9          9          9          9          9          9          9          9          9          9          9          9          9          9          9          9          9          9          9          9          9          9          9          9          9          9          9          9          9          9          9          9          9          9          9          9          9          9          9          9          9          9          9          9          9          9          9          9          9          9          9          9          9          9          9          9          9          9          9          9          9          9          9          9          9          9          9          9          9          9          9          9          9          9          9          9          9          9          9          9          9          9          9          9          9          9          9          9          9          9          9          9          9          9          9          9          9          9 </DataArray>
</Cells>
<CellData>
<DataArray type="Int32"                                    Name="material"                                                      NumberOfComponents=" 1" format="ascii">
         1          1          1          1          1          1          1          1          1          1          1          1          1          1          1          1          1          1          1          1          1          1          1          1          1          1          1          1          1          1          1          1          1          1          1          1          1          1          1          1          1          1          1          1          1          1          1          1          1          1          1          1          1          1          1          1          1          1          1          1          1          1          1          1          1          1          1          1          1          1          1          1          1          1          1          1          1          1          1          1          1          1          1          1          1          1          1          1          1          1          1          1          1          1          1          1          1          1          1          1          1          1          1          1          1          1          1          1          1          1          1          1          1          1          1          1          1          1          1          1          1          1          1          1          1          1          1          1          1          1          1          1          1          1          1          1          1          1          1          1          1          1          1          1          1          1          1          1          1          1          1          1          1          1          1          1          1          1          1          1          1          1          1          1          1          1          1          1          1          1          1          1          1          1          1          1          1          1          1          1          1          1          1          1          1          1          1          1          1          1          1          1          1          1          1          1          1          1          1          1          1          1          1          1          1          1          1          1          1          1          1          1          1          1          1          1          1          1          1          1          1          1          1          1          1          1          1          1          1          1          1          1          1          1          1          1          1          1          1          1          1          1          1          1          1          1          1          1          1          1          1          1          1          1          1          1          1          1          1          1          1          1          1          1          1          1          1          1          1          1          1          1          1          1          1          1          1          1          1          1          1          1          1          1          1          1          1          1          1          1          1          1          1          1          1          1          1          1          1          1          1          1          1          1          1          1          1          1          1          1          1          1          1          1          1          1          1          1          1          1          1          1          1          1          1          1          1          1          1          1          1          1          1          1          1          1          1          1          1          1          1          1          1          1          1          1          1          1          1          1          1          1          1          1          1          1          1          1          1          1          1          1          1          1          1          1          1          1          1          1          1          1          1          1          1          1          1          1          1          1          1          1          1          1          1          1          1          1          1          1          1          1          1          1          1          1          1          1          1          1          1          1          1          1          1          1          1          1          1          1          1          1          1          1          1          1          1          1          1          1          1          1          1          1          1          1          1          1          1          1          1          1          1          1          1          1          1          1          1          1          1          1          1          1          1          1          1          1          1          1          1          1          1          1          1          1          1          1          1          1          1          1          1          1          1          1          1          1          1          1          1          1          1          1          1          1          1          1          1          1          1          1          1          1          1          1          1          1          1          1          1          1          1          1          1          1          1          1          1          1          1          1          1          1          1          1          1          1          1          1          1          1          1          1          1          1          1          1          1          1          1          1          1          1          1          1          1          1          1          1          1          1          1          1          1          1          1          1          1          1          1          1          1          1          1          1          1          1          1          1          1          1          1          1          1          1          1          1          1          1          1          1          1          1          1          1          1          1          1          1          1          1          1          1          1          1          1          1          1          1          1          1          1          1          1          1          1          1          1          1          1          1          1          1          1          1          1          1          1          1          1          1          1          1          1          1          1          1          1          1          1          1          1          1          1          1          1          1          1          1          1          1          1          1          1          1          1          1          1          1          1          1          1          1          1          1          1          1          1          1          1          1          1          1          1          1          1          1          1          1          1          1          1          1          1          1          1          1          1          1          1          1          1          1          1          1          1          1          1          1          1          1          1          1          1          1          1          1          1          1          1          1          1          1          1          1          1          1          1          1          1          1          1          1          1          1          1          1          1          1          1          1          1          1          1          1          1          1          1          1          1          1          1          1          1          1          1          1          1          1          1          1          1          1          1          1          1          1          1          1          1          1          1          1          1          1          1          1          1          1          1          1          1          1          1          1          1          1          1          1          1          1          1          1          1          1          1          1          1          1          1          1          1          1          1          1          1          1          1          1          1          1          1          1          1          1          1          1          1          1          1          1          1          1          1          1          1          1          1          1          1          1          1          1          1          1          1          1          1          1          1          1          1          1          1          1          1          1          1          1          1          1          1          1          1          1          1          1          1          1          1          1          1          1          1          1          1          1          1          1          1          1          1          1          1          1          1          1          1          1          1          1          1          1          1          1          1          1          1          1          1          1          1          1          1          1          1          1          1          1          1          1          1          1          1          1          1          1          1          1          1          1          1          1          1          1          1          1          1          1          1          1          1          1          1          1          1          1          1          1          1          1          1          1          1          1          1          1          1          1          1          1          1          1          1          1          1          1          1          1          1          1          1          1          1          1          1          1          1          1          1          1          1          1          1          1          1          1          1          1          1          1          1          1          1          1          1          1          1          1          1          1          1          1          1          1          1          1          1          1          1          1          1          1          1          1          1          1          1          1          1          1          1          1          1          1          1          1          1          1          1          1          1          1          1          1          1          1          1          1          1          1          1          1          1          1          1          1          1          1          1          1          1          1          1          1          1          1          1          1          1          1          1          1          1          1          1          1          1          1          1          1          1          1          1          1          1          1          1          1          1          1          1          1 </DataArray>
</CellData>
<PointData>
<DataArray type="Float64"                                    Name="u"                                                      NumberOfComponents=" 3" format="ascii">
             -0.000825698               0.000000000               0.999999984              -0.000877052              -0.000000000               0.999999984              -0.000899088              -0.000000000               0.999999984              -0.000911342              -0.000000000               0.999999984              -0.000921085               0.000000000               0.999999984              -0.000930928               0.000000000               0.999999984              -0.000941889               0.000000000               0.999999984              -0.000954074               0.000000000               0.999999984              -0.000967446               0.000000000               0.999999984              -0.000981883               0.000000000               0.999999984              -0.000997007              -0.000000000               0.999999984              -0.001012308               0.000000000               0.999999984              -0.001027359               0.000000000               0.999999984              -0.001041616               0.000000000               0.999999984              -0.001054417               0.000000000               0.999999984              -0.001064995               0.000000000               0.999999984              -0.001072534               0.000000000               0.999999984              -0.000821213               0.000133342               0.999999984              -0.000868454               0.000107310               0.999999984              -0.000887930               0.000095492               0.999999984              -0.000898555               0.000090776               0.999999984              -0.000907092               0.000089684               0.999999984              -0.000916047               0.000090388               0.999999984              -0.000926220               0.000091815               0.999999984              -0.000937778               0.000093460               0.999999984              -0.000950416               0.000094899               0.999999984              -0.000963844               0.000095785               0.999999984              -0.000977755               0.000095594               0.999999984              -0.000991590               0.000094012               0.999999984              -0.001004862               0.000090637               0.999999984              -0.001017055               0.000084901               0.999999984              -0.001027526               0.000076330               0.999999984              -0.001035705               0.000063779               0.999999984              -0.001040975               0.000046267               0.999999984              -0.000807718               0.000265575               0.999999984              -0.000843059               0.000214040               0.999999984              -0.000855189               0.000191748               0.999999984              -0.000861262               0.000183350               0.999999984              -0.000866827               0.000181983               0.999999984              -0.000873638               0.000183951               0.999999984              -0.000881937               0.000187285               0.999999984              -0.000891534               0.000190700               0.999999984              -0.000901948               0.000193655               0.999999984              -0.000912648               0.000195345               0.999999984              -0.000922989               0.000194890               0.999999984              -0.000932504               0.000191728               0.999999984              -0.000940762               0.000185128               0.999999984              -0.000947208               0.000174384               0.999999984              -0.000951438               0.000158488               0.999999984              -0.000953138               0.000136143               0.999999984              -0.000952216               0.000106021               0.999999984              -0.000785460               0.000395487               0.999999984              -0.000802080               0.000319933               0.999999984              -0.000803495               0.000289332               0.999999984              -0.000803326               0.000279213               0.999999984              -0.000805152               0.000278858               0.999999984              -0.000809241               0.000282957               0.999999984              -0.000815075               0.000288572               0.999999984              -0.000821855               0.000294022               0.999999984              -0.000828816               0.000298499               0.999999984              -0.000835174               0.000300834               0.999999984              -0.000840369               0.000299883               0.999999984              -0.000843843               0.000295054               0.999999984              -0.000845031               0.000285553               0.999999984              -0.000843626               0.000270580               0.999999984              -0.000839494               0.000249572               0.999999984              -0.000832716               0.000221456               0.999999984              -0.000823731               0.000185625               0.999999984              -0.000754894               0.000521792               0.999999984              -0.000747373               0.000424970               0.999999984              -0.000736829               0.000388845               0.999999984              -0.000730666               0.000378929               0.999999984              -0.000729036               0.000380940               0.999999984              -0.000730627               0.000387777               0.999999984              -0.000733868               0.000396008               0.999999984              -0.000737431               0.000403610               0.999999984              -0.000740319               0.000409221               0.999999984              -0.000741564               0.000411731               0.999999984              -0.000740425               0.000409980               0.999999984              -0.000736451               0.000403433               0.999999984              -0.000729396               0.000391399               0.999999984              -0.000719230               0.000373348               0.999999984              -0.000706068               0.000349128               0.999999984              -0.000690366               0.000318709               0.999999984              -0.000672779               0.000282363               0.999999984              -0.000716417               0.000643389               0.999999984              -0.000681833               0.000529138               0.999999984              -0.000660309               0.000490381               0.999999984              -0.000649703               0.000482310               0.999999984              -0.000646035               0.000487328               0.999999984              -0.000645816               0.000497153               0.999999984              -0.000646591               0.000507903               0.999999984              -0.000646704               0.000517115               0.999999984              -0.000644815               0.000523594               0.999999984              -0.000640021               0.000525742               0.999999984              -0.000631821               0.000522716               0.999999984              -0.000619886               0.000514238               0.999999984              -0.000604151               0.000500014               0.999999984              -0.000584826               0.000479802               0.999999984              -0.000562317               0.000454074               0.999999984              -0.000537346               0.000423515               0.999999984              -0.000510683               0.000389102               0.999999984              -0.000670853               0.000759133               0.999999984              -0.000608872               0.000632467               0.999999984              -0.000579125               0.000593448               0.999999984              -0.000566600               0.000588105               0.999999984              -0.000562326               0.000596172               0.999999984              -0.000560935               0.000608667               0.999999984              -0.000559303               0.000621323               0.999999984              -0.000555384               0.000631704               0.999999984              -0.000548201               0.000638282               0.999999984              -0.000536847               0.000639619               0.999999984              -0.000520899               0.000635065               0.999999984              -0.000500147               0.000624845               0.999999984              -0.000474827               0.000608844               0.999999984              -0.000445543               0.000587560               0.999999984              -0.000413161               0.000561748               0.999999984              -0.000378570               0.000532434               0.999999984              -0.000342737               0.000501185               0.999999985              -0.000619269               0.000867716               0.999999984              -0.000531963               0.000734781               0.999999984              -0.000497777               0.000697196               0.999999984              -0.000486034               0.000694454               0.999999984              -0.000482313               0.000705036               0.999999984              -0.000480018               0.000719685               0.999999984              -0.000475736               0.000733611               0.999999984              -0.000467677               0.000744217               0.999999984              -0.000454632               0.000750265               0.999999984              -0.000435746               0.000750405               0.999999984              -0.000410765               0.000744320               0.999999984              -0.000379913               0.000732682               0.999999984              -0.000343958               0.000715888               0.999999984              -0.000304048               0.000694602               0.999999984              -0.000261386               0.000670048               0.999999985              -0.000217166               0.000643520               0.999999985              -0.000172211               0.000616390               0.999999985              -0.000563275               0.000967221               0.999999984              -0.000453843               0.000835881               0.999999984              -0.000420393               0.000800058               0.999999984              -0.000411168               0.000799244               0.999999984              -0.000408671               0.000811767               0.999999984              -0.000405564               0.000827730               0.999999984              -0.000398454               0.000842149               0.999999984              -0.000385483               0.000852493               0.999999984              -0.000365435               0.000857591               0.999999984              -0.000337668               0.000856330               0.999999984              -0.000302240               0.000848988               0.999999984              -0.000260086               0.000836526               0.999999984              -0.000212686               0.000819720               0.999999984              -0.000161679               0.000799735               0.999999985              -0.000108527               0.000777976               0.999999985              -0.000054420               0.000755592               0.999999985              -0.000000220               0.000733203               0.999999985              -0.000505343               0.001061392               0.999999984              -0.000388566               0.000948893               0.999999984              -0.000352214               0.000908962               0.999999984              -0.000342145               0.000902573               0.999999984              -0.000339808               0.000911121               0.999999984              -0.000337935               0.000925324               0.999999984              -0.000332908               0.000940322               0.999999984              -0.000322752               0.000953249               0.999999984              -0.000306807               0.000962720               0.999999984              -0.000283873               0.000967912               0.999999984              -0.000253366               0.000968408               0.999999984              -0.000215696               0.000964474               0.999999984              -0.000171882               0.000956878               0.999999984              -0.000123257               0.000946150               0.999999985              -0.000071218               0.000933397               0.999999985              -0.000017031               0.000919383               0.999999985               0.000037950               0.000905135               0.999999985              -0.000442140               0.001147071               0.999999984              -0.000326165               0.001058206               0.999999984              -0.000287184               0.001020625               0.999999984              -0.000275316               0.001011252               0.999999984              -0.000272287               0.001016912               0.999999984              -0.000270871               0.001029863               0.999999984              -0.000267361               0.001045287               0.999999984              -0.000259788               0.001060424               0.999999984              -0.000247084               0.001073863               0.999999984              -0.000228454               0.001084560               0.999999984              -0.000203032               0.001091827               0.999999984              -0.000170358               0.001095448               0.999999984              -0.000130877               0.001095851               0.999999984              -0.000085447               0.001093530               0.999999984              -0.000035201               0.001089032               0.999999985               0.000018563               0.001083112               0.999999985               0.000074317               0.001076644               0.999999985              -0.000374900               0.001222159               0.999999984              -0.000266641               0.001160517               0.999999984              -0.000226870               0.001130040               0.999999984              -0.000213036               0.001121116               0.999999984              -0.000208730               0.001125642               0.999999984              -0.000207125               0.001138040               0.999999984              -0.000204616               0.001154223               0.999999984              -0.000198965               0.001171674               0.999999984              -0.000189090               0.001188790               0.999999984              -0.000174225               0.001204612               0.999999984              -0.000153479               0.001218204               0.999999984              -0.000126051               0.001229071               0.999999984              -0.000091479               0.001237047               0.999999984              -0.000050218               0.001242347               0.999999984              -0.000002802               0.001245463               0.999999984               0.000049982               0.001247033               0.999999984               0.000106749               0.001247940               0.999999985              -0.000304182               0.001285346               0.999999984              -0.000209954               0.001251518               0.999999984              -0.000172113               0.001231633               0.999999984              -0.000157181               0.001226223               0.999999984              -0.000151679               0.001231788               0.999999984              -0.000149561               0.001244709               0.999999984              -0.000147430               0.001262184               0.999999984              -0.000143117               0.001282195               0.999999984              -0.000135640               0.001303165               0.999999984              -0.000124195               0.001323858               0.999999984              -0.000107802               0.001343490               0.999999984              -0.000085615               0.001361280               0.999999984              -0.000056790               0.001376821               0.999999984              -0.000020914               0.001389886               0.999999984               0.000022163               0.001400730               0.999999984               0.000072591               0.001409874               0.999999984               0.000129857               0.001418035               0.999999984              -0.000230650               0.001335620               0.999999984              -0.000155591               0.001327067               0.999999984              -0.000122998               0.001319210               0.999999984              -0.000108773               0.001319522               0.999999984              -0.000102834               0.001327939               0.999999984              -0.000100233               0.001342799               0.999999984              -0.000098162               0.001362390               0.999999984              -0.000094910               0.001385076               0.999999984              -0.000089391               0.001409615               0.999999984              -0.000080924               0.001434960               0.999999984              -0.000068721               0.001460257               0.999999984              -0.000051886               0.001484726               0.999999984              -0.000029376               0.001507835               0.999999984              -0.000000419               0.001529106               0.999999984               0.000036003               0.001548348               0.999999984               0.000081003               0.001565560               0.999999984               0.000135255               0.001581236               0.999999984              -0.000155002               0.001372140               0.999999984              -0.000102874               0.001383714               0.999999984              -0.000078867               0.001386810               0.999999984              -0.000067696               0.001393250               0.999999984              -0.000062479               0.001405425               0.999999984              -0.000059906               0.001423070               0.999999984              -0.000058248               0.001445147               0.999999984              -0.000055979               0.001470565               0.999999984              -0.000052155               0.001498332               0.999999984              -0.000046366               0.001527734               0.999999984              -0.000038226               0.001558030               0.999999984              -0.000026800               0.001588479               0.999999984              -0.000011253               0.001618541               0.999999984               0.000009378               0.001647609               0.999999984               0.000036229               0.001675095               0.999999984               0.000070827               0.001700481               0.999999984               0.000115081               0.001723714               0.999999984              -0.000077886               0.001394268               0.999999984              -0.000051194               0.001418774               0.999999984              -0.000038471               0.001429519               0.999999984              -0.000032296               0.001440653               0.999999984              -0.000029147               0.001455889               0.999999984              -0.000027646               0.001475788               0.999999984              -0.000026719               0.001499944               0.999999984              -0.000025509               0.001527647               0.999999984              -0.000023487               0.001558049               0.999999984              -0.000020524               0.001590536               0.999999984              -0.000016355               0.001624438               0.999999984              -0.000010503               0.001659177               0.999999984              -0.000002442               0.001694240               0.999999984               0.000008368               0.001728874               0.999999984               0.000022682               0.001762398               0.999999984               0.000041640               0.001794187               0.999999984               0.000066947               0.001823508               0.999999984              -0.000000000               0.001401659               0.999999984              -0.000000000               0.001430608               0.999999984              -0.000000000               0.001444138               0.999999984               0.000000000               0.001457085               0.999999984               0.000000000               0.001473465               0.999999984              -0.000000000               0.001494256               0.999999984               0.000000000               0.001519260               0.999999984               0.000000000               0.001547891               0.999999984              -0.000000000               0.001579374               0.999999984               0.000000000               0.001613072               0.999999984              -0.000000000               0.001648321               0.999999984              -0.000000000               0.001684556               0.999999984               0.000000000               0.001721329               0.999999984               0.000000000               0.001757972               0.999999984              -0.000000000               0.001793832               0.999999984               0.000000000               0.001828080               0.999999984               0.000000000               0.001859737               0.999999984              -0.000825698               0.000000000               0.999999984              -0.000877052              -0.000000000               0.999999984              -0.000899088              -0.000000000               0.999999984              -0.000911342              -0.000000000               0.999999984              -0.000921085               0.000000000               0.999999984              -0.000930928               0.000000000               0.999999984              -0.000941889               0.000000000               0.999999984              -0.000954074               0.000000000               0.999999984              -0.000967446               0.000000000               0.999999984              -0.000981883               0.000000000               0.999999984              -0.000997007              -0.000000000               0.999999984              -0.001012308               0.000000000               0.999999984              -0.001027359               0.000000000               0.999999984              -0.001041616               0.000000000               0.999999984              -0.001054417               0.000000000               0.999999984              -0.001064995               0.000000000               0.999999984              -0.001072534               0.000000000               0.999999984              -0.000821213              -0.000133342               0.999999984              -0.000868454              -0.000107310               0.999999984              -0.000887930              -0.000095492               0.999999984              -0.000898555              -0.000090776               0.999999984              -0.000907092              -0.000089684               0.999999984              -0.000916047              -0.000090388               0.999999984              -0.000926220              -0.000091815               0.999999984              -0.000937778              -0.000093460               0.999999984              -0.000950416              -0.000094899               0.999999984              -0.000963844              -0.000095785               0.999999984              -0.000977755              -0.000095594               0.999999984              -0.000991590              -0.000094012               0.999999984              -0.001004862              -0.000090637               0.999999984              -0.001017055              -0.000084901               0.999999984              -0.001027526              -0.000076330               0.999999984              -0.001035705              -0.000063779               0.999999984              -0.001040975              -0.000046267               0.999999984              -0.000807718              -0.000265575               0.999999984              -0.000843059              -0.000214040               0.999999984              -0.000855189              -0.000191748               0.999999984              -0.000861262              -0.000183350               0.999999984              -0.000866827              -0.000181983               0.999999984              -0.000873638              -0.000183951               0.999999984              -0.000881937              -0.000187285               0.999999984              -0.000891534              -0.000190700               0.999999984              -0.000901948              -0.000193655               0.999999984              -0.000912648              -0.000195345               0.999999984              -0.000922989              -0.000194890               0.999999984              -0.000932504              -0.000191728               0.999999984              -0.000940762              -0.000185128               0.999999984              -0.000947208              -0.000174384               0.999999984              -0.000951438              -0.000158488               0.999999984              -0.000953138              -0.000136143               0.999999984              -0.000952216              -0.000106021               0.999999984              -0.000785460              -0.000395487               0.999999984              -0.000802080              -0.000319933               0.999999984              -0.000803495              -0.000289332               0.999999984              -0.000803326              -0.000279213               0.999999984              -0.000805152              -0.000278858               0.999999984              -0.000809241              -0.000282957               0.999999984              -0.000815075              -0.000288572               0.999999984              -0.000821855              -0.000294022               0.999999984              -0.000828816              -0.000298499               0.999999984              -0.000835174              -0.000300834               0.999999984              -0.000840369              -0.000299883               0.999999984              -0.000843843              -0.000295054               0.999999984              -0.000845031              -0.000285553               0.999999984              -0.000843626              -0.000270580               0.999999984              -0.000839494              -0.000249572               0.999999984              -0.000832716              -0.000221456               0.999999984              -0.000823731              -0.000185625               0.999999984              -0.000754894              -0.000521792               0.999999984              -0.000747373              -0.000424970               0.999999984              -0.000736829              -0.000388845               0.999999984              -0.000730666              -0.000378929               0.999999984              -0.000729036              -0.000380940               0.999999984              -0.000730627              -0.000387777               0.999999984              -0.000733868              -0.000396008               0.999999984              -0.000737431              -0.000403610               0.999999984              -0.000740319              -0.000409221               0.999999984              -0.000741564              -0.000411731               0.999999984              -0.000740425              -0.000409980               0.999999984              -0.000736451              -0.000403433               0.999999984              -0.000729396              -0.000391399               0.999999984              -0.000719230              -0.000373348               0.999999984              -0.000706068              -0.000349128               0.999999984              -0.000690366              -0.000318709               0.999999984              -0.000672779              -0.000282363               0.999999984              -0.000716417              -0.000643389               0.999999984              -0.000681833              -0.000529138               0.999999984              -0.000660309              -0.000490381               0.999999984              -0.000649703              -0.000482310               0.999999984              -0.000646035              -0.000487328               0.999999984              -0.000645816              -0.000497153               0.999999984              -0.000646591              -0.000507903               0.999999984              -0.000646704              -0.000517115               0.999999984              -0.000644815              -0.000523594               0.999999984              -0.000640021              -0.000525742               0.999999984              -0.000631821              -0.000522716               0.999999984              -0.000619886              -0.000514238               0.999999984              -0.000604151              -0.000500014               0.999999984              -0.000584826              -0.000479802               0.999999984              -0.000562317              -0.000454074               0.999999984              -0.000537346              -0.000423515               0.999999984              -0.000510683              -0.000389102               0.999999984              -0.000670853              -0.000759133               0.999999984              -0.000608872              -0.000632467               0.999999984              -0.000579125              -0.000593448               0.999999984              -0.000566600              -0.000588105               0.999999984              -0.000562326              -0.000596172               0.999999984              -0.000560935              -0.000608667               0.999999984              -0.000559303              -0.000621323               0.999999984              -0.000555384              -0.000631704               0.999999984              -0.000548201              -0.000638282               0.999999984              -0.000536847              -0.000639619               0.999999984              -0.000520899              -0.000635065               0.999999984              -0.000500147              -0.000624845               0.999999984              -0.000474827              -0.000608844               0.999999984              -0.000445543              -0.000587560               0.999999984              -0.000413161              -0.000561748               0.999999984              -0.000378570              -0.000532434               0.999999984              -0.000342737              -0.000501185               0.999999985              -0.000619269              -0.000867716               0.999999984              -0.000531963              -0.000734781               0.999999984              -0.000497777              -0.000697196               0.999999984              -0.000486034              -0.000694454               0.999999984              -0.000482313              -0.000705036               0.999999984              -0.000480018              -0.000719685               0.999999984              -0.000475736              -0.000733611               0.999999984              -0.000467677              -0.000744217               0.999999984              -0.000454632              -0.000750265               0.999999984              -0.000435746              -0.000750405               0.999999984              -0.000410765              -0.000744320               0.999999984              -0.000379913              -0.000732682               0.999999984              -0.000343958              -0.000715888               0.999999984              -0.000304048              -0.000694602               0.999999984              -0.000261386              -0.000670048               0.999999985              -0.000217166              -0.000643520               0.999999985              -0.000172211              -0.000616390               0.999999985              -0.000563275              -0.000967221               0.999999984              -0.000453843              -0.000835881               0.999999984              -0.000420393              -0.000800058               0.999999984              -0.000411168              -0.000799244               0.999999984              -0.000408671              -0.000811767               0.999999984              -0.000405564              -0.000827730               0.999999984              -0.000398454              -0.000842149               0.999999984              -0.000385483              -0.000852493               0.999999984              -0.000365435              -0.000857591               0.999999984              -0.000337668              -0.000856330               0.999999984              -0.000302240              -0.000848988               0.999999984              -0.000260086              -0.000836526               0.999999984              -0.000212686              -0.000819720               0.999999984              -0.000161679              -0.000799735               0.999999985              -0.000108527              -0.000777976               0.999999985              -0.000054420              -0.000755592               0.999999985              -0.000000220              -0.000733203               0.999999985              -0.000505343              -0.001061392               0.999999984              -0.000388566              -0.000948893               0.999999984              -0.000352214              -0.000908962               0.999999984              -0.000342145              -0.000902573               0.999999984              -0.000339808              -0.000911121               0.999999984              -0.000337935              -0.000925324               0.999999984              -0.000332908              -0.000940322               0.999999984              -0.000322752              -0.000953249               0.999999984              -0.000306807              -0.000962720               0.999999984              -0.000283873              -0.000967912               0.999999984              -0.000253366              -0.000968408               0.999999984              -0.000215696              -0.000964474               0.999999984              -0.000171882              -0.000956878               0.999999984              -0.000123257              -0.000946150               0.999999985              -0.000071218              -0.000933397               0.999999985              -0.000017031              -0.000919383               0.999999985               0.000037950              -0.000905135               0.999999985              -0.000442140              -0.001147071               0.999999984              -0.000326165              -0.001058206               0.999999984              -0.000287184              -0.001020625               0.999999984              -0.000275316              -0.001011252               0.999999984              -0.000272287              -0.001016912               0.999999984              -0.000270871              -0.001029863               0.999999984              -0.000267361              -0.001045287               0.999999984              -0.000259788              -0.001060424               0.999999984              -0.000247084              -0.001073863               0.999999984              -0.000228454              -0.001084560               0.999999984              -0.000203032              -0.001091827               0.999999984              -0.000170358              -0.001095448               0.999999984              -0.000130877              -0.001095851               0.999999984              -0.000085447              -0.001093530               0.999999984              -0.000035201              -0.001089032               0.999999985               0.000018563              -0.001083112               0.999999985               0.000074317              -0.001076644               0.999999985              -0.000374900              -0.001222159               0.999999984              -0.000266641              -0.001160517               0.999999984              -0.000226870              -0.001130040               0.999999984              -0.000213036              -0.001121116               0.999999984              -0.000208730              -0.001125642               0.999999984              -0.000207125              -0.001138040               0.999999984              -0.000204616              -0.001154223               0.999999984              -0.000198965              -0.001171674               0.999999984              -0.000189090              -0.001188790               0.999999984              -0.000174225              -0.001204612               0.999999984              -0.000153479              -0.001218204               0.999999984              -0.000126051              -0.001229071               0.999999984              -0.000091479              -0.001237047               0.999999984              -0.000050218              -0.001242347               0.999999984              -0.000002802              -0.001245463               0.999999984               0.000049982              -0.001247033               0.999999984               0.000106749              -0.001247940               0.999999985              -0.000304182              -0.001285346               0.999999984              -0.000209954              -0.001251518               0.999999984              -0.000172113              -0.001231633               0.999999984              -0.000157181              -0.001226223               0.999999984              -0.000151679              -0.001231788               0.999999984              -0.000149561              -0.001244709               0.999999984              -0.000147430              -0.001262184               0.999999984              -0.000143117              -0.001282195               0.999999984              -0.000135640              -0.001303165               0.999999984              -0.000124195              -0.001323858               0.999999984              -0.000107802              -0.001343490               0.999999984              -0.000085615              -0.001361280               0.999999984              -0.000056790              -0.001376821               0.999999984              -0.000020914              -0.001389886               0.999999984               0.000022163              -0.001400730               0.999999984               0.000072591              -0.001409874               0.999999984               0.000129857              -0.001418035               0.999999984              -0.000230650              -0.001335620               0.999999984              -0.000155591              -0.001327067               0.999999984              -0.000122998              -0.001319210               0.999999984              -0.000108773              -0.001319522               0.999999984              -0.000102834              -0.001327939               0.999999984              -0.000100233              -0.001342799               0.999999984              -0.000098162              -0.001362390               0.999999984              -0.000094910              -0.001385076               0.999999984              -0.000089391              -0.001409615               0.999999984              -0.000080924              -0.001434960               0.999999984              -0.000068721              -0.001460257               0.999999984              -0.000051886              -0.001484726               0.999999984              -0.000029376              -0.001507835               0.999999984              -0.000000419              -0.001529106               0.999999984               0.000036003              -0.001548348               0.999999984               0.000081003              -0.001565560               0.999999984               0.000135255              -0.001581236               0.999999984              -0.000155002              -0.001372140               0.999999984              -0.000102874              -0.001383714               0.999999984              -0.000078867              -0.001386810               0.999999984              -0.000067696              -0.001393250               0.999999984              -0.000062479              -0.001405425               0.999999984              -0.000059906              -0.001423070               0.999999984              -0.000058248              -0.001445147               0.999999984              -0.000055979              -0.001470565               0.999999984              -0.000052155              -0.001498332               0.999999984              -0.000046366              -0.001527734               0.999999984              -0.000038226              -0.001558030               0.999999984              -0.000026800              -0.001588479               0.999999984              -0.000011253              -0.001618541               0.999999984               0.000009378              -0.001647609               0.999999984               0.000036229              -0.001675095               0.999999984               0.000070827              -0.001700481               0.999999984               0.000115081              -0.001723714               0.999999984              -0.000077886              -0.001394268               0.999999984              -0.000051194              -0.001418774               0.999999984              -0.000038471              -0.001429519               0.999999984              -0.000032296              -0.001440653               0.999999984              -0.000029147              -0.001455889               0.999999984              -0.000027646              -0.001475788               0.999999984              -0.000026719              -0.001499944               0.999999984              -0.000025509              -0.001527647               0.999999984              -0.000023487              -0.001558049               0.999999984              -0.000020524              -0.001590536               0.999999984              -0.000016355              -0.001624438               0.999999984              -0.000010503              -0.001659177               0.999999984              -0.000002442              -0.001694240               0.999999984               0.000008368              -0.001728874               0.999999984               0.000022682              -0.001762398               0.999999984               0.000041640              -0.001794187               0.999999984               0.000066947              -0.001823508               0.999999984              -0.000000000              -0.001401659               0.999999984              -0.000000000              -0.001430608               0.999999984               0.000000000              -0.001444138               0.999999984              -0.000000000              -0.001457085               0.999999984               0.000000000              -0.001473465               0.999999984              -0.000000000              -0.001494256               0.999999984              -0.000000000              -0.001519260               0.999999984              -0.000000000              -0.001547891               0.999999984              -0.000000000              -0.001579374               0.999999984              -0.000000000              -0.001613072               0.999999984              -0.000000000              -0.001648321               0.999999984              -0.000000000              -0.001684556               0.999999984              -0.000000000              -0.001721329               0.999999984               0.000000000              -0.001757972               0.999999984               0.000000000              -0.001793832               0.999999984              -0.000000000              -0.001828080               0.999999984              -0.000000000              -0.001859737               0.999999984               0.000825698               0.000000000               0.999999984               0.000877052               0.000000000               0.999999984               0.000899088               0.000000000               0.999999984               0.000911342              -0.000000000               0.999999984               0.000921085               0.000000000               0.999999984               0.000930928               0.000000000               0.999999984               0.000941889               0.000000000               0.999999984               0.000954074               0.000000000               0.999999984               0.000967446               0.000000000               0.999999984               0.000981883               0.000000000               0.999999984               0.000997007              -0.000000000               0.999999984               0.001012308               0.000000000               0.999999984               0.001027359               0.000000000               0.999999984               0.001041616               0.000000000               0.999999984               0.001054417               0.000000000               0.999999984               0.001064995               0.000000000               0.999999984               0.001072534               0.000000000               0.999999984               0.000821213              -0.000133342               0.999999984               0.000868454              -0.000107310               0.999999984               0.000887930              -0.000095492               0.999999984               0.000898555              -0.000090776               0.999999984               0.000907092              -0.000089684               0.999999984               0.000916047              -0.000090388               0.999999984               0.000926220              -0.000091815               0.999999984               0.000937778              -0.000093460               0.999999984               0.000950416              -0.000094899               0.999999984               0.000963844              -0.000095785               0.999999984               0.000977755              -0.000095594               0.999999984               0.000991590              -0.000094012               0.999999984               0.001004862              -0.000090637               0.999999984               0.001017055              -0.000084901               0.999999984               0.001027526              -0.000076330               0.999999984               0.001035705              -0.000063779               0.999999984               0.001040975              -0.000046267               0.999999984               0.000807718              -0.000265575               0.999999984               0.000843059              -0.000214040               0.999999984               0.000855189              -0.000191748               0.999999984               0.000861262              -0.000183350               0.999999984               0.000866827              -0.000181983               0.999999984               0.000873638              -0.000183951               0.999999984               0.000881937              -0.000187285               0.999999984               0.000891534              -0.000190700               0.999999984               0.000901948              -0.000193655               0.999999984               0.000912648              -0.000195345               0.999999984               0.000922989              -0.000194890               0.999999984               0.000932504              -0.000191728               0.999999984               0.000940762              -0.000185128               0.999999984               0.000947208              -0.000174384               0.999999984               0.000951438              -0.000158488               0.999999984               0.000953138              -0.000136143               0.999999984               0.000952216              -0.000106021               0.999999984               0.000785460              -0.000395487               0.999999984               0.000802080              -0.000319933               0.999999984               0.000803495              -0.000289332               0.999999984               0.000803326              -0.000279213               0.999999984               0.000805152              -0.000278858               0.999999984               0.000809241              -0.000282957               0.999999984               0.000815075              -0.000288572               0.999999984               0.000821855              -0.000294022               0.999999984               0.000828816              -0.000298499               0.999999984               0.000835174              -0.000300834               0.999999984               0.000840369              -0.000299883               0.999999984               0.000843843              -0.000295054               0.999999984               0.000845031              -0.000285553               0.999999984               0.000843626              -0.000270580               0.999999984               0.000839494              -0.000249572               0.999999984               0.000832716              -0.000221456               0.999999984               0.000823731              -0.000185625               0.999999984               0.000754894              -0.000521792               0.999999984               0.000747373              -0.000424970               0.999999984               0.000736829              -0.000388845               0.999999984               0.000730666              -0.000378929               0.999999984               0.000729036              -0.000380940               0.999999984               0.000730627              -0.000387777               0.999999984               0.000733868              -0.000396008               0.999999984               0.000737431              -0.000403610               0.999999984               0.000740319              -0.000409221               0.999999984               0.000741564              -0.000411731               0.999999984               0.000740425              -0.000409980               0.999999984               0.000736451              -0.000403433               0.999999984               0.000729396              -0.000391399               0.999999984               0.000719230              -0.000373348               0.999999984               0.000706068              -0.000349128               0.999999984               0.000690366              -0.000318709               0.999999984               0.000672779              -0.000282363               0.999999984               0.000716417              -0.000643389               0.999999984               0.000681833              -0.000529138               0.999999984               0.000660309              -0.000490381               0.999999984               0.000649703              -0.000482310               0.999999984               0.000646035              -0.000487328               0.999999984               0.000645816              -0.000497153               0.999999984               0.000646591              -0.000507903               0.999999984               0.000646704              -0.000517115               0.999999984               0.000644815              -0.000523594               0.999999984               0.000640021              -0.000525742               0.999999984               0.000631821              -0.000522716               0.999999984               0.000619886              -0.000514238               0.999999984               0.000604151              -0.000500014               0.999999984               0.000584826              -0.000479802               0.999999984               0.000562317              -0.000454074               0.999999984               0.000537346              -0.000423515               0.999999984               0.000510683              -0.000389102               0.999999984               0.000670853              -0.000759133               0.999999984               0.000608872              -0.000632467               0.999999984               0.000579125              -0.000593448               0.999999984               0.000566600              -0.000588105               0.999999984               0.000562326              -0.000596172               0.999999984               0.000560935              -0.000608667               0.999999984               0.000559303              -0.000621323               0.999999984               0.000555384              -0.000631704               0.999999984               0.000548201              -0.000638282               0.999999984               0.000536847              -0.000639619               0.999999984               0.000520899              -0.000635065               0.999999984               0.000500147              -0.000624845               0.999999984               0.000474827              -0.000608844               0.999999984               0.000445543              -0.000587560               0.999999984               0.000413161              -0.000561748               0.999999984               0.000378570              -0.000532434               0.999999984               0.000342737              -0.000501185               0.999999985               0.000619269              -0.000867716               0.999999984               0.000531963              -0.000734781               0.999999984               0.000497777              -0.000697196               0.999999984               0.000486034              -0.000694454               0.999999984               0.000482313              -0.000705036               0.999999984               0.000480018              -0.000719685               0.999999984               0.000475736              -0.000733611               0.999999984               0.000467677              -0.000744217               0.999999984               0.000454632              -0.000750265               0.999999984               0.000435746              -0.000750405               0.999999984               0.000410765              -0.000744320               0.999999984               0.000379913              -0.000732682               0.999999984               0.000343958              -0.000715888               0.999999984               0.000304048              -0.000694602               0.999999984               0.000261386              -0.000670048               0.999999985               0.000217166              -0.000643520               0.999999985               0.000172211              -0.000616390               0.999999985               0.000563275              -0.000967221               0.999999984               0.000453843              -0.000835881               0.999999984               0.000420393              -0.000800058               0.999999984               0.000411168              -0.000799244               0.999999984               0.000408671              -0.000811767               0.999999984               0.000405564              -0.000827730               0.999999984               0.000398454              -0.000842149               0.999999984               0.000385483              -0.000852493               0.999999984               0.000365435              -0.000857591               0.999999984               0.000337668              -0.000856330               0.999999984               0.000302240              -0.000848988               0.999999984               0.000260086              -0.000836526               0.999999984               0.000212686              -0.000819720               0.999999984               0.000161679              -0.000799735               0.999999985               0.000108527              -0.000777976               0.999999985               0.000054420              -0.000755592               0.999999985               0.000000220              -0.000733203               0.999999985               0.000505343              -0.001061392               0.999999984               0.000388566              -0.000948893               0.999999984               0.000352214              -0.000908962               0.999999984               0.000342145              -0.000902573               0.999999984               0.000339808              -0.000911121               0.999999984               0.000337935              -0.000925324               0.999999984               0.000332908              -0.000940322               0.999999984               0.000322752              -0.000953249               0.999999984               0.000306807              -0.000962720               0.999999984               0.000283873              -0.000967912               0.999999984               0.000253366              -0.000968408               0.999999984               0.000215696              -0.000964474               0.999999984               0.000171882              -0.000956878               0.999999984               0.000123257              -0.000946150               0.999999985               0.000071218              -0.000933397               0.999999985               0.000017031              -0.000919383               0.999999985              -0.000037950              -0.000905135               0.999999985               0.000442140              -0.001147071               0.999999984               0.000326165              -0.001058206               0.999999984               0.000287184              -0.001020625               0.999999984               0.000275316              -0.001011252               0.999999984               0.000272287              -0.001016912               0.999999984               0.000270871              -0.001029863               0.999999984               0.000267361              -0.001045287               0.999999984               0.000259788              -0.001060424               0.999999984               0.000247084              -0.001073863               0.999999984               0.000228454              -0.001084560               0.999999984               0.000203032              -0.001091827               0.999999984               0.000170358              -0.001095448               0.999999984               0.000130877              -0.001095851               0.999999984               0.000085447              -0.001093530               0.999999984               0.000035201              -0.001089032               0.999999985              -0.000018563              -0.001083112               0.999999985              -0.000074317              -0.001076644               0.999999985               0.000374900              -0.001222159               0.999999984               0.000266641              -0.001160517               0.999999984               0.000226870              -0.001130040               0.999999984               0.000213036              -0.001121116               0.999999984               0.000208730              -0.001125642               0.999999984               0.000207125              -0.001138040               0.999999984               0.000204616              -0.001154223               0.999999984               0.000198965              -0.001171674               0.999999984               0.000189090              -0.001188790               0.999999984               0.000174225              -0.001204612               0.999999984               0.000153479              -0.001218204               0.999999984               0.000126051              -0.001229071               0.999999984               0.000091479              -0.001237047               0.999999984               0.000050218              -0.001242347               0.999999984               0.000002802              -0.001245463               0.999999984              -0.000049982              -0.001247033               0.999999984              -0.000106749              -0.001247940               0.999999985               0.000304182              -0.001285346               0.999999984               0.000209954              -0.001251518               0.999999984               0.000172113              -0.001231633               0.999999984               0.000157181              -0.001226223               0.999999984               0.000151679              -0.001231788               0.999999984               0.000149561              -0.001244709               0.999999984               0.000147430              -0.001262184               0.999999984               0.000143117              -0.001282195               0.999999984               0.000135640              -0.001303165               0.999999984               0.000124195              -0.001323858               0.999999984               0.000107802              -0.001343490               0.999999984               0.000085615              -0.001361280               0.999999984               0.000056790              -0.001376821               0.999999984               0.000020914              -0.001389886               0.999999984              -0.000022163              -0.001400730               0.999999984              -0.000072591              -0.001409874               0.999999984              -0.000129857              -0.001418035               0.999999984               0.000230650              -0.001335620               0.999999984               0.000155591              -0.001327067               0.999999984               0.000122998              -0.001319210               0.999999984               0.000108773              -0.001319522               0.999999984               0.000102834              -0.001327939               0.999999984               0.000100233              -0.001342799               0.999999984               0.000098162              -0.001362390               0.999999984               0.000094910              -0.001385076               0.999999984               0.000089391              -0.001409615               0.999999984               0.000080924              -0.001434960               0.999999984               0.000068721              -0.001460257               0.999999984               0.000051886              -0.001484726               0.999999984               0.000029376              -0.001507835               0.999999984               0.000000419              -0.001529106               0.999999984              -0.000036003              -0.001548348               0.999999984              -0.000081003              -0.001565560               0.999999984              -0.000135255              -0.001581236               0.999999984               0.000155002              -0.001372140               0.999999984               0.000102874              -0.001383714               0.999999984               0.000078867              -0.001386810               0.999999984               0.000067696              -0.001393250               0.999999984               0.000062479              -0.001405425               0.999999984               0.000059906              -0.001423070               0.999999984               0.000058248              -0.001445147               0.999999984               0.000055979              -0.001470565               0.999999984               0.000052155              -0.001498332               0.999999984               0.000046366              -0.001527734               0.999999984               0.000038226              -0.001558030               0.999999984               0.000026800              -0.001588479               0.999999984               0.000011253              -0.001618541               0.999999984              -0.000009378              -0.001647609               0.999999984              -0.000036229              -0.001675095               0.999999984              -0.000070827              -0.001700481               0.999999984              -0.000115081              -0.001723714               0.999999984               0.000077886              -0.001394268               0.999999984               0.000051194              -0.001418774               0.999999984               0.000038471              -0.001429519               0.999999984               0.000032296              -0.001440653               0.999999984               0.000029147              -0.001455889               0.999999984               0.000027646              -0.001475788               0.999999984               0.000026719              -0.001499944               0.999999984               0.000025509              -0.001527647               0.999999984               0.000023487              -0.001558049               0.999999984               0.000020524              -0.001590536               0.999999984               0.000016355              -0.001624438               0.999999984               0.000010503              -0.001659177               0.999999984               0.000002442              -0.001694240               0.999999984              -0.000008368              -0.001728874               0.999999984              -0.000022682              -0.001762398               0.999999984              -0.000041640              -0.001794187               0.999999984              -0.000066947              -0.001823508               0.999999984              -0.000000000              -0.001401659               0.999999984              -0.000000000              -0.001430608               0.999999984               0.000000000              -0.001444138               0.999999984              -0.000000000              -0.001457085               0.999999984               0.000000000              -0.001473465               0.999999984              -0.000000000              -0.001494256               0.999999984              -0.000000000              -0.001519260               0.999999984              -0.000000000              -0.001547891               0.999999984              -0.000000000              -0.001579374               0.999999984              -0.000000000              -0.001613072               0.999999984              -0.000000000              -0.001648321               0.999999984              -0.000000000              -0.001684556               0.999999984              -0.000000000              -0.001721329               0.999999984               0.000000000              -0.001757972               0.999999984               0.000000000              -0.001793832               0.999999984              -0.000000000              -0.001828080               0.999999984              -0.000000000              -0.001859737               0.999999984               0.000825698               0.000000000               0.999999984               0.000877052               0.000000000               0.999999984               0.000899088               0.000000000               0.999999984               0.000911342              -0.000000000               0.999999984               0.000921085               0.000000000               0.999999984               0.000930928               0.000000000               0.999999984               0.000941889               0.000000000               0.999999984               0.000954074               0.000000000               0.999999984               0.000967446               0.000000000               0.999999984               0.000981883               0.000000000               0.999999984               0.000997007              -0.000000000               0.999999984               0.001012308               0.000000000               0.999999984               0.001027359               0.000000000               0.999999984               0.001041616               0.000000000               0.999999984               0.001054417               0.000000000               0.999999984               0.001064995               0.000000000               0.999999984               0.001072534               0.000000000               0.999999984               0.000821213               0.000133342               0.999999984               0.000868454               0.000107310               0.999999984               0.000887930               0.000095492               0.999999984               0.000898555               0.000090776               0.999999984               0.000907092               0.000089684               0.999999984               0.000916047               0.000090388               0.999999984               0.000926220               0.000091815               0.999999984               0.000937778               0.000093460               0.999999984               0.000950416               0.000094899               0.999999984               0.000963844               0.000095785               0.999999984               0.000977755               0.000095594               0.999999984               0.000991590               0.000094012               0.999999984               0.001004862               0.000090637               0.999999984               0.001017055               0.000084901               0.999999984               0.001027526               0.000076330               0.999999984               0.001035705               0.000063779               0.999999984               0.001040975               0.000046267               0.999999984               0.000807718               0.000265575               0.999999984               0.000843059               0.000214040               0.999999984               0.000855189               0.000191748               0.999999984               0.000861262               0.000183350               0.999999984               0.000866827               0.000181983               0.999999984               0.000873638               0.000183951               0.999999984               0.000881937               0.000187285               0.999999984               0.000891534               0.000190700               0.999999984               0.000901948               0.000193655               0.999999984               0.000912648               0.000195345               0.999999984               0.000922989               0.000194890               0.999999984               0.000932504               0.000191728               0.999999984               0.000940762               0.000185128               0.999999984               0.000947208               0.000174384               0.999999984               0.000951438               0.000158488               0.999999984               0.000953138               0.000136143               0.999999984               0.000952216               0.000106021               0.999999984               0.000785460               0.000395487               0.999999984               0.000802080               0.000319933               0.999999984               0.000803495               0.000289332               0.999999984               0.000803326               0.000279213               0.999999984               0.000805152               0.000278858               0.999999984               0.000809241               0.000282957               0.999999984               0.000815075               0.000288572               0.999999984               0.000821855               0.000294022               0.999999984               0.000828816               0.000298499               0.999999984               0.000835174               0.000300834               0.999999984               0.000840369               0.000299883               0.999999984               0.000843843               0.000295054               0.999999984               0.000845031               0.000285553               0.999999984               0.000843626               0.000270580               0.999999984               0.000839494               0.000249572               0.999999984               0.000832716               0.000221456               0.999999984               0.000823731               0.000185625               0.999999984               0.000754894               0.000521792               0.999999984               0.000747373               0.000424970               0.999999984               0.000736829               0.000388845               0.999999984               0.000730666               0.000378929               0.999999984               0.000729036               0.000380940               0.999999984               0.000730627               0.000387777               0.999999984               0.000733868               0.000396008               0.999999984               0.000737431               0.000403610               0.999999984               0.000740319               0.000409221               0.999999984               0.000741564               0.000411731               0.999999984               0.000740425               0.000409980               0.999999984               0.000736451               0.000403433               0.999999984               0.000729396               0.000391399               0.999999984               0.000719230               0.000373348               0.999999984               0.000706068               0.000349128               0.999999984               0.000690366               0.000318709               0.999999984               0.000672779               0.000282363               0.999999984               0.000716417               0.000643389               0.999999984               0.000681833               0.000529138               0.999999984               0.000660309               0.000490381               0.999999984               0.000649703               0.000482310               0.999999984               0.000646035               0.000487328               0.999999984               0.000645816               0.000497153               0.999999984               0.000646591               0.000507903               0.999999984               0.000646704               0.000517115               0.999999984               0.000644815               0.000523594               0.999999984               0.000640021               0.000525742               0.999999984               0.000631821               0.000522716               0.999999984               0.000619886               0.000514238               0.999999984               0.000604151               0.000500014               0.999999984               0.000584826               0.000479802               0.999999984               0.000562317               0.000454074               0.999999984               0.000537346               0.000423515               0.999999984               0.000510683               0.000389102               0.999999984               0.000670853               0.000759133               0.999999984               0.000608872               0.000632467               0.999999984               0.000579125               0.000593448               0.999999984               0.000566600               0.000588105               0.999999984               0.000562326               0.000596172               0.999999984               0.000560935               0.000608667               0.999999984               0.000559303               0.000621323               0.999999984               0.000555384               0.000631704               0.999999984               0.000548201               0.000638282               0.999999984               0.000536847               0.000639619               0.999999984               0.000520899               0.000635065               0.999999984               0.000500147               0.000624845               0.999999984               0.000474827               0.000608844               0.999999984               0.000445543               0.000587560               0.999999984               0.000413161               0.000561748               0.999999984               0.000378570               0.000532434               0.999999984               0.000342737               0.000501185               0.999999985               0.000619269               0.000867716               0.999999984               0.000531963               0.000734781               0.999999984               0.000497777               0.000697196               0.999999984               0.000486034               0.000694454               0.999999984               0.000482313               0.000705036               0.999999984               0.000480018               0.000719685               0.999999984               0.000475736               0.000733611               0.999999984               0.000467677               0.000744217               0.999999984               0.000454632               0.000750265               0.999999984               0.000435746               0.000750405               0.999999984               0.000410765               0.000744320               0.999999984               0.000379913               0.000732682               0.999999984               0.000343958               0.000715888               0.999999984               0.000304048               0.000694602               0.999999984               0.000261386               0.000670048               0.999999985               0.000217166               0.000643520               0.999999985               0.000172211               0.000616390               0.999999985               0.000563275               0.000967221               0.999999984               0.000453843               0.000835881               0.999999984               0.000420393               0.000800058               0.999999984               0.000411168               0.000799244               0.999999984               0.000408671               0.000811767               0.999999984               0.000405564               0.000827730               0.999999984               0.000398454               0.000842149               0.999999984               0.000385483               0.000852493               0.999999984               0.000365435               0.000857591               0.999999984               0.000337668               0.000856330               0.999999984               0.000302240               0.000848988               0.999999984               0.000260086               0.000836526               0.999999984               0.000212686               0.000819720               0.999999984               0.000161679               0.000799735               0.999999985               0.000108527               0.000777976               0.999999985               0.000054420               0.000755592               0.999999985               0.000000220               0.000733203               0.999999985               0.000505343               0.001061392               0.999999984               0.000388566               0.000948893               0.999999984               0.000352214               0.000908962               0.999999984               0.000342145               0.000902573               0.999999984               0.000339808               0.000911121               0.999999984               0.000337935               0.000925324               0.999999984               0.000332908               0.000940322               0.999999984               0.000322752               0.000953249               0.999999984               0.000306807               0.000962720               0.999999984               0.000283873               0.000967912               0.999999984               0.000253366               0.000968408               0.999999984               0.000215696               0.000964474               0.999999984               0.000171882               0.000956878               0.999999984               0.000123257               0.000946150               0.999999985               0.000071218               0.000933397               0.999999985               0.000017031               0.000919383               0.999999985              -0.000037950               0.000905135               0.999999985               0.000442140               0.001147071               0.999999984               0.000326165               0.001058206               0.999999984               0.000287184               0.001020625               0.999999984               0.000275316               0.001011252               0.999999984               0.000272287               0.001016912               0.999999984               0.000270871               0.001029863               0.999999984               0.000267361               0.001045287               0.999999984               0.000259788               0.001060424               0.999999984               0.000247084               0.001073863               0.999999984               0.000228454               0.001084560               0.999999984               0.000203032               0.001091827               0.999999984               0.000170358               0.001095448               0.999999984               0.000130877               0.001095851               0.999999984               0.000085447               0.001093530               0.999999984               0.000035201               0.001089032               0.999999985              -0.000018563               0.001083112               0.999999985              -0.000074317               0.001076644               0.999999985               0.000374900               0.001222159               0.999999984               0.000266641               0.001160517               0.999999984               0.000226870               0.001130040               0.999999984               0.000213036               0.001121116               0.999999984               0.000208730               0.001125642               0.999999984               0.000207125               0.001138040               0.999999984               0.000204616               0.001154223               0.999999984               0.000198965               0.001171674               0.999999984               0.000189090               0.001188790               0.999999984               0.000174225               0.001204612               0.999999984               0.000153479               0.001218204               0.999999984               0.000126051               0.001229071               0.999999984               0.000091479               0.001237047               0.999999984               0.000050218               0.001242347               0.999999984               0.000002802               0.001245463               0.999999984              -0.000049982               0.001247033               0.999999984              -0.000106749               0.001247940               0.999999985               0.000304182               0.001285346               0.999999984               0.000209954               0.001251518               0.999999984               0.000172113               0.001231633               0.999999984               0.000157181               0.001226223               0.999999984               0.000151679               0.001231788               0.999999984               0.000149561               0.001244709               0.999999984               0.000147430               0.001262184               0.999999984               0.000143117               0.001282195               0.999999984               0.000135640               0.001303165               0.999999984               0.000124195               0.001323858               0.999999984               0.000107802               0.001343490               0.999999984               0.000085615               0.001361280               0.999999984               0.000056790               0.001376821               0.999999984               0.000020914               0.001389886               0.999999984              -0.000022163               0.001400730               0.999999984              -0.000072591               0.001409874               0.999999984              -0.000129857               0.001418035               0.999999984               0.000230650               0.001335620               0.999999984               0.000155591               0.001327067               0.999999984               0.000122998               0.001319210               0.999999984               0.000108773               0.001319522               0.999999984               0.000102834               0.001327939               0.999999984               0.000100233               0.001342799               0.999999984               0.000098162               0.001362390               0.999999984               0.000094910               0.001385076               0.999999984               0.000089391               0.001409615               0.999999984               0.000080924               0.001434960               0.999999984               0.000068721               0.001460257               0.999999984               0.000051886               0.001484726               0.999999984               0.000029376               0.001507835               0.999999984               0.000000419               0.001529106               0.999999984              -0.000036003               0.001548348               0.999999984              -0.000081003               0.001565560               0.999999984              -0.000135255               0.001581236               0.999999984               0.000155002               0.001372140               0.999999984               0.000102874               0.001383714               0.999999984               0.000078867               0.001386810               0.999999984               0.000067696               0.001393250               0.999999984               0.000062479               0.001405425               0.999999984               0.000059906               0.001423070               0.999999984               0.000058248               0.001445147               0.999999984               0.000055979               0.001470565               0.999999984               0.000052155               0.001498332               0.999999984               0.000046366               0.001527734               0.999999984               0.000038226               0.001558030               0.999999984               0.000026800               0.001588479               0.999999984               0.000011253               0.001618541               0.999999984              -0.000009378               0.001647609               0.999999984              -0.000036229               0.001675095               0.999999984              -0.000070827               0.001700481               0.999999984              -0.000115081               0.001723714               0.999999984               0.000077886               0.001394268               0.999999984               0.000051194               0.001418774               0.999999984               0.000038471               0.001429519               0.999999984               0.000032296               0.001440653               0.999999984               0.000029147               0.001455889               0.999999984               0.000027646               0.001475788               0.999999984               0.000026719               0.001499944               0.999999984               0.000025509               0.001527647               0.999999984               0.000023487               0.001558049               0.999999984               0.000020524               0.001590536               0.999999984               0.000016355               0.001624438               0.999999984               0.000010503               0.001659177               0.999999984               0.000002442               0.001694240               0.999999984              -0.000008368               0.001728874               0.999999984              -0.000022682               0.001762398               0.999999984              -0.000041640               0.001794187               0.999999984              -0.000066947               0.001823508               0.999999984              -0.000000000               0.001401659               0.999999984              -0.000000000               0.001430608               0.999999984              -0.000000000               0.001444138               0.999999984               0.000000000               0.001457085               0.999999984               0.000000000               0.001473465               0.999999984              -0.000000000               0.001494256               0.999999984               0.000000000               0.001519260               0.999999984               0.000000000               0.001547891               0.999999984              -0.000000000               0.001579374               0.999999984               0.000000000               0.001613072               0.999999984              -0.000000000               0.001648321               0.999999984              -0.000000000               0.001684556               0.999999984               0.000000000               0.001721329               0.999999984               0.000000000               0.001757972               0.999999984              -0.000000000               0.001793832               0.999999984               0.000000000               0.001828080               0.999999984               0.000000000               0.001859737               0.999999984 </DataArray>
<DataArray type="Float64"                                    Name="defo"                                                      NumberOfComponents=" 3" format="ascii">
             -0.000825698               0.000000000               0.999999984              -0.000877052              -0.000000000               0.999999984              -0.000899088              -0.000000000               0.999999984              -0.000911342              -0.000000000               0.999999984              -0.000921085               0.000000000               0.999999984              -0.000930928               0.000000000               0.999999984              -0.000941889               0.000000000               0.999999984              -0.000954074               0.000000000               0.999999984              -0.000967446               0.000000000               0.999999984              -0.000981883               0.000000000               0.999999984              -0.000997007              -0.000000000               0.999999984              -0.001012308               0.000000000               0.999999984              -0.001027359               0.000000000               0.999999984              -0.001041616               0.000000000               0.999999984              -0.001054417               0.000000000               0.999999984              -0.001064995               0.000000000               0.999999984              -0.001072534               0.000000000               0.999999984              -0.000821213               0.000133342               0.999999984              -0.000868454               0.000107310               0.999999984              -0.000887930               0.000095492               0.999999984              -0.000898555               0.000090776               0.999999984              -0.000907092               0.000089684               0.999999984              -0.000916047               0.000090388               0.999999984              -0.000926220               0.000091815               0.999999984              -0.000937778               0.000093460               0.999999984              -0.000950416               0.000094899               0.999999984              -0.000963844               0.000095785               0.999999984              -0.000977755               0.000095594               0.999999984              -0.000991590               0.000094012               0.999999984              -0.001004862               0.000090637               0.999999984              -0.001017055               0.000084901               0.999999984              -0.001027526               0.000076330               0.999999984              -0.001035705               0.000063779               0.999999984              -0.001040975               0.000046267               0.999999984              -0.000807718               0.000265575               0.999999984              -0.000843059               0.000214040               0.999999984              -0.000855189               0.000191748               0.999999984              -0.000861262               0.000183350               0.999999984              -0.000866827               0.000181983               0.999999984              -0.000873638               0.000183951               0.999999984              -0.000881937               0.000187285               0.999999984              -0.000891534               0.000190700               0.999999984              -0.000901948               0.000193655               0.999999984              -0.000912648               0.000195345               0.999999984              -0.000922989               0.000194890               0.999999984              -0.000932504               0.000191728               0.999999984              -0.000940762               0.000185128               0.999999984              -0.000947208               0.000174384               0.999999984              -0.000951438               0.000158488               0.999999984              -0.000953138               0.000136143               0.999999984              -0.000952216               0.000106021               0.999999984              -0.000785460               0.000395487               0.999999984              -0.000802080               0.000319933               0.999999984              -0.000803495               0.000289332               0.999999984              -0.000803326               0.000279213               0.999999984              -0.000805152               0.000278858               0.999999984              -0.000809241               0.000282957               0.999999984              -0.000815075               0.000288572               0.999999984              -0.000821855               0.000294022               0.999999984              -0.000828816               0.000298499               0.999999984              -0.000835174               0.000300834               0.999999984              -0.000840369               0.000299883               0.999999984              -0.000843843               0.000295054               0.999999984              -0.000845031               0.000285553               0.999999984              -0.000843626               0.000270580               0.999999984              -0.000839494               0.000249572               0.999999984              -0.000832716               0.000221456               0.999999984              -0.000823731               0.000185625               0.999999984              -0.000754894               0.000521792               0.999999984              -0.000747373               0.000424970               0.999999984              -0.000736829               0.000388845               0.999999984              -0.000730666               0.000378929               0.999999984              -0.000729036               0.000380940               0.999999984              -0.000730627               0.000387777               0.999999984              -0.000733868               0.000396008               0.999999984              -0.000737431               0.000403610               0.999999984              -0.000740319               0.000409221               0.999999984              -0.000741564               0.000411731               0.999999984              -0.000740425               0.000409980               0.999999984              -0.000736451               0.000403433               0.999999984              -0.000729396               0.000391399               0.999999984              -0.000719230               0.000373348               0.999999984              -0.000706068               0.000349128               0.999999984              -0.000690366               0.000318709               0.999999984              -0.000672779               0.000282363               0.999999984              -0.000716417               0.000643389               0.999999984              -0.000681833               0.000529138               0.999999984              -0.000660309               0.000490381               0.999999984              -0.000649703               0.000482310               0.999999984              -0.000646035               0.000487328               0.999999984              -0.000645816               0.000497153               0.999999984              -0.000646591               0.000507903               0.999999984              -0.000646704               0.000517115               0.999999984              -0.000644815               0.000523594               0.999999984              -0.000640021               0.000525742               0.999999984              -0.000631821               0.000522716               0.999999984              -0.000619886               0.000514238               0.999999984              -0.000604151               0.000500014               0.999999984              -0.000584826               0.000479802               0.999999984              -0.000562317               0.000454074               0.999999984              -0.000537346               0.000423515               0.999999984              -0.000510683               0.000389102               0.999999984              -0.000670853               0.000759133               0.999999984              -0.000608872               0.000632467               0.999999984              -0.000579125               0.000593448               0.999999984              -0.000566600               0.000588105               0.999999984              -0.000562326               0.000596172               0.999999984              -0.000560935               0.000608667               0.999999984              -0.000559303               0.000621323               0.999999984              -0.000555384               0.000631704               0.999999984              -0.000548201               0.000638282               0.999999984              -0.000536847               0.000639619               0.999999984              -0.000520899               0.000635065               0.999999984              -0.000500147               0.000624845               0.999999984              -0.000474827               0.000608844               0.999999984              -0.000445543               0.000587560               0.999999984              -0.000413161               0.000561748               0.999999984              -0.000378570               0.000532434               0.999999984              -0.000342737               0.000501185               0.999999985              -0.000619269               0.000867716               0.999999984              -0.000531963               0.000734781               0.999999984              -0.000497777               0.000697196               0.999999984              -0.000486034               0.000694454               0.999999984              -0.000482313               0.000705036               0.999999984              -0.000480018               0.000719685               0.999999984              -0.000475736               0.000733611               0.999999984              -0.000467677               0.000744217               0.999999984              -0.000454632               0.000750265               0.999999984              -0.000435746               0.000750405               0.999999984              -0.000410765               0.000744320               0.999999984              -0.000379913               0.000732682               0.999999984              -0.000343958               0.000715888               0.999999984              -0.000304048               0.000694602               0.999999984              -0.000261386               0.000670048               0.999999985              -0.000217166               0.000643520               0.999999985              -0.000172211               0.000616390               0.999999985              -0.000563275               0.000967221               0.999999984              -0.000453843               0.000835881               0.999999984              -0.000420393               0.000800058               0.999999984              -0.000411168               0.000799244               0.999999984              -0.000408671               0.000811767               0.999999984              -0.000405564               0.000827730               0.999999984              -0.000398454               0.000842149               0.999999984              -0.000385483               0.000852493               0.999999984              -0.000365435               0.000857591               0.999999984              -0.000337668               0.000856330               0.999999984              -0.000302240               0.000848988               0.999999984              -0.000260086               0.000836526               0.999999984              -0.000212686               0.000819720               0.999999984              -0.000161679               0.000799735               0.999999985              -0.000108527               0.000777976               0.999999985              -0.000054420               0.000755592               0.999999985              -0.000000220               0.000733203               0.999999985              -0.000505343               0.001061392               0.999999984              -0.000388566               0.000948893               0.999999984              -0.000352214               0.000908962               0.999999984              -0.000342145               0.000902573               0.999999984              -0.000339808               0.000911121               0.999999984              -0.000337935               0.000925324               0.999999984              -0.000332908               0.000940322               0.999999984              -0.000322752               0.000953249               0.999999984              -0.000306807               0.000962720               0.999999984              -0.000283873               0.000967912               0.999999984              -0.000253366               0.000968408               0.999999984              -0.000215696               0.000964474               0.999999984              -0.000171882               0.000956878               0.999999984              -0.000123257               0.000946150               0.999999985              -0.000071218               0.000933397               0.999999985              -0.000017031               0.000919383               0.999999985               0.000037950               0.000905135               0.999999985              -0.000442140               0.001147071               0.999999984              -0.000326165               0.001058206               0.999999984              -0.000287184               0.001020625               0.999999984              -0.000275316               0.001011252               0.999999984              -0.000272287               0.001016912               0.999999984              -0.000270871               0.001029863               0.999999984              -0.000267361               0.001045287               0.999999984              -0.000259788               0.001060424               0.999999984              -0.000247084               0.001073863               0.999999984              -0.000228454               0.001084560               0.999999984              -0.000203032               0.001091827               0.999999984              -0.000170358               0.001095448               0.999999984              -0.000130877               0.001095851               0.999999984              -0.000085447               0.001093530               0.999999984              -0.000035201               0.001089032               0.999999985               0.000018563               0.001083112               0.999999985               0.000074317               0.001076644               0.999999985              -0.000374900               0.001222159               0.999999984              -0.000266641               0.001160517               0.999999984              -0.000226870               0.001130040               0.999999984              -0.000213036               0.001121116               0.999999984              -0.000208730               0.001125642               0.999999984              -0.000207125               0.001138040               0.999999984              -0.000204616               0.001154223               0.999999984              -0.000198965               0.001171674               0.999999984              -0.000189090               0.001188790               0.999999984              -0.000174225               0.001204612               0.999999984              -0.000153479               0.001218204               0.999999984              -0.000126051               0.001229071               0.999999984              -0.000091479               0.001237047               0.999999984              -0.000050218               0.001242347               0.999999984              -0.000002802               0.001245463               0.999999984               0.000049982               0.001247033               0.999999984               0.000106749               0.001247940               0.999999985              -0.000304182               0.001285346               0.999999984              -0.000209954               0.001251518               0.999999984              -0.000172113               0.001231633               0.999999984              -0.000157181               0.001226223               0.999999984              -0.000151679               0.001231788               0.999999984              -0.000149561               0.001244709               0.999999984              -0.000147430               0.001262184               0.999999984              -0.000143117               0.001282195               0.999999984              -0.000135640               0.001303165               0.999999984              -0.000124195               0.001323858               0.999999984              -0.000107802               0.001343490               0.999999984              -0.000085615               0.001361280               0.999999984              -0.000056790               0.001376821               0.999999984              -0.000020914               0.001389886               0.999999984               0.000022163               0.001400730               0.999999984               0.000072591               0.001409874               0.999999984               0.000129857               0.001418035               0.999999984              -0.000230650               0.001335620               0.999999984              -0.000155591               0.001327067               0.999999984              -0.000122998               0.001319210               0.999999984              -0.000108773               0.001319522               0.999999984              -0.000102834               0.001327939               0.999999984              -0.000100233               0.001342799               0.999999984              -0.000098162               0.001362390               0.999999984              -0.000094910               0.001385076               0.999999984              -0.000089391               0.001409615               0.999999984              -0.000080924               0.001434960               0.999999984              -0.000068721               0.001460257               0.999999984              -0.000051886               0.001484726               0.999999984              -0.000029376               0.001507835               0.999999984              -0.000000419               0.001529106               0.999999984               0.000036003               0.001548348               0.999999984               0.000081003               0.001565560               0.999999984               0.000135255               0.001581236               0.999999984              -0.000155002               0.001372140               0.999999984              -0.000102874               0.001383714               0.999999984              -0.000078867               0.001386810               0.999999984              -0.000067696               0.001393250               0.999999984              -0.000062479               0.001405425               0.999999984              -0.000059906               0.001423070               0.999999984              -0.000058248               0.001445147               0.999999984              -0.000055979               0.001470565               0.999999984              -0.000052155               0.001498332               0.999999984              -0.000046366               0.001527734               0.999999984              -0.000038226               0.001558030               0.999999984              -0.000026800               0.001588479               0.999999984              -0.000011253               0.001618541               0.999999984               0.000009378               0.001647609               0.999999984               0.000036229               0.001675095               0.999999984               0.000070827               0.001700481               0.999999984               0.000115081               0.001723714               0.999999984              -0.000077886               0.001394268               0.999999984              -0.000051194               0.001418774               0.999999984              -0.000038471               0.001429519               0.999999984              -0.000032296               0.001440653               0.999999984              -0.000029147               0.001455889               0.999999984              -0.000027646               0.001475788               0.999999984              -0.000026719               0.001499944               0.999999984              -0.000025509               0.001527647               0.999999984              -0.000023487               0.001558049               0.999999984              -0.000020524               0.001590536               0.999999984              -0.000016355               0.001624438               0.999999984              -0.000010503               0.001659177               0.999999984              -0.000002442               0.001694240               0.999999984               0.000008368               0.001728874               0.999999984               0.000022682               0.001762398               0.999999984               0.000041640               0.001794187               0.999999984               0.000066947               0.001823508               0.999999984              -0.000000000               0.001401659               0.999999984              -0.000000000               0.001430608               0.999999984              -0.000000000               0.001444138               0.999999984               0.000000000               0.001457085               0.999999984               0.000000000               0.001473465               0.999999984              -0.000000000               0.001494256               0.999999984               0.000000000               0.001519260               0.999999984               0.000000000               0.001547891               0.999999984              -0.000000000               0.001579374               0.999999984               0.000000000               0.001613072               0.999999984              -0.000000000               0.001648321               0.999999984              -0.000000000               0.001684556               0.999999984               0.000000000               0.001721329               0.999999984               0.000000000               0.001757972               0.999999984              -0.000000000               0.001793832               0.999999984               0.000000000               0.001828080               0.999999984               0.000000000               0.001859737               0.999999984              -0.000825698               0.000000000               0.999999984              -0.000877052              -0.000000000               0.999999984              -0.000899088              -0.000000000               0.999999984              -0.000911342              -0.000000000               0.999999984              -0.000921085               0.000000000               0.999999984              -0.000930928               0.000000000               0.999999984              -0.000941889               0.000000000               0.999999984              -0.000954074               0.000000000               0.999999984              -0.000967446               0.000000000               0.999999984              -0.000981883               0.000000000               0.999999984              -0.000997007              -0.000000000               0.999999984              -0.001012308               0.000000000               0.999999984              -0.001027359               0.000000000               0.999999984              -0.001041616               0.000000000               0.999999984              -0.001054417               0.000000000               0.999999984              -0.001064995               0.000000000               0.999999984              -0.001072534               0.000000000               0.999999984              -0.000821213              -0.000133342               0.999999984              -0.000868454              -0.000107310               0.999999984              -0.000887930              -0.000095492               0.999999984              -0.000898555              -0.000090776               0.999999984              -0.000907092              -0.000089684               0.999999984              -0.000916047              -0.000090388               0.999999984              -0.000926220              -0.000091815               0.999999984              -0.000937778              -0.000093460               0.999999984              -0.000950416              -0.000094899               0.999999984              -0.000963844              -0.000095785               0.999999984              -0.000977755              -0.000095594               0.999999984              -0.000991590              -0.000094012               0.999999984              -0.001004862              -0.000090637               0.999999984              -0.001017055              -0.000084901               0.999999984              -0.001027526              -0.000076330               0.999999984              -0.001035705              -0.000063779               0.999999984              -0.001040975              -0.000046267               0.999999984              -0.000807718              -0.000265575               0.999999984              -0.000843059              -0.000214040               0.999999984              -0.000855189              -0.000191748               0.999999984              -0.000861262              -0.000183350               0.999999984              -0.000866827              -0.000181983               0.999999984              -0.000873638              -0.000183951               0.999999984              -0.000881937              -0.000187285               0.999999984              -0.000891534              -0.000190700               0.999999984              -0.000901948              -0.000193655               0.999999984              -0.000912648              -0.000195345               0.999999984              -0.000922989              -0.000194890               0.999999984              -0.000932504              -0.000191728               0.999999984              -0.000940762              -0.000185128               0.999999984              -0.000947208              -0.000174384               0.999999984              -0.000951438              -0.000158488               0.999999984              -0.000953138              -0.000136143               0.999999984              -0.000952216              -0.000106021               0.999999984              -0.000785460              -0.000395487               0.999999984              -0.000802080              -0.000319933               0.999999984              -0.000803495              -0.000289332               0.999999984              -0.000803326              -0.000279213               0.999999984              -0.000805152              -0.000278858               0.999999984              -0.000809241              -0.000282957               0.999999984              -0.000815075              -0.000288572               0.999999984              -0.000821855              -0.000294022               0.999999984              -0.000828816              -0.000298499               0.999999984              -0.000835174              -0.000300834               0.999999984              -0.000840369              -0.000299883               0.999999984              -0.000843843              -0.000295054               0.999999984              -0.000845031              -0.000285553               0.999999984              -0.000843626              -0.000270580               0.999999984              -0.000839494              -0.000249572               0.999999984              -0.000832716              -0.000221456               0.999999984              -0.000823731              -0.000185625               0.999999984              -0.000754894              -0.000521792               0.999999984              -0.000747373              -0.000424970               0.999999984              -0.000736829              -0.000388845               0.999999984              -0.000730666              -0.000378929               0.999999984              -0.000729036              -0.000380940               0.999999984              -0.000730627              -0.000387777               0.999999984              -0.000733868              -0.000396008               0.999999984              -0.000737431              -0.000403610               0.999999984              -0.000740319              -0.000409221               0.999999984              -0.000741564              -0.000411731               0.999999984              -0.000740425              -0.000409980               0.999999984              -0.000736451              -0.000403433               0.999999984              -0.000729396              -0.000391399               0.999999984              -0.000719230              -0.000373348               0.999999984              -0.000706068              -0.000349128               0.999999984              -0.000690366              -0.000318709               0.999999984              -0.000672779              -0.000282363               0.999999984              -0.000716417              -0.000643389               0.999999984              -0.000681833              -0.000529138               0.999999984              -0.000660309              -0.000490381               0.999999984              -0.000649703              -0.000482310               0.999999984              -0.000646035              -0.000487328               0.999999984              -0.000645816              -0.000497153               0.999999984              -0.000646591              -0.000507903               0.999999984              -0.000646704              -0.000517115               0.999999984              -0.000644815              -0.000523594               0.999999984              -0.000640021              -0.000525742               0.999999984              -0.000631821              -0.000522716               0.999999984              -0.000619886              -0.000514238               0.999999984              -0.000604151              -0.000500014               0.999999984              -0.000584826              -0.000479802               0.999999984              -0.000562317              -0.000454074               0.999999984              -0.000537346              -0.000423515               0.999999984              -0.000510683              -0.000389102               0.999999984              -0.000670853              -0.000759133               0.999999984              -0.000608872              -0.000632467               0.999999984              -0.000579125              -0.000593448               0.999999984              -0.000566600              -0.000588105               0.999999984              -0.000562326              -0.000596172               0.999999984              -0.000560935              -0.000608667               0.999999984              -0.000559303              -0.000621323               0.999999984              -0.000555384              -0.000631704               0.999999984              -0.000548201              -0.000638282               0.999999984              -0.000536847              -0.000639619               0.999999984              -0.000520899              -0.000635065               0.999999984              -0.000500147              -0.000624845               0.999999984              -0.000474827              -0.000608844               0.999999984              -0.000445543              -0.000587560               0.999999984              -0.000413161              -0.000561748               0.999999984              -0.000378570              -0.000532434               0.999999984              -0.000342737              -0.000501185               0.999999985              -0.000619269              -0.000867716               0.999999984              -0.000531963              -0.000734781               0.999999984              -0.000497777              -0.000697196               0.999999984              -0.000486034              -0.000694454               0.999999984              -0.000482313              -0.000705036               0.999999984              -0.000480018              -0.000719685               0.999999984              -0.000475736              -0.000733611               0.999999984              -0.000467677              -0.000744217               0.999999984              -0.000454632              -0.000750265               0.999999984              -0.000435746              -0.000750405               0.999999984              -0.000410765              -0.000744320               0.999999984              -0.000379913              -0.000732682               0.999999984              -0.000343958              -0.000715888               0.999999984              -0.000304048              -0.000694602               0.999999984              -0.000261386              -0.000670048               0.999999985              -0.000217166              -0.000643520               0.999999985              -0.000172211              -0.000616390               0.999999985              -0.000563275              -0.000967221               0.999999984              -0.000453843              -0.000835881               0.999999984              -0.000420393              -0.000800058               0.999999984              -0.000411168              -0.000799244               0.999999984              -0.000408671              -0.000811767               0.999999984              -0.000405564              -0.000827730               0.999999984              -0.000398454              -0.000842149               0.999999984              -0.000385483              -0.000852493               0.999999984              -0.000365435              -0.000857591               0.999999984              -0.000337668              -0.000856330               0.999999984              -0.000302240              -0.000848988               0.999999984              -0.000260086              -0.000836526               0.999999984              -0.000212686              -0.000819720               0.999999984              -0.000161679              -0.000799735               0.999999985              -0.000108527              -0.000777976               0.999999985              -0.000054420              -0.000755592               0.999999985              -0.000000220              -0.000733203               0.999999985              -0.000505343              -0.001061392               0.999999984              -0.000388566              -0.000948893               0.999999984              -0.000352214              -0.000908962               0.999999984              -0.000342145              -0.000902573               0.999999984              -0.000339808              -0.000911121               0.999999984              -0.000337935              -0.000925324               0.999999984              -0.000332908              -0.000940322               0.999999984              -0.000322752              -0.000953249               0.999999984              -0.000306807              -0.000962720               0.999999984              -0.000283873              -0.000967912               0.999999984              -0.000253366              -0.000968408               0.999999984              -0.000215696              -0.000964474               0.999999984              -0.000171882              -0.000956878               0.999999984              -0.000123257              -0.000946150               0.999999985              -0.000071218              -0.000933397               0.999999985              -0.000017031              -0.000919383               0.999999985               0.000037950              -0.000905135               0.999999985              -0.000442140              -0.001147071               0.999999984              -0.000326165              -0.001058206               0.999999984              -0.000287184              -0.001020625               0.999999984              -0.000275316              -0.001011252               0.999999984              -0.000272287              -0.001016912               0.999999984              -0.000270871              -0.001029863               0.999999984              -0.000267361              -0.001045287               0.999999984              -0.000259788              -0.001060424               0.999999984              -0.000247084              -0.001073863               0.999999984              -0.000228454              -0.001084560               0.999999984              -0.000203032              -0.001091827               0.999999984              -0.000170358              -0.001095448               0.999999984              -0.000130877              -0.001095851               0.999999984              -0.000085447              -0.001093530               0.999999984              -0.000035201              -0.001089032               0.999999985               0.000018563              -0.001083112               0.999999985               0.000074317              -0.001076644               0.999999985              -0.000374900              -0.001222159               0.999999984              -0.000266641              -0.001160517               0.999999984              -0.000226870              -0.001130040               0.999999984              -0.000213036              -0.001121116               0.999999984              -0.000208730              -0.001125642               0.999999984              -0.000207125              -0.001138040               0.999999984              -0.000204616              -0.001154223               0.999999984              -0.000198965              -0.001171674               0.999999984              -0.000189090              -0.001188790               0.999999984              -0.000174225              -0.001204612               0.999999984              -0.000153479              -0.001218204               0.999999984              -0.000126051              -0.001229071               0.999999984              -0.000091479              -0.001237047               0.999999984              -0.000050218              -0.001242347               0.999999984              -0.000002802              -0.001245463               0.999999984               0.000049982              -0.001247033               0.999999984               0.000106749              -0.001247940               0.999999985              -0.000304182              -0.001285346               0.999999984              -0.000209954              -0.001251518               0.999999984              -0.000172113              -0.001231633               0.999999984              -0.000157181              -0.001226223               0.999999984              -0.000151679              -0.001231788               0.999999984              -0.000149561              -0.001244709               0.999999984              -0.000147430              -0.001262184               0.999999984              -0.000143117              -0.001282195               0.999999984              -0.000135640              -0.001303165               0.999999984              -0.000124195              -0.001323858               0.999999984              -0.000107802              -0.001343490               0.999999984              -0.000085615              -0.001361280               0.999999984              -0.000056790              -0.001376821               0.999999984              -0.000020914              -0.001389886               0.999999984               0.000022163              -0.001400730               0.999999984               0.000072591              -0.001409874               0.999999984               0.000129857              -0.001418035               0.999999984              -0.000230650              -0.001335620               0.999999984              -0.000155591              -0.001327067               0.999999984              -0.000122998              -0.001319210               0.999999984              -0.000108773              -0.001319522               0.999999984              -0.000102834              -0.001327939               0.999999984              -0.000100233              -0.001342799               0.999999984              -0.000098162              -0.001362390               0.999999984              -0.000094910              -0.001385076               0.999999984              -0.000089391              -0.001409615               0.999999984              -0.000080924              -0.001434960               0.999999984              -0.000068721              -0.001460257               0.999999984              -0.000051886              -0.001484726               0.999999984              -0.000029376              -0.001507835               0.999999984              -0.000000419              -0.001529106               0.999999984               0.000036003              -0.001548348               0.999999984               0.000081003              -0.001565560               0.999999984               0.000135255              -0.001581236               0.999999984              -0.000155002              -0.001372140               0.999999984              -0.000102874              -0.001383714               0.999999984              -0.000078867              -0.001386810               0.999999984              -0.000067696              -0.001393250               0.999999984              -0.000062479              -0.001405425               0.999999984              -0.000059906              -0.001423070               0.999999984              -0.000058248              -0.001445147               0.999999984              -0.000055979              -0.001470565               0.999999984              -0.000052155              -0.001498332               0.999999984              -0.000046366              -0.001527734               0.999999984              -0.000038226              -0.001558030               0.999999984              -0.000026800              -0.001588479               0.999999984              -0.000011253              -0.001618541               0.999999984               0.000009378              -0.001647609               0.999999984               0.000036229              -0.001675095               0.999999984               0.000070827              -0.001700481               0.999999984               0.000115081              -0.001723714               0.999999984              -0.000077886              -0.001394268               0.999999984              -0.000051194              -0.001418774               0.999999984              -0.000038471              -0.001429519               0.999999984              -0.000032296              -0.001440653               0.999999984              -0.000029147              -0.001455889               0.999999984              -0.000027646              -0.001475788               0.999999984              -0.000026719              -0.001499944               0.999999984              -0.000025509              -0.001527647               0.999999984              -0.000023487              -0.001558049               0.999999984              -0.000020524              -0.001590536               0.999999984              -0.000016355              -0.001624438               0.999999984              -0.000010503              -0.001659177               0.999999984              -0.000002442              -0.001694240               0.999999984               0.000008368              -0.001728874               0.999999984               0.000022682              -0.001762398               0.999999984               0.000041640              -0.001794187               0.999999984               0.000066947              -0.001823508               0.999999984              -0.000000000              -0.001401659               0.999999984              -0.000000000              -0.001430608               0.999999984               0.000000000              -0.001444138               0.999999984              -0.000000000              -0.001457085               0.999999984               0.000000000              -0.001473465               0.999999984              -0.000000000              -0.001494256               0.999999984              -0.000000000              -0.001519260               0.999999984              -0.000000000              -0.001547891               0.999999984              -0.000000000              -0.001579374               0.999999984              -0.000000000              -0.001613072               0.999999984              -0.000000000              -0.001648321               0.999999984              -0.000000000              -0.001684556               0.999999984              -0.000000000              -0.001721329               0.999999984               0.000000000              -0.001757972               0.999999984               0.000000000              -0.001793832               0.999999984              -0.000000000              -0.001828080               0.999999984              -0.000000000              -0.001859737               0.999999984               0.000825698               0.000000000               0.999999984               0.000877052               0.000000000               0.999999984               0.000899088               0.000000000               0.999999984               0.000911342              -0.000000000               0.999999984               0.000921085               0.000000000               0.999999984               0.000930928               0.000000000               0.999999984               0.000941889               0.000000000               0.999999984               0.000954074               0.000000000               0.999999984               0.000967446               0.000000000               0.999999984               0.000981883               0.000000000               0.999999984               0.000997007              -0.000000000               0.999999984               0.001012308               0.000000000               0.999999984               0.001027359               0.000000000               0.999999984               0.001041616               0.000000000               0.999999984               0.001054417               0.000000000               0.999999984               0.001064995               0.000000000               0.999999984               0.001072534               0.000000000               0.999999984               0.000821213              -0.000133342               0.999999984               0.000868454              -0.000107310               0.999999984               0.000887930              -0.000095492               0.999999984               0.000898555              -0.000090776               0.999999984               0.000907092              -0.000089684               0.999999984               0.000916047              -0.000090388               0.999999984               0.000926220              -0.000091815               0.999999984               0.000937778              -0.000093460               0.999999984               0.000950416              -0.000094899               0.999999984               0.000963844              -0.000095785               0.999999984               0.000977755              -0.000095594               0.999999984               0.000991590              -0.000094012               0.999999984               0.001004862              -0.000090637               0.999999984               0.001017055              -0.000084901               0.999999984               0.001027526              -0.000076330               0.999999984               0.001035705              -0.000063779               0.999999984               0.001040975              -0.000046267               0.999999984               0.000807718              -0.000265575               0.999999984               0.000843059              -0.000214040               0.999999984               0.000855189              -0.000191748               0.999999984               0.000861262              -0.000183350               0.999999984               0.000866827              -0.000181983               0.999999984               0.000873638              -0.000183951               0.999999984               0.000881937              -0.000187285               0.999999984               0.000891534              -0.000190700               0.999999984               0.000901948              -0.000193655               0.999999984               0.000912648              -0.000195345               0.999999984               0.000922989              -0.000194890               0.999999984               0.000932504              -0.000191728               0.999999984               0.000940762              -0.000185128               0.999999984               0.000947208              -0.000174384               0.999999984               0.000951438              -0.000158488               0.999999984               0.000953138              -0.000136143               0.999999984               0.000952216              -0.000106021               0.999999984               0.000785460              -0.000395487               0.999999984               0.000802080              -0.000319933               0.999999984               0.000803495              -0.000289332               0.999999984               0.000803326              -0.000279213               0.999999984               0.000805152              -0.000278858               0.999999984               0.000809241              -0.000282957               0.999999984               0.000815075              -0.000288572               0.999999984               0.000821855              -0.000294022               0.999999984               0.000828816              -0.000298499               0.999999984               0.000835174              -0.000300834               0.999999984               0.000840369              -0.000299883               0.999999984               0.000843843              -0.000295054               0.999999984               0.000845031              -0.000285553               0.999999984               0.000843626              -0.000270580               0.999999984               0.000839494              -0.000249572               0.999999984               0.000832716              -0.000221456               0.999999984               0.000823731              -0.000185625               0.999999984               0.000754894              -0.000521792               0.999999984               0.000747373              -0.000424970               0.999999984               0.000736829              -0.000388845               0.999999984               0.000730666              -0.000378929               0.999999984               0.000729036              -0.000380940               0.999999984               0.000730627              -0.000387777               0.999999984               0.000733868              -0.000396008               0.999999984               0.000737431              -0.000403610               0.999999984               0.000740319              -0.000409221               0.999999984               0.000741564              -0.000411731               0.999999984               0.000740425              -0.000409980               0.999999984               0.000736451              -0.000403433               0.999999984               0.000729396              -0.000391399               0.999999984               0.000719230              -0.000373348               0.999999984               0.000706068              -0.000349128               0.999999984               0.000690366              -0.000318709               0.999999984               0.000672779              -0.000282363               0.999999984               0.000716417              -0.000643389               0.999999984               0.000681833              -0.000529138               0.999999984               0.000660309              -0.000490381               0.999999984               0.000649703              -0.000482310               0.999999984               0.000646035              -0.000487328               0.999999984               0.000645816              -0.000497153               0.999999984               0.000646591              -0.000507903               0.999999984               0.000646704              -0.000517115               0.999999984               0.000644815              -0.000523594               0.999999984               0.000640021              -0.000525742               0.999999984               0.000631821              -0.000522716               0.999999984               0.000619886              -0.000514238               0.999999984               0.000604151              -0.000500014               0.999999984               0.000584826              -0.000479802               0.999999984               0.000562317              -0.000454074               0.999999984               0.000537346              -0.000423515               0.999999984               0.000510683              -0.000389102               0.999999984               0.000670853              -0.000759133               0.999999984               0.000608872              -0.000632467               0.999999984               0.000579125              -0.000593448               0.999999984               0.000566600              -0.000588105               0.999999984               0.000562326              -0.000596172               0.999999984               0.000560935              -0.000608667               0.999999984               0.000559303              -0.000621323               0.999999984               0.000555384              -0.000631704               0.999999984               0.000548201              -0.000638282               0.999999984               0.000536847              -0.000639619               0.999999984               0.000520899              -0.000635065               0.999999984               0.000500147              -0.000624845               0.999999984               0.000474827              -0.000608844               0.999999984               0.000445543              -0.000587560               0.999999984               0.000413161              -0.000561748               0.999999984               0.000378570              -0.000532434               0.999999984               0.000342737              -0.000501185               0.999999985               0.000619269              -0.000867716               0.999999984               0.000531963              -0.000734781               0.999999984               0.000497777              -0.000697196               0.999999984               0.000486034              -0.000694454               0.999999984               0.000482313              -0.000705036               0.999999984               0.000480018              -0.000719685               0.999999984               0.000475736              -0.000733611               0.999999984               0.000467677              -0.000744217               0.999999984               0.000454632              -0.000750265               0.999999984               0.000435746              -0.000750405               0.999999984               0.000410765              -0.000744320               0.999999984               0.000379913              -0.000732682               0.999999984               0.000343958              -0.000715888               0.999999984               0.000304048              -0.000694602               0.999999984               0.000261386              -0.000670048               0.999999985               0.000217166              -0.000643520               0.999999985               0.000172211              -0.000616390               0.999999985               0.000563275              -0.000967221               0.999999984               0.000453843              -0.000835881               0.999999984               0.000420393              -0.000800058               0.999999984               0.000411168              -0.000799244               0.999999984               0.000408671              -0.000811767               0.999999984               0.000405564              -0.000827730               0.999999984               0.000398454              -0.000842149               0.999999984               0.000385483              -0.000852493               0.999999984               0.000365435              -0.000857591               0.999999984               0.000337668              -0.000856330               0.999999984               0.000302240              -0.000848988               0.999999984               0.000260086              -0.000836526               0.999999984               0.000212686              -0.000819720               0.999999984               0.000161679              -0.000799735               0.999999985               0.000108527              -0.000777976               0.999999985               0.000054420              -0.000755592               0.999999985               0.000000220              -0.000733203               0.999999985               0.000505343              -0.001061392               0.999999984               0.000388566              -0.000948893               0.999999984               0.000352214              -0.000908962               0.999999984               0.000342145              -0.000902573               0.999999984               0.000339808              -0.000911121               0.999999984               0.000337935              -0.000925324               0.999999984               0.000332908              -0.000940322               0.999999984               0.000322752              -0.000953249               0.999999984               0.000306807              -0.000962720               0.999999984               0.000283873              -0.000967912               0.999999984               0.000253366              -0.000968408               0.999999984               0.000215696              -0.000964474               0.999999984               0.000171882              -0.000956878               0.999999984               0.000123257              -0.000946150               0.999999985               0.000071218              -0.000933397               0.999999985               0.000017031              -0.000919383               0.999999985              -0.000037950              -0.000905135               0.999999985               0.000442140              -0.001147071               0.999999984               0.000326165              -0.001058206               0.999999984               0.000287184              -0.001020625               0.999999984               0.000275316              -0.001011252               0.999999984               0.000272287              -0.001016912               0.999999984               0.000270871              -0.001029863               0.999999984               0.000267361              -0.001045287               0.999999984               0.000259788              -0.001060424               0.999999984               0.000247084              -0.001073863               0.999999984               0.000228454              -0.001084560               0.999999984               0.000203032              -0.001091827               0.999999984               0.000170358              -0.001095448               0.999999984               0.000130877              -0.001095851               0.999999984               0.000085447              -0.001093530               0.999999984               0.000035201              -0.001089032               0.999999985              -0.000018563              -0.001083112               0.999999985              -0.000074317              -0.001076644               0.999999985               0.000374900              -0.001222159               0.999999984               0.000266641              -0.001160517               0.999999984               0.000226870              -0.001130040               0.999999984               0.000213036              -0.001121116               0.999999984               0.000208730              -0.001125642               0.999999984               0.000207125              -0.001138040               0.999999984               0.000204616              -0.001154223               0.999999984               0.000198965              -0.001171674               0.999999984               0.000189090              -0.001188790               0.999999984               0.000174225              -0.001204612               0.999999984               0.000153479              -0.001218204               0.999999984               0.000126051              -0.001229071               0.999999984               0.000091479              -0.001237047               0.999999984               0.000050218              -0.001242347               0.999999984               0.000002802              -0.001245463               0.999999984              -0.000049982              -0.001247033               0.999999984              -0.000106749              -0.001247940               0.999999985               0.000304182              -0.001285346               0.999999984               0.000209954              -0.001251518               0.999999984               0.000172113              -0.001231633               0.999999984               0.000157181              -0.001226223               0.999999984               0.000151679              -0.001231788               0.999999984               0.000149561              -0.001244709               0.999999984               0.000147430              -0.001262184               0.999999984               0.000143117              -0.001282195               0.999999984               0.000135640              -0.001303165               0.999999984               0.000124195              -0.001323858               0.999999984               0.000107802              -0.001343490               0.999999984               0.000085615              -0.001361280               0.999999984               0.000056790              -0.001376821               0.999999984               0.000020914              -0.001389886               0.999999984              -0.000022163              -0.001400730               0.999999984              -0.000072591              -0.001409874               0.999999984              -0.000129857              -0.001418035               0.999999984               0.000230650              -0.001335620               0.999999984               0.000155591              -0.001327067               0.999999984               0.000122998              -0.001319210               0.999999984               0.000108773              -0.001319522               0.999999984               0.000102834              -0.001327939               0.999999984               0.000100233              -0.001342799               0.999999984               0.000098162              -0.001362390               0.999999984               0.000094910              -0.001385076               0.999999984               0.000089391              -0.001409615               0.999999984               0.000080924              -0.001434960               0.999999984               0.000068721              -0.001460257               0.999999984               0.000051886              -0.001484726               0.999999984               0.000029376              -0.001507835               0.999999984               0.000000419              -0.001529106               0.999999984              -0.000036003              -0.001548348               0.999999984              -0.000081003              -0.001565560               0.999999984              -0.000135255              -0.001581236               0.999999984               0.000155002              -0.001372140               0.999999984               0.000102874              -0.001383714               0.999999984               0.000078867              -0.001386810               0.999999984               0.000067696              -0.001393250               0.999999984               0.000062479              -0.001405425               0.999999984               0.000059906              -0.001423070               0.999999984               0.000058248              -0.001445147               0.999999984               0.000055979              -0.001470565               0.999999984               0.000052155              -0.001498332               0.999999984               0.000046366              -0.001527734               0.999999984               0.000038226              -0.001558030               0.999999984               0.000026800              -0.001588479               0.999999984               0.000011253              -0.001618541               0.999999984              -0.000009378              -0.001647609               0.999999984              -0.000036229              -0.001675095               0.999999984              -0.000070827              -0.001700481               0.999999984              -0.000115081              -0.001723714               0.999999984               0.000077886              -0.001394268               0.999999984               0.000051194              -0.001418774               0.999999984               0.000038471              -0.001429519               0.999999984               0.000032296              -0.001440653               0.999999984               0.000029147              -0.001455889               0.999999984               0.000027646              -0.001475788               0.999999984               0.000026719              -0.001499944               0.999999984               0.000025509              -0.001527647               0.999999984               0.000023487              -0.001558049               0.999999984               0.000020524              -0.001590536               0.999999984               0.000016355              -0.001624438               0.999999984               0.000010503              -0.001659177               0.999999984               0.000002442              -0.001694240               0.999999984              -0.000008368              -0.001728874               0.999999984              -0.000022682              -0.001762398               0.999999984              -0.000041640              -0.001794187               0.999999984              -0.000066947              -0.001823508               0.999999984              -0.000000000              -0.001401659               0.999999984              -0.000000000              -0.001430608               0.999999984               0.000000000              -0.001444138               0.999999984              -0.000000000              -0.001457085               0.999999984               0.000000000              -0.001473465               0.999999984              -0.000000000              -0.001494256               0.999999984              -0.000000000              -0.001519260               0.999999984              -0.000000000              -0.001547891               0.999999984              -0.000000000              -0.001579374               0.999999984              -0.000000000              -0.001613072               0.999999984              -0.000000000              -0.001648321               0.999999984              -0.000000000              -0.001684556               0.999999984              -0.000000000              -0.001721329               0.999999984               0.000000000              -0.001757972               0.999999984               0.000000000              -0.001793832               0.999999984              -0.000000000              -0.001828080               0.999999984              -0.000000000              -0.001859737               0.999999984               0.000825698               0.000000000               0.999999984               0.000877052               0.000000000               0.999999984               0.000899088               0.000000000               0.999999984               0.000911342              -0.000000000               0.999999984               0.000921085               0.000000000               0.999999984               0.000930928               0.000000000               0.999999984               0.000941889               0.000000000               0.999999984               0.000954074               0.000000000               0.999999984               0.000967446               0.000000000               0.999999984               0.000981883               0.000000000               0.999999984               0.000997007              -0.000000000               0.999999984               0.001012308               0.000000000               0.999999984               0.001027359               0.000000000               0.999999984               0.001041616               0.000000000               0.999999984               0.001054417               0.000000000               0.999999984               0.001064995               0.000000000               0.999999984               0.001072534               0.000000000               0.999999984               0.000821213               0.000133342               0.999999984               0.000868454               0.000107310               0.999999984               0.000887930               0.000095492               0.999999984               0.000898555               0.000090776               0.999999984               0.000907092               0.000089684               0.999999984               0.000916047               0.000090388               0.999999984               0.000926220               0.000091815               0.999999984               0.000937778               0.000093460               0.999999984               0.000950416               0.000094899               0.999999984               0.000963844               0.000095785               0.999999984               0.000977755               0.000095594               0.999999984               0.000991590               0.000094012               0.999999984               0.001004862               0.000090637               0.999999984               0.001017055               0.000084901               0.999999984               0.001027526               0.000076330               0.999999984               0.001035705               0.000063779               0.999999984               0.001040975               0.000046267               0.999999984               0.000807718               0.000265575               0.999999984               0.000843059               0.000214040               0.999999984               0.000855189               0.000191748               0.999999984               0.000861262               0.000183350               0.999999984               0.000866827               0.000181983               0.999999984               0.000873638               0.000183951               0.999999984               0.000881937               0.000187285               0.999999984               0.000891534               0.000190700               0.999999984               0.000901948               0.000193655               0.999999984               0.000912648               0.000195345               0.999999984               0.000922989               0.000194890               0.999999984               0.000932504               0.000191728               0.999999984               0.000940762               0.000185128               0.999999984               0.000947208               0.000174384               0.999999984               0.000951438               0.000158488               0.999999984               0.000953138               0.000136143               0.999999984               0.000952216               0.000106021               0.999999984               0.000785460               0.000395487               0.999999984               0.000802080               0.000319933               0.999999984               0.000803495               0.000289332               0.999999984               0.000803326               0.000279213               0.999999984               0.000805152               0.000278858               0.999999984               0.000809241               0.000282957               0.999999984               0.000815075               0.000288572               0.999999984               0.000821855               0.000294022               0.999999984               0.000828816               0.000298499               0.999999984               0.000835174               0.000300834               0.999999984               0.000840369               0.000299883               0.999999984               0.000843843               0.000295054               0.999999984               0.000845031               0.000285553               0.999999984               0.000843626               0.000270580               0.999999984               0.000839494               0.000249572               0.999999984               0.000832716               0.000221456               0.999999984               0.000823731               0.000185625               0.999999984               0.000754894               0.000521792               0.999999984               0.000747373               0.000424970               0.999999984               0.000736829               0.000388845               0.999999984               0.000730666               0.000378929               0.999999984               0.000729036               0.000380940               0.999999984               0.000730627               0.000387777               0.999999984               0.000733868               0.000396008               0.999999984               0.000737431               0.000403610               0.999999984               0.000740319               0.000409221               0.999999984               0.000741564               0.000411731               0.999999984               0.000740425               0.000409980               0.999999984               0.000736451               0.000403433               0.999999984               0.000729396               0.000391399               0.999999984               0.000719230               0.000373348               0.999999984               0.000706068               0.000349128               0.999999984               0.000690366               0.000318709               0.999999984               0.000672779               0.000282363               0.999999984               0.000716417               0.000643389               0.999999984               0.000681833               0.000529138               0.999999984               0.000660309               0.000490381               0.999999984               0.000649703               0.000482310               0.999999984               0.000646035               0.000487328               0.999999984               0.000645816               0.000497153               0.999999984               0.000646591               0.000507903               0.999999984               0.000646704               0.000517115               0.999999984               0.000644815               0.000523594               0.999999984               0.000640021               0.000525742               0.999999984               0.000631821               0.000522716               0.999999984               0.000619886               0.000514238               0.999999984               0.000604151               0.000500014               0.999999984               0.000584826               0.000479802               0.999999984               0.000562317               0.000454074               0.999999984               0.000537346               0.000423515               0.999999984               0.000510683               0.000389102               0.999999984               0.000670853               0.000759133               0.999999984               0.000608872               0.000632467               0.999999984               0.000579125               0.000593448               0.999999984               0.000566600               0.000588105               0.999999984               0.000562326               0.000596172               0.999999984               0.000560935               0.000608667               0.999999984               0.000559303               0.000621323               0.999999984               0.000555384               0.000631704               0.999999984               0.000548201               0.000638282               0.999999984               0.000536847               0.000639619               0.999999984               0.000520899               0.000635065               0.999999984               0.000500147               0.000624845               0.999999984               0.000474827               0.000608844               0.999999984               0.000445543               0.000587560               0.999999984               0.000413161               0.000561748               0.999999984               0.000378570               0.000532434               0.999999984               0.000342737               0.000501185               0.999999985               0.000619269               0.000867716               0.999999984               0.000531963               0.000734781               0.999999984               0.000497777               0.000697196               0.999999984               0.000486034               0.000694454               0.999999984               0.000482313               0.000705036               0.999999984               0.000480018               0.000719685               0.999999984               0.000475736               0.000733611               0.999999984               0.000467677               0.000744217               0.999999984               0.000454632               0.000750265               0.999999984               0.000435746               0.000750405               0.999999984               0.000410765               0.000744320               0.999999984               0.000379913               0.000732682               0.999999984               0.000343958               0.000715888               0.999999984               0.000304048               0.000694602               0.999999984               0.000261386               0.000670048               0.999999985               0.000217166               0.000643520               0.999999985               0.000172211               0.000616390               0.999999985               0.000563275               0.000967221               0.999999984               0.000453843               0.000835881               0.999999984               0.000420393               0.000800058               0.999999984               0.000411168               0.000799244               0.999999984               0.000408671               0.000811767               0.999999984               0.000405564               0.000827730               0.999999984               0.000398454               0.000842149               0.999999984               0.000385483               0.000852493               0.999999984               0.000365435               0.000857591               0.999999984               0.000337668               0.000856330               0.999999984               0.000302240               0.000848988               0.999999984               0.000260086               0.000836526               0.999999984               0.000212686               0.000819720               0.999999984               0.000161679               0.000799735               0.999999985               0.000108527               0.000777976               0.999999985               0.000054420               0.000755592               0.999999985               0.000000220               0.000733203               0.999999985               0.000505343               0.001061392               0.999999984               0.000388566               0.000948893               0.999999984               0.000352214               0.000908962               0.999999984               0.000342145               0.000902573               0.999999984               0.000339808               0.000911121               0.999999984               0.000337935               0.000925324               0.999999984               0.000332908               0.000940322               0.999999984               0.000322752               0.000953249               0.999999984               0.000306807               0.000962720               0.999999984               0.000283873               0.000967912               0.999999984               0.000253366               0.000968408               0.999999984               0.000215696               0.000964474               0.999999984               0.000171882               0.000956878               0.999999984               0.000123257               0.000946150               0.999999985               0.000071218               0.000933397               0.999999985               0.000017031               0.000919383               0.999999985              -0.000037950               0.000905135               0.999999985               0.000442140               0.001147071               0.999999984               0.000326165               0.001058206               0.999999984               0.000287184               0.001020625               0.999999984               0.000275316               0.001011252               0.999999984               0.000272287               0.001016912               0.999999984               0.000270871               0.001029863               0.999999984               0.000267361               0.001045287               0.999999984               0.000259788               0.001060424               0.999999984               0.000247084               0.001073863               0.999999984               0.000228454               0.001084560               0.999999984               0.000203032               0.001091827               0.999999984               0.000170358               0.001095448               0.999999984               0.000130877               0.001095851               0.999999984               0.000085447               0.001093530               0.999999984               0.000035201               0.001089032               0.999999985              -0.000018563               0.001083112               0.999999985              -0.000074317               0.001076644               0.999999985               0.000374900               0.001222159               0.999999984               0.000266641               0.001160517               0.999999984               0.000226870               0.001130040               0.999999984               0.000213036               0.001121116               0.999999984               0.000208730               0.001125642               0.999999984               0.000207125               0.001138040               0.999999984               0.000204616               0.001154223               0.999999984               0.000198965               0.001171674               0.999999984               0.000189090               0.001188790               0.999999984               0.000174225               0.001204612               0.999999984               0.000153479               0.001218204               0.999999984               0.000126051               0.001229071               0.999999984               0.000091479               0.001237047               0.999999984               0.000050218               0.001242347               0.999999984               0.000002802               0.001245463               0.999999984              -0.000049982               0.001247033               0.999999984              -0.000106749               0.001247940               0.999999985               0.000304182               0.001285346               0.999999984               0.000209954               0.001251518               0.999999984               0.000172113               0.001231633               0.999999984               0.000157181               0.001226223               0.999999984               0.000151679               0.001231788               0.999999984               0.000149561               0.001244709               0.999999984               0.000147430               0.001262184               0.999999984               0.000143117               0.001282195               0.999999984               0.000135640               0.001303165               0.999999984               0.000124195               0.001323858               0.999999984               0.000107802               0.001343490               0.999999984               0.000085615               0.001361280               0.999999984               0.000056790               0.001376821               0.999999984               0.000020914               0.001389886               0.999999984              -0.000022163               0.001400730               0.999999984              -0.000072591               0.001409874               0.999999984              -0.000129857               0.001418035               0.999999984               0.000230650               0.001335620               0.999999984               0.000155591               0.001327067               0.999999984               0.000122998               0.001319210               0.999999984               0.000108773               0.001319522               0.999999984               0.000102834               0.001327939               0.999999984               0.000100233               0.001342799               0.999999984               0.000098162               0.001362390               0.999999984               0.000094910               0.001385076               0.999999984               0.000089391               0.001409615               0.999999984               0.000080924               0.001434960               0.999999984               0.000068721               0.001460257               0.999999984               0.000051886               0.001484726               0.999999984               0.000029376               0.001507835               0.999999984               0.000000419               0.001529106               0.999999984              -0.000036003               0.001548348               0.999999984              -0.000081003               0.001565560               0.999999984              -0.000135255               0.001581236               0.999999984               0.000155002               0.001372140               0.999999984               0.000102874               0.001383714               0.999999984               0.000078867               0.001386810               0.999999984               0.000067696               0.001393250               0.999999984               0.000062479               0.001405425               0.999999984               0.000059906               0.001423070               0.999999984               0.000058248               0.001445147               0.999999984               0.000055979               0.001470565               0.999999984               0.000052155               0.001498332               0.999999984               0.000046366               0.001527734               0.999999984               0.000038226               0.001558030               0.999999984               0.000026800               0.001588479               0.999999984               0.000011253               0.001618541               0.999999984              -0.000009378               0.001647609               0.999999984              -0.000036229               0.001675095               0.999999984              -0.000070827               0.001700481               0.999999984              -0.000115081               0.001723714               0.999999984               0.000077886               0.001394268               0.999999984               0.000051194               0.001418774               0.999999984               0.000038471               0.001429519               0.999999984               0.000032296               0.001440653               0.999999984               0.000029147               0.001455889               0.999999984               0.000027646               0.001475788               0.999999984               0.000026719               0.001499944               0.999999984               0.000025509               0.001527647               0.999999984               0.000023487               0.001558049               0.999999984               0.000020524               0.001590536               0.999999984               0.000016355               0.001624438               0.999999984               0.000010503               0.001659177               0.999999984               0.000002442               0.001694240               0.999999984              -0.000008368               0.001728874               0.999999984              -0.000022682               0.001762398               0.999999984              -0.000041640               0.001794187               0.999999984              -0.000066947               0.001823508               0.999999984              -0.000000000               0.001401659               0.999999984              -0.000000000               0.001430608               0.999999984              -0.000000000               0.001444138               0.999999984               0.000000000               0.001457085               0.999999984               0.000000000               0.001473465               0.999999984              -0.000000000               0.001494256               0.999999984               0.000000000               0.001519260               0.999999984               0.000000000               0.001547891               0.999999984              -0.000000000               0.001579374               0.999999984               0.000000000               0.001613072               0.999999984              -0.000000000               0.001648321               0.999999984              -0.000000000               0.001684556               0.999999984               0.000000000               0.001721329               0.999999984               0.000000000               0.001757972               0.999999984              -0.000000000               0.001793832               0.999999984               0.000000000               0.001828080               0.999999984               0.000000000               0.001859737               0.999999984 </DataArray>
<DataArray type="Float64"                                    Name="stress"                                                      NumberOfComponents="10" format="ascii">
              0.002251494               0.024291570              -0.000000000              -0.002192131               0.008827819               0.006635689               0.000000000               0.000000000               0.000000000               0.000000000               0.002186122               0.018806143              -0.000000000              -0.001530968               0.006778974               0.005248006               0.000000000               0.000000000               0.000000000               0.000000000               0.002829183               0.014329965               0.000000000              -0.000730300               0.005020041               0.004289741               0.000000000               0.000000000               0.000000000               0.000000000               0.002646552               0.011790333               0.000000000              -0.000481334               0.004090516               0.003609183               0.000000000               0.000000000               0.000000000               0.000000000               0.002231513               0.010182031               0.000000000              -0.000435936               0.003539288               0.003103353               0.000000000               0.000000000               0.000000000               0.000000000               0.001779293               0.009058445               0.000000000              -0.000465070               0.003174475               0.002709405               0.000000000               0.000000000               0.000000000               0.000000000               0.001356218               0.008203301               0.000000000              -0.000516830               0.002906683               0.002389853               0.000000000               0.000000000               0.000000000               0.000000000               0.000987747               0.007511094               0.000000000              -0.000568480               0.002693166               0.002124686               0.000000000               0.000000000               0.000000000               0.000000000               0.000667976               0.006914530               0.000000000              -0.000613824               0.002509428               0.001895605               0.000000000               0.000000000               0.000000000               0.000000000               0.000395553               0.006369718              -0.000000000              -0.000647881               0.002339178               0.001691297               0.000000000               0.000000000               0.000000000               0.000000000               0.000180230               0.005844501              -0.000000000              -0.000662975               0.002169139               0.001506164               0.000000000               0.000000000               0.000000000               0.000000000               0.000019968               0.005317528              -0.000000000              -0.000657201               0.001991559               0.001334357               0.000000000               0.000000000               0.000000000               0.000000000              -0.000091264               0.004768501              -0.000000000              -0.000630285               0.001799580               0.001169294               0.000000000               0.000000000               0.000000000               0.000000000              -0.000147031               0.004179954               0.000000000              -0.000577629               0.001585847               0.001008218               0.000000000               0.000000000               0.000000000               0.000000000              -0.000143245               0.003534387               0.000000000              -0.000495514               0.001343289               0.000847774               0.000000000               0.000000000               0.000000000               0.000000000              -0.000085819               0.002796693              -0.000000000              -0.000381768               0.001059477               0.000677710               0.000000000               0.000000000               0.000000000               0.000000000              -0.000106522               0.002224718               0.000000000              -0.000318035               0.000847577               0.000529542               0.000000000               0.000000000               0.000000000               0.000000000               0.002329615               0.023788859              -0.001635770              -0.002099997               0.008629539               0.006529542               0.000000000               0.000000000               0.000000000               0.000000000               0.002130123               0.018476570              -0.000777568              -0.001510772               0.006662386               0.005151614               0.000000000               0.000000000               0.000000000               0.000000000               0.002634161               0.014194214               0.000069722              -0.000786465               0.004993512               0.004207048               0.000000000               0.000000000               0.000000000               0.000000000               0.002402518               0.011756230               0.000421910              -0.000568583               0.004108232               0.003539649               0.000000000               0.000000000               0.000000000               0.000000000               0.001978227               0.010201788               0.000561593              -0.000533387               0.003578358               0.003044970               0.000000000               0.000000000               0.000000000               0.000000000               0.001534794               0.009106614               0.000603873              -0.000562778               0.003223100               0.002660323               0.000000000               0.000000000               0.000000000               0.000000000               0.001127314               0.008266584               0.000603868              -0.000610579               0.002959027               0.002348448               0.000000000               0.000000000               0.000000000               0.000000000               0.000777690               0.007577069               0.000586762              -0.000655498               0.002744164               0.002088665               0.000000000               0.000000000               0.000000000               0.000000000               0.000488678               0.006982560               0.000562484              -0.000689564               0.002557351               0.001867787               0.000000000               0.000000000               0.000000000               0.000000000               0.000249526               0.006437519               0.000532232              -0.000711116               0.002382857               0.001671741               0.000000000               0.000000000               0.000000000               0.000000000               0.000063919               0.005911951               0.000498707              -0.000715023               0.002208971               0.001493949               0.000000000               0.000000000               0.000000000               0.000000000              -0.000068010               0.005387725               0.000462287              -0.000698968               0.002028880               0.001329912               0.000000000               0.000000000               0.000000000               0.000000000              -0.000151218               0.004847809               0.000417217              -0.000662681               0.001836814               0.001174133               0.000000000               0.000000000               0.000000000               0.000000000              -0.000180655               0.004280633               0.000360082              -0.000602823               0.001627804               0.001024981               0.000000000               0.000000000               0.000000000               0.000000000              -0.000158733               0.003669217               0.000277484              -0.000518176               0.001395785               0.000877610               0.000000000               0.000000000               0.000000000               0.000000000              -0.000093058               0.002992787               0.000157207              -0.000408994               0.001133917               0.000724923               0.000000000               0.000000000               0.000000000               0.000000000              -0.000105451               0.002481578               0.000098711              -0.000349740               0.000943764               0.000594024               0.000000000               0.000000000               0.000000000               0.000000000               0.002507829               0.022342415              -0.003035325              -0.001852363               0.008064851               0.006212488               0.000000000               0.000000000               0.000000000               0.000000000               0.001951316               0.017547157              -0.001435937              -0.001461648               0.006336210               0.004874562               0.000000000               0.000000000               0.000000000               0.000000000               0.002077555               0.013811697               0.000129148              -0.000947377               0.004919645               0.003972269               0.000000000               0.000000000               0.000000000               0.000000000               0.001711054               0.011656825               0.000754511              -0.000815456               0.004157388               0.003341932               0.000000000               0.000000000               0.000000000               0.000000000               0.001265389               0.010246545               0.000988373              -0.000806296               0.003684246               0.002877950               0.000000000               0.000000000               0.000000000               0.000000000               0.000856391               0.009224833               0.001051630              -0.000831956               0.003352232               0.002520276               0.000000000               0.000000000               0.000000000               0.000000000               0.000510332               0.008419862               0.001042199              -0.000861107               0.003093628               0.002232522               0.000000000               0.000000000               0.000000000               0.000000000               0.000230648               0.007743202               0.001009215              -0.000881405               0.002874843               0.001993438               0.000000000               0.000000000               0.000000000               0.000000000               0.000018929               0.007151253               0.000966953              -0.000886806               0.002679329               0.001792523               0.000000000               0.000000000               0.000000000               0.000000000              -0.000132817               0.006604741               0.000912010              -0.000875397               0.002493357               0.001617960               0.000000000               0.000000000               0.000000000               0.000000000              -0.000232402               0.006079147               0.000849672              -0.000847042               0.002308709               0.001461667               0.000000000               0.000000000               0.000000000               0.000000000              -0.000287385               0.005562310               0.000780225              -0.000803056               0.002121770               0.001318714               0.000000000               0.000000000               0.000000000               0.000000000              -0.000297184               0.005046879               0.000697228              -0.000742302               0.001929710               0.001187408               0.000000000               0.000000000               0.000000000               0.000000000              -0.000262990               0.004529644               0.000592633              -0.000664825               0.001731474               0.001066649               0.000000000               0.000000000               0.000000000               0.000000000              -0.000193300               0.004009050               0.000448201              -0.000573618               0.001527542               0.000953925               0.000000000               0.000000000               0.000000000               0.000000000              -0.000100640               0.003486350               0.000250181              -0.000473532               0.001319949               0.000846417               0.000000000               0.000000000               0.000000000               0.000000000              -0.000089762               0.003122808               0.000152189              -0.000424011               0.001182262               0.000758252               0.000000000               0.000000000               0.000000000               0.000000000               0.002664348               0.020133652              -0.004015580              -0.001517575               0.007217008               0.005699433               0.000000000               0.000000000               0.000000000               0.000000000               0.001616434               0.016165875              -0.001896524              -0.001414569               0.005860094               0.004445525               0.000000000               0.000000000               0.000000000               0.000000000               0.001222811               0.013250450               0.000146050              -0.001197749               0.004816022               0.003618273               0.000000000               0.000000000               0.000000000               0.000000000               0.000700693               0.011491029               0.000912430              -0.001173616               0.004221510               0.003047894               0.000000000               0.000000000               0.000000000               0.000000000               0.000257366               0.010275591               0.001178194              -0.001187934               0.003821141               0.002633207               0.000000000               0.000000000               0.000000000               0.000000000              -0.000076780               0.009345275               0.001238625              -0.001196949               0.003514044               0.002317094               0.000000000               0.000000000               0.000000000               0.000000000              -0.000314823               0.008582898               0.001216982              -0.001190918               0.003257910               0.002066992               0.000000000               0.000000000               0.000000000               0.000000000              -0.000474088               0.007926905               0.001170979              -0.001168643               0.003031823               0.001863180               0.000000000               0.000000000               0.000000000               0.000000000              -0.000566910               0.007333493               0.001115650              -0.001129275               0.002820898               0.001691623               0.000000000               0.000000000               0.000000000               0.000000000              -0.000605340               0.006778718               0.001044233              -0.001074340               0.002617663               0.001543323               0.000000000               0.000000000               0.000000000               0.000000000              -0.000600755               0.006250514               0.000963095              -0.001006595               0.002419015               0.001412420               0.000000000               0.000000000               0.000000000               0.000000000              -0.000553271               0.005747899               0.000873074              -0.000925962               0.002224601               0.001298639               0.000000000               0.000000000               0.000000000               0.000000000              -0.000468962               0.005269307               0.000764229              -0.000834522               0.002034592               0.001200070               0.000000000               0.000000000               0.000000000               0.000000000              -0.000359264               0.004816921               0.000632574              -0.000736838               0.001851237               0.001114399               0.000000000               0.000000000               0.000000000               0.000000000              -0.000234601               0.004404463               0.000464572              -0.000638532               0.001680983               0.001042452               0.000000000               0.000000000               0.000000000               0.000000000              -0.000112279               0.004049914               0.000250138              -0.000548343               0.001532739               0.000984396               0.000000000               0.000000000               0.000000000               0.000000000              -0.000076204               0.003839367               0.000143768              -0.000508496               0.001449275               0.000940779               0.000000000               0.000000000               0.000000000               0.000000000               0.002657122               0.017433040              -0.004481440              -0.001182710               0.006205191               0.005022481               0.000000000               0.000000000               0.000000000               0.000000000               0.001098546               0.014513098              -0.002140925              -0.001402180               0.005305044               0.003902864               0.000000000               0.000000000               0.000000000               0.000000000               0.000162970               0.012579362               0.000075471              -0.001511303               0.004696846               0.003185543               0.000000000               0.000000000               0.000000000               0.000000000              -0.000453347               0.011249694               0.000848423              -0.001576213               0.004275265               0.002699052               0.000000000               0.000000000               0.000000000               0.000000000              -0.000826452               0.010229803               0.001093344              -0.001588641               0.003939447               0.002350806               0.000000000               0.000000000               0.000000000               0.000000000              -0.001034577               0.009387223               0.001138950              -0.001561366               0.003649498               0.002088133               0.000000000               0.000000000               0.000000000               0.000000000              -0.001128602               0.008664617               0.001113594              -0.001506299               0.003390277               0.001883977               0.000000000               0.000000000               0.000000000               0.000000000              -0.001146774               0.008018826               0.001065102              -0.001432390               0.003150379               0.001717988               0.000000000               0.000000000               0.000000000               0.000000000              -0.001107102               0.007423802               0.001006817              -0.001343135               0.002922288               0.001579152               0.000000000               0.000000000               0.000000000               0.000000000              -0.001020701               0.006862960               0.000934586              -0.001240630               0.002701174               0.001460544               0.000000000               0.000000000               0.000000000               0.000000000              -0.000899825               0.006338292               0.000852592              -0.001129718               0.002489316               0.001359597               0.000000000               0.000000000               0.000000000               0.000000000              -0.000753013               0.005854658               0.000759837              -0.001014210               0.002289603               0.001275393               0.000000000               0.000000000               0.000000000               0.000000000              -0.000590069               0.005416826               0.000645664              -0.000898377               0.002105049               0.001206672               0.000000000               0.000000000               0.000000000               0.000000000              -0.000420802               0.005032045               0.000512250              -0.000786805               0.001939600               0.001152795               0.000000000               0.000000000               0.000000000               0.000000000              -0.000259611               0.004713732               0.000359466              -0.000686569               0.001800085               0.001113516               0.000000000               0.000000000               0.000000000               0.000000000              -0.000122489               0.004482360               0.000185555              -0.000606227               0.001696180               0.001089954               0.000000000               0.000000000               0.000000000               0.000000000              -0.000073092               0.004370559               0.000101635              -0.000573728               0.001648081               0.001074353               0.000000000               0.000000000               0.000000000               0.000000000               0.002345690               0.014519714              -0.004454349              -0.000935332               0.005151632               0.004216300               0.000000000               0.000000000               0.000000000               0.000000000               0.000395620               0.012761292              -0.002209933              -0.001446802               0.004735988               0.003289186               0.000000000               0.000000000               0.000000000               0.000000000              -0.000969621               0.011843532              -0.000113762              -0.001844045               0.004562486               0.002718441               0.000000000               0.000000000               0.000000000               0.000000000              -0.001572616               0.010914551               0.000566707              -0.001954045               0.004289496               0.002335451               0.000000000               0.000000000               0.000000000               0.000000000              -0.001802244               0.010058675               0.000772414              -0.001933171               0.003997249               0.002064077               0.000000000               0.000000000               0.000000000               0.000000000              -0.001837869               0.009288415               0.000814684              -0.001850248               0.003712857               0.001862608               0.000000000               0.000000000               0.000000000               0.000000000              -0.001771641               0.008591552               0.000802460              -0.001738305               0.003443257               0.001704952               0.000000000               0.000000000               0.000000000               0.000000000              -0.001646476               0.007953009               0.000773671              -0.001611551               0.003188160               0.001576609               0.000000000               0.000000000               0.000000000               0.000000000              -0.001476527               0.007361519               0.000730505              -0.001473884               0.002945110               0.001471226               0.000000000               0.000000000               0.000000000               0.000000000              -0.001280057               0.006804795               0.000669293              -0.001330618               0.002711781               0.001381164               0.000000000               0.000000000               0.000000000               0.000000000              -0.001065306               0.006294250               0.000601012              -0.001186268               0.002493485               0.001307217               0.000000000               0.000000000               0.000000000               0.000000000              -0.000840272               0.005841769               0.000524239              -0.001045321               0.002295677               0.001250356               0.000000000               0.000000000               0.000000000               0.000000000              -0.000620846               0.005451305               0.000430265              -0.000914228               0.002121826               0.001207598               0.000000000               0.000000000               0.000000000               0.000000000              -0.000416957               0.005133644               0.000323874              -0.000798063               0.001977218               0.001179156               0.000000000               0.000000000               0.000000000               0.000000000              -0.000242172               0.004894821               0.000212825              -0.000702666               0.001865813               0.001163147               0.000000000               0.000000000               0.000000000               0.000000000              -0.000108920               0.004740595               0.000103376              -0.000633418               0.001791322               0.001157904               0.000000000               0.000000000               0.000000000               0.000000000              -0.000059850               0.004678370               0.000054487              -0.000607238               0.001761854               0.001154616               0.000000000               0.000000000               0.000000000               0.000000000               0.001669197               0.011635892              -0.004025642              -0.000828539               0.004154770               0.003326231               0.000000000               0.000000000               0.000000000               0.000000000              -0.000454919               0.011053030              -0.002162076              -0.001552221               0.004201713               0.002649492               0.000000000               0.000000000               0.000000000               0.000000000              -0.002055224               0.011069422              -0.000424045              -0.002154381               0.004407898               0.002253516               0.000000000               0.000000000               0.000000000               0.000000000              -0.002517926               0.010466382               0.000122050              -0.002252514               0.004239597               0.001987083               0.000000000               0.000000000               0.000000000               0.000000000              -0.002546099               0.009740402               0.000305712              -0.002172332               0.003970879               0.001798547               0.000000000               0.000000000               0.000000000               0.000000000              -0.002395530               0.009029506               0.000368432              -0.002027007               0.003685474               0.001658467               0.000000000               0.000000000               0.000000000               0.000000000              -0.002168025               0.008357141               0.000390272              -0.001857647               0.003404902               0.001547254               0.000000000               0.000000000               0.000000000               0.000000000              -0.001909367               0.007727425               0.000394699              -0.001681937               0.003136428               0.001454492               0.000000000               0.000000000               0.000000000               0.000000000              -0.001632834               0.007141365               0.000379536              -0.001504980               0.002882091               0.001377111               0.000000000               0.000000000               0.000000000               0.000000000              -0.001345129               0.006604945               0.000345458              -0.001330038               0.002644972               0.001314934               0.000000000               0.000000000               0.000000000               0.000000000              -0.001057821               0.006130668               0.000310145              -0.001163013               0.002431207               0.001268193               0.000000000               0.000000000               0.000000000               0.000000000              -0.000781436               0.005729332               0.000269379              -0.001009203               0.002246159               0.001236957               0.000000000               0.000000000               0.000000000               0.000000000              -0.000536383               0.005401282               0.000214482              -0.000876302               0.002092510               0.001216208               0.000000000               0.000000000               0.000000000               0.000000000              -0.000334482               0.005150698               0.000151860              -0.000769266               0.001973304               0.001204038               0.000000000               0.000000000               0.000000000               0.000000000              -0.000179870               0.004978911               0.000087956              -0.000689813               0.001889558               0.001199745               0.000000000               0.000000000               0.000000000               0.000000000              -0.000073986               0.004883070               0.000035477              -0.000638127               0.001840383               0.001202256               0.000000000               0.000000000               0.000000000               0.000000000              -0.000037285               0.004851458               0.000016233              -0.000620413               0.001823941               0.001203528               0.000000000               0.000000000               0.000000000               0.000000000               0.000665273               0.008968388              -0.003300817              -0.000871572               0.003279956               0.002408384               0.000000000               0.000000000               0.000000000               0.000000000              -0.001397225               0.009485642              -0.002046515              -0.001709662               0.003731736               0.002022074               0.000000000               0.000000000               0.000000000               0.000000000              -0.002987182               0.010260271              -0.000836855              -0.002402721               0.004220963               0.001818242               0.000000000               0.000000000               0.000000000               0.000000000              -0.003208370               0.009903541              -0.000409022              -0.002441075               0.004114839               0.001673764               0.000000000               0.000000000               0.000000000               0.000000000              -0.003005226               0.009291579              -0.000213544              -0.002288401               0.003859963               0.001571561               0.000000000               0.000000000               0.000000000               0.000000000              -0.002674859               0.008634893              -0.000107696              -0.002082429               0.003572412               0.001489983               0.000000000               0.000000000               0.000000000               0.000000000              -0.002312683               0.007987492              -0.000042394              -0.001865688               0.003284367               0.001418679               0.000000000               0.000000000               0.000000000               0.000000000              -0.001944160               0.007376704               0.000004942              -0.001651144               0.003009258               0.001358114               0.000000000               0.000000000               0.000000000               0.000000000              -0.001574441               0.006817904               0.000034444              -0.001442650               0.002753495               0.001310845               0.000000000               0.000000000               0.000000000               0.000000000              -0.001213355               0.006320439               0.000046690              -0.001245060               0.002521812               0.001276752               0.000000000               0.000000000               0.000000000               0.000000000              -0.000878743               0.005899926               0.000058980              -0.001067017               0.002322295               0.001255278               0.000000000               0.000000000               0.000000000               0.000000000              -0.000587687               0.005558938               0.000065498              -0.000915248               0.002158043               0.001242796               0.000000000               0.000000000               0.000000000               0.000000000              -0.000356982               0.005296258               0.000054014              -0.000795899               0.002030701               0.001234802               0.000000000               0.000000000               0.000000000               0.000000000              -0.000190341               0.005112121               0.000032974              -0.000710391               0.001940820               0.001230429               0.000000000               0.000000000               0.000000000               0.000000000              -0.000084270               0.005003826               0.000011738              -0.000657078               0.001886951               0.001229873               0.000000000               0.000000000               0.000000000               0.000000000              -0.000027827               0.004958771              -0.000000815              -0.000630280               0.001863000               0.001232720               0.000000000               0.000000000               0.000000000               0.000000000              -0.000011673               0.004949484              -0.000002700              -0.000623061               0.001857499               0.001234437               0.000000000               0.000000000               0.000000000               0.000000000              -0.000541471               0.006711077              -0.002407388              -0.001041935               0.002584314               0.001542379               0.000000000               0.000000000               0.000000000               0.000000000              -0.002319579               0.008078063              -0.001909854              -0.001879596               0.003319192               0.001439596               0.000000000               0.000000000               0.000000000               0.000000000              -0.003709656               0.009444687              -0.001323064              -0.002571701               0.004005431               0.001433730               0.000000000               0.000000000               0.000000000               0.000000000              -0.003671814               0.009349243              -0.000970138              -0.002545579               0.003964909               0.001419330               0.000000000               0.000000000               0.000000000               0.000000000              -0.003280164               0.008876715              -0.000740041              -0.002339645               0.003738757               0.001399112               0.000000000               0.000000000               0.000000000               0.000000000              -0.002809240               0.008294859              -0.000581856              -0.002090317               0.003461698               0.001371381               0.000000000               0.000000000               0.000000000               0.000000000              -0.002338737               0.007699910              -0.000464804              -0.001839510               0.003179781               0.001340271               0.000000000               0.000000000               0.000000000               0.000000000              -0.001885255               0.007135505              -0.000367474              -0.001598905               0.002911446               0.001312541               0.000000000               0.000000000               0.000000000               0.000000000              -0.001442550               0.006615070              -0.000287043              -0.001367837               0.002660947               0.001293110               0.000000000               0.000000000               0.000000000               0.000000000              -0.001026231               0.006157098              -0.000218820              -0.001154471               0.002437169               0.001282698               0.000000000               0.000000000               0.000000000               0.000000000              -0.000663203               0.005781118              -0.000153251              -0.000971338               0.002250800               0.001279461               0.000000000               0.000000000               0.000000000               0.000000000              -0.000377562               0.005478470              -0.000097139              -0.000826392               0.002101603               0.001275210               0.000000000               0.000000000               0.000000000               0.000000000              -0.000176660               0.005247307              -0.000059851              -0.000722159               0.001989805               0.001267646               0.000000000               0.000000000               0.000000000               0.000000000              -0.000050775               0.005096079              -0.000035977              -0.000656049               0.001917359               0.001261310               0.000000000               0.000000000               0.000000000               0.000000000               0.000013869               0.005020137              -0.000019238              -0.000622315               0.001880801               0.001258486               0.000000000               0.000000000               0.000000000               0.000000000               0.000029446               0.004994683              -0.000007227              -0.000613292               0.001869308               0.001256017               0.000000000               0.000000000               0.000000000               0.000000000               0.000025554               0.004992200              -0.000002160              -0.000614441               0.001868864               0.001254423               0.000000000               0.000000000               0.000000000               0.000000000              -0.001949121               0.004610257              -0.001463105              -0.001307200               0.001972470               0.000665270               0.000000000               0.000000000               0.000000000               0.000000000              -0.003092035               0.006444439              -0.001753122              -0.001965063               0.002803145               0.000838082               0.000000000               0.000000000               0.000000000               0.000000000              -0.004131039               0.008236357              -0.001830875              -0.002578678               0.003604984               0.001026306               0.000000000               0.000000000               0.000000000               0.000000000              -0.003953442               0.008534228              -0.001566910              -0.002549313               0.003694485               0.001145172               0.000000000               0.000000000               0.000000000               0.000000000              -0.003488338               0.008328656              -0.001303791              -0.002349203               0.003559258               0.001210055               0.000000000               0.000000000               0.000000000               0.000000000              -0.002966882               0.007943003              -0.001091899              -0.002105451               0.003349458               0.001244007               0.000000000               0.000000000               0.000000000               0.000000000              -0.002456957               0.007493672              -0.000918650              -0.001858063               0.003117220               0.001259157               0.000000000               0.000000000               0.000000000               0.000000000              -0.001975517               0.007040804              -0.000776216              -0.001620915               0.002887216               0.001266301               0.000000000               0.000000000               0.000000000               0.000000000              -0.001515733               0.006615346              -0.000651612              -0.001395315               0.002670198               0.001274883               0.000000000               0.000000000               0.000000000               0.000000000              -0.001080125               0.006228033              -0.000530758              -0.001183548               0.002470506               0.001286958               0.000000000               0.000000000               0.000000000               0.000000000              -0.000692654               0.005886909              -0.000412367              -0.000995607               0.002294152               0.001298546               0.000000000               0.000000000               0.000000000               0.000000000              -0.000378330               0.005601528              -0.000301456              -0.000842063               0.002147845               0.001305782               0.000000000               0.000000000               0.000000000               0.000000000              -0.000150286               0.005368840              -0.000206375              -0.000727460               0.002032082               0.001304622               0.000000000               0.000000000               0.000000000               0.000000000              -0.000005872               0.005194314              -0.000128620              -0.000651490               0.001948584               0.001297094               0.000000000               0.000000000               0.000000000               0.000000000               0.000066790               0.005079122              -0.000065676              -0.000609843               0.001896305               0.001286462               0.000000000               0.000000000               0.000000000               0.000000000               0.000086327               0.005020515              -0.000021920              -0.000595190               0.001871885               0.001276695               0.000000000               0.000000000               0.000000000               0.000000000               0.000081738               0.005005949              -0.000004545              -0.000595091               0.001866997               0.001271906               0.000000000               0.000000000               0.000000000               0.000000000              -0.003739061               0.002709421              -0.000534833              -0.001740822               0.001483404              -0.000257418               0.000000000               0.000000000               0.000000000               0.000000000              -0.003959757               0.004799667              -0.001524512              -0.002084863               0.002294826               0.000209964               0.000000000               0.000000000               0.000000000               0.000000000              -0.004456497               0.006819103              -0.002233804              -0.002523568               0.003114201               0.000590632               0.000000000               0.000000000               0.000000000               0.000000000              -0.004155122               0.007487731              -0.002131497              -0.002494131               0.003327262               0.000833131               0.000000000               0.000000000               0.000000000               0.000000000              -0.003649834               0.007596941              -0.001876196              -0.002318300               0.003305055               0.000986755               0.000000000               0.000000000               0.000000000               0.000000000              -0.003108928               0.007454308              -0.001630736              -0.002097632               0.003183955               0.001086323               0.000000000               0.000000000               0.000000000               0.000000000              -0.002580037               0.007191200              -0.001416212              -0.001866410               0.003019179               0.001152769               0.000000000               0.000000000               0.000000000               0.000000000              -0.002078147               0.006893255              -0.001232817              -0.001640958               0.002844715               0.001203756               0.000000000               0.000000000               0.000000000               0.000000000              -0.001609314               0.006592700              -0.001069895              -0.001427577               0.002673403               0.001245827               0.000000000               0.000000000               0.000000000               0.000000000              -0.001164328               0.006293609              -0.000914261              -0.001223321               0.002505622               0.001282301               0.000000000               0.000000000               0.000000000               0.000000000              -0.000750343               0.006003270              -0.000756344              -0.001031785               0.002344998               0.001313213               0.000000000               0.000000000               0.000000000               0.000000000              -0.000390276               0.005741584              -0.000597388              -0.000864049               0.002201859               0.001337809               0.000000000               0.000000000               0.000000000               0.000000000              -0.000109725               0.005511392              -0.000444044              -0.000730069               0.002080469               0.001350400               0.000000000               0.000000000               0.000000000               0.000000000               0.000082584               0.005313221              -0.000302820              -0.000633182               0.001982117               0.001348935               0.000000000               0.000000000               0.000000000               0.000000000               0.000187661               0.005154483              -0.000176332              -0.000573936               0.001909456               0.001335520               0.000000000               0.000000000               0.000000000               0.000000000               0.000218426               0.005052799              -0.000074297              -0.000549689               0.001867479               0.001317790               0.000000000               0.000000000               0.000000000               0.000000000               0.000207726               0.005012960              -0.000027906              -0.000548721               0.001853877               0.001305156               0.000000000               0.000000000               0.000000000               0.000000000              -0.005799463               0.001165576               0.000291752              -0.002320493               0.001162015              -0.001158478               0.000000000               0.000000000               0.000000000               0.000000000              -0.004975751               0.003253248              -0.001206482              -0.002272559               0.001841923              -0.000430636               0.000000000               0.000000000               0.000000000               0.000000000              -0.004726494               0.005212584              -0.002413575              -0.002424003               0.002545510               0.000121507               0.000000000               0.000000000               0.000000000               0.000000000              -0.004217278               0.006131387              -0.002514668              -0.002347898               0.002826407               0.000478509               0.000000000               0.000000000               0.000000000               0.000000000              -0.003651483               0.006527275              -0.002325498              -0.002185211               0.002904139               0.000718929               0.000000000               0.000000000               0.000000000               0.000000000              -0.003094659               0.006637870              -0.002085033              -0.001990227               0.002876010               0.000885783               0.000000000               0.000000000               0.000000000               0.000000000              -0.002560705               0.006596091              -0.001852897              -0.001784772               0.002793598               0.001008827               0.000000000               0.000000000               0.000000000               0.000000000              -0.002055377               0.006484322              -0.001645404              -0.001581303               0.002688520               0.001107217               0.000000000               0.000000000               0.000000000               0.000000000              -0.001576739               0.006337323              -0.001462655              -0.001383440               0.002573566               0.001190126               0.000000000               0.000000000               0.000000000               0.000000000              -0.001123339               0.006161501              -0.001289153              -0.001191437               0.002450959               0.001259521               0.000000000               0.000000000               0.000000000               0.000000000              -0.000696919               0.005962482              -0.001111541              -0.001006653               0.002323025               0.001316372               0.000000000               0.000000000               0.000000000               0.000000000              -0.000305645               0.005756455              -0.000924103              -0.000834172               0.002196856               0.001362684               0.000000000               0.000000000               0.000000000               0.000000000               0.000025838               0.005551759              -0.000731668              -0.000684279               0.002078661               0.001394382               0.000000000               0.000000000               0.000000000               0.000000000               0.000278436               0.005359875              -0.000539137              -0.000565569               0.001975130               0.001409561               0.000000000               0.000000000               0.000000000               0.000000000               0.000440356               0.005196452              -0.000346294              -0.000484422               0.001893607               0.001409185               0.000000000               0.000000000               0.000000000               0.000000000               0.000502989               0.005078219              -0.000164200              -0.000446155               0.001841441               0.001395286               0.000000000               0.000000000               0.000000000               0.000000000               0.000494178               0.005024641              -0.000074377              -0.000442762               0.001822451               0.001379689               0.000000000               0.000000000               0.000000000               0.000000000              -0.007984259               0.000055733               0.000891769              -0.003001061               0.001018924              -0.001982137               0.000000000               0.000000000               0.000000000               0.000000000              -0.006084881               0.001886613              -0.000846594              -0.002517653               0.001468078              -0.001049575               0.000000000               0.000000000               0.000000000               0.000000000              -0.004968530               0.003553515              -0.002336679              -0.002307384               0.001953619              -0.000353765               0.000000000               0.000000000               0.000000000               0.000000000              -0.004163041               0.004587668              -0.002624420              -0.002134595               0.002240737               0.000106143               0.000000000               0.000000000               0.000000000               0.000000000              -0.003499784               0.005203906              -0.002537215              -0.001962903               0.002388918               0.000426015               0.000000000               0.000000000               0.000000000               0.000000000              -0.002920839               0.005551706              -0.002341157              -0.001789274               0.002446974               0.000657700               0.000000000               0.000000000               0.000000000               0.000000000              -0.002389939               0.005739778              -0.002122513              -0.001613696               0.002451138               0.000837442               0.000000000               0.000000000               0.000000000               0.000000000              -0.001888852               0.005828197              -0.001916363              -0.001436841               0.002421660               0.000984818               0.000000000               0.000000000               0.000000000               0.000000000              -0.001415470               0.005843252              -0.001732714              -0.001261205               0.002368133               0.001106927               0.000000000               0.000000000               0.000000000               0.000000000              -0.000962612               0.005805133              -0.001558019              -0.001086619               0.002297231               0.001210612               0.000000000               0.000000000               0.000000000               0.000000000              -0.000526264               0.005723805              -0.001380403              -0.000912823               0.002212190               0.001299367               0.000000000               0.000000000               0.000000000               0.000000000              -0.000109147               0.005608647              -0.001191125              -0.000742010               0.002116867               0.001374857               0.000000000               0.000000000               0.000000000               0.000000000               0.000275898               0.005472321              -0.000988671              -0.000580578               0.002017614               0.001437037               0.000000000               0.000000000               0.000000000               0.000000000               0.000606801               0.005329197              -0.000771812              -0.000438599               0.001922581               0.001483982               0.000000000               0.000000000               0.000000000               0.000000000               0.000860883               0.005198310              -0.000531284              -0.000326957               0.001841738               0.001514781               0.000000000               0.000000000               0.000000000               0.000000000               0.001012219               0.005091972              -0.000270149              -0.000256914               0.001782945               0.001526031               0.000000000               0.000000000               0.000000000               0.000000000               0.001054116               0.005043005              -0.000135927              -0.000235082               0.001759345               0.001524264               0.000000000               0.000000000               0.000000000               0.000000000              -0.010075875              -0.000642334               0.001158211              -0.003698159               0.001018601              -0.002679558               0.000000000               0.000000000               0.000000000               0.000000000              -0.007188988               0.000779258              -0.000511727              -0.002793275               0.001190836              -0.001602439               0.000000000               0.000000000               0.000000000               0.000000000              -0.005193214               0.002014159              -0.002004747              -0.002199222               0.001404450              -0.000794772               0.000000000               0.000000000               0.000000000               0.000000000              -0.004033405               0.003042108              -0.002398866              -0.001892787               0.001644953              -0.000247835               0.000000000               0.000000000               0.000000000               0.000000000              -0.003240521               0.003798310              -0.002407008              -0.001689981               0.001829416               0.000139435               0.000000000               0.000000000               0.000000000               0.000000000              -0.002623514               0.004338956              -0.002279953              -0.001526185               0.001955031               0.000428847               0.000000000               0.000000000               0.000000000               0.000000000              -0.002087757               0.004721286              -0.002109604              -0.001373067               0.002031435               0.000658367               0.000000000               0.000000000               0.000000000               0.000000000              -0.001597068               0.004984370              -0.001932730              -0.001221944               0.002068754               0.000846810               0.000000000               0.000000000               0.000000000               0.000000000              -0.001139483               0.005158203              -0.001766509              -0.001072080               0.002076743               0.001004663               0.000000000               0.000000000               0.000000000               0.000000000              -0.000696928               0.005266349              -0.001612092              -0.000919640               0.002061978               0.001142338               0.000000000               0.000000000               0.000000000               0.000000000              -0.000254926               0.005318883              -0.001458089              -0.000760456               0.002026428               0.001265972               0.000000000               0.000000000               0.000000000               0.000000000               0.000186589               0.005326245              -0.001292304              -0.000595809               0.001974000               0.001378191               0.000000000               0.000000000               0.000000000               0.000000000               0.000623664               0.005297581              -0.001110210              -0.000428323               0.001908617               0.001480294               0.000000000               0.000000000               0.000000000               0.000000000               0.001042478               0.005239149              -0.000903340              -0.000263964               0.001834353               0.001570389               0.000000000               0.000000000               0.000000000               0.000000000               0.001423355               0.005160522              -0.000652888              -0.000111307               0.001757259               0.001645952               0.000000000               0.000000000               0.000000000               0.000000000               0.001742771               0.005080683              -0.000350405               0.000018453               0.001687393               0.001705846               0.000000000               0.000000000               0.000000000               0.000000000               0.001918100               0.005056835              -0.000193475               0.000087182               0.001656534               0.001743716               0.000000000               0.000000000               0.000000000               0.000000000              -0.011825091              -0.001012401               0.001053805              -0.004307856               0.001098477              -0.003209379               0.000000000               0.000000000               0.000000000               0.000000000              -0.008142060              -0.000020614              -0.000255939              -0.003050693               0.001010019              -0.002040674               0.000000000               0.000000000               0.000000000               0.000000000              -0.005388686               0.000765288              -0.001460587              -0.002116416               0.000960561              -0.001155855               0.000000000               0.000000000               0.000000000               0.000000000              -0.003890169               0.001712867              -0.001831910              -0.001672919               0.001128587              -0.000544333               0.000000000               0.000000000               0.000000000               0.000000000              -0.002953377               0.002536400              -0.001888487              -0.001424564               0.001320311              -0.000104252               0.000000000               0.000000000               0.000000000               0.000000000              -0.002278965               0.003199580              -0.001828281              -0.001254557               0.001484701               0.000230144               0.000000000               0.000000000               0.000000000               0.000000000              -0.001732390               0.003718416              -0.001721144              -0.001114446               0.001610941               0.000496495               0.000000000               0.000000000               0.000000000               0.000000000              -0.001252705               0.004118504              -0.001595687              -0.000984576               0.001701012               0.000716436               0.000000000               0.000000000               0.000000000               0.000000000              -0.000805709               0.004430368              -0.001473621              -0.000855936               0.001762086               0.000906150               0.000000000               0.000000000               0.000000000               0.000000000              -0.000367788               0.004674203              -0.001363334              -0.000722195               0.001798783               0.001076588               0.000000000               0.000000000               0.000000000               0.000000000               0.000074880               0.004853772              -0.001252632              -0.000578641               0.001810788               0.001232147               0.000000000               0.000000000               0.000000000               0.000000000               0.000534145               0.004982718              -0.001130534              -0.000422535               0.001801734               0.001379199               0.000000000               0.000000000               0.000000000               0.000000000               0.001016613               0.005066039              -0.000992992              -0.000252025               0.001772671               0.001520646               0.000000000               0.000000000               0.000000000               0.000000000               0.001520416               0.005099046              -0.000829010              -0.000067225               0.001722073               0.001654848               0.000000000               0.000000000               0.000000000               0.000000000               0.002044853               0.005085820              -0.000620310               0.000131091               0.001651560               0.001782650               0.000000000               0.000000000               0.000000000               0.000000000               0.002586876               0.005047000              -0.000345452               0.000339200               0.001569250               0.001908450               0.000000000               0.000000000               0.000000000               0.000000000               0.002962743               0.005062265              -0.000202160               0.000478241               0.001527991               0.002006232               0.000000000               0.000000000               0.000000000               0.000000000              -0.012995975              -0.001169154               0.000624609              -0.004727344               0.001186055              -0.003541288               0.000000000               0.000000000               0.000000000               0.000000000              -0.008792467              -0.000497208              -0.000094827              -0.003235022               0.000912598              -0.002322423               0.000000000               0.000000000               0.000000000               0.000000000              -0.005527723              -0.000045194              -0.000768120              -0.002067245               0.000674012              -0.001393233               0.000000000               0.000000000               0.000000000               0.000000000              -0.003786249               0.000811520              -0.000991820              -0.001521282               0.000777595              -0.000743687               0.000000000               0.000000000               0.000000000               0.000000000              -0.002728322               0.001650154              -0.001040269              -0.001229388               0.000959841              -0.000269547               0.000000000               0.000000000               0.000000000               0.000000000              -0.002004299               0.002376691              -0.001021589              -0.001048696               0.001141788               0.000093091               0.000000000               0.000000000               0.000000000               0.000000000              -0.001451010               0.002980870              -0.000971460              -0.000916736               0.001299192               0.000382456               0.000000000               0.000000000               0.000000000               0.000000000              -0.000975789               0.003473204              -0.000908429              -0.000800070               0.001424413               0.000624343               0.000000000               0.000000000               0.000000000               0.000000000              -0.000528664               0.003877009              -0.000847633              -0.000682874               0.001519948               0.000837074               0.000000000               0.000000000               0.000000000               0.000000000              -0.000089130               0.004207912              -0.000792706              -0.000559412               0.001589094               0.001029682               0.000000000               0.000000000               0.000000000               0.000000000               0.000355849               0.004471525              -0.000735214              -0.000425497               0.001632326               0.001206829               0.000000000               0.000000000               0.000000000               0.000000000               0.000829918               0.004685322              -0.000669779              -0.000274446               0.001653240               0.001378795               0.000000000               0.000000000               0.000000000               0.000000000               0.001346553               0.004846256              -0.000594775              -0.000100825               0.001649011               0.001548186               0.000000000               0.000000000               0.000000000               0.000000000               0.001917445               0.004948624              -0.000504262               0.000100463               0.001616037               0.001716500               0.000000000               0.000000000               0.000000000               0.000000000               0.002561090               0.005001801              -0.000385813               0.000335180               0.001555523               0.001890704               0.000000000               0.000000000               0.000000000               0.000000000               0.003299315               0.005011447              -0.000219526               0.000610806               0.001466864               0.002077670               0.000000000               0.000000000               0.000000000               0.000000000               0.003865869               0.005066142              -0.000132717               0.000816425               0.001416556               0.002232980               0.000000000               0.000000000               0.000000000               0.000000000              -0.013409284              -0.001209202              -0.000000000              -0.004877328               0.001222700              -0.003654628               0.000000000               0.000000000               0.000000000               0.000000000              -0.009024176              -0.000653513              -0.000000000              -0.003302375               0.000882948              -0.002419427               0.000000000               0.000000000               0.000000000               0.000000000              -0.005579107              -0.000323300               0.000000000              -0.002051751               0.000576146              -0.001475605               0.000000000               0.000000000               0.000000000               0.000000000              -0.003747867               0.000492783               0.000000000              -0.001467046               0.000653272              -0.000813774               0.000000000               0.000000000               0.000000000               0.000000000              -0.002640598               0.001331184              -0.000000000              -0.001156620               0.000829262              -0.000327358               0.000000000               0.000000000               0.000000000               0.000000000              -0.001901244               0.002077628              -0.000000000              -0.000972668               0.001016758               0.000044090               0.000000000               0.000000000               0.000000000               0.000000000              -0.001346352               0.002711099               0.000000000              -0.000843767               0.001184946               0.000341179               0.000000000               0.000000000               0.000000000               0.000000000              -0.000870923               0.003236357              -0.000000000              -0.000731139               0.001322488               0.000591349               0.000000000               0.000000000               0.000000000               0.000000000              -0.000422033               0.003671312              -0.000000000              -0.000617175               0.001429483               0.000812308               0.000000000               0.000000000               0.000000000               0.000000000               0.000018015               0.004029019               0.000000000              -0.000496871               0.001508617               0.001011746               0.000000000               0.000000000               0.000000000               0.000000000               0.000465476               0.004318408               0.000000000              -0.000365247               0.001561204               0.001195957               0.000000000               0.000000000               0.000000000               0.000000000               0.000946525               0.004559374               0.000000000              -0.000214974               0.001591434               0.001376460               0.000000000               0.000000000               0.000000000               0.000000000               0.001479011               0.004750090               0.000000000              -0.000039132               0.001596392               0.001557259               0.000000000               0.000000000               0.000000000               0.000000000               0.002077784               0.004884712              -0.000000000               0.000168578               0.001572028               0.001740607               0.000000000               0.000000000               0.000000000               0.000000000               0.002767314               0.004967415              -0.000000000               0.000416812               0.001516851               0.001933663               0.000000000               0.000000000               0.000000000               0.000000000               0.003582307               0.004995620               0.000000000               0.000718906               0.001425555               0.002144460               0.000000000               0.000000000               0.000000000               0.000000000               0.004227160               0.005065838               0.000000000               0.000951946               0.001371281               0.002323226               0.000000000               0.000000000               0.000000000               0.000000000               0.000000000               0.000000000               0.000000000               0.000000000               0.000000000               0.000000000               0.000000000               0.000000000               0.000000000               0.000000000               0.000000000               0.000000000               0.000000000               0.000000000               0.000000000               0.000000000               0.000000000               0.000000000               0.000000000               0.000000000               0.000000000               0.000000000               0.000000000               0.000000000               0.000000000               0.000000000               0.000000000               0.000000000               0.000000000               0.000000000               0.000000000               0.000000000               0.000000000               0.000000000               0.000000000               0.000000000               0.000000000               0.000000000               0.000000000               0.000000000               0.000000000               0.000000000               0.000000000               0.000000000               0.000000000               0.000000000               0.000000000               0.000000000               0.000000000               0.000000000               0.000000000               0.000000000               0.000000000               0.000000000               0.000000000               0.000000000               0.000000000               0.000000000               0.000000000               0.000000000               0.000000000               0.000000000               0.000000000               0.000000000               0.000000000               0.000000000               0.000000000               0.000000000               0.000000000               0.000000000               0.000000000               0.000000000               0.000000000               0.000000000               0.000000000               0.000000000               0.000000000               0.000000000               0.000000000               0.000000000               0.000000000               0.000000000               0.000000000               0.000000000               0.000000000               0.000000000               0.000000000               0.000000000               0.000000000               0.000000000               0.000000000               0.000000000               0.000000000               0.000000000               0.000000000               0.000000000               0.000000000               0.000000000               0.000000000               0.000000000               0.000000000               0.000000000               0.000000000               0.000000000               0.000000000               0.000000000               0.000000000               0.000000000               0.000000000               0.000000000               0.000000000               0.000000000               0.000000000               0.000000000               0.000000000               0.000000000               0.000000000               0.000000000               0.000000000               0.000000000               0.000000000               0.000000000               0.000000000               0.000000000               0.000000000               0.000000000               0.000000000               0.000000000               0.000000000               0.000000000               0.000000000               0.000000000               0.000000000               0.000000000               0.000000000               0.000000000               0.000000000               0.000000000               0.000000000               0.000000000               0.000000000               0.000000000               0.000000000               0.000000000               0.000000000               0.000000000               0.000000000               0.000000000               0.000000000               0.000000000               0.000000000               0.000000000               0.000000000               0.000000000               0.000000000               0.000000000               0.000000000               0.000000000               0.000000000               0.000000000               0.000000000               0.000000000               0.000000000               0.000000000               0.000000000               0.000000000               0.000000000               0.000000000               0.000000000               0.000000000               0.002329615               0.023788859               0.001635770              -0.002099997               0.008629539               0.006529542               0.000000000               0.000000000               0.000000000               0.000000000               0.002130123               0.018476570               0.000777568              -0.001510772               0.006662386               0.005151614               0.000000000               0.000000000               0.000000000               0.000000000               0.002634161               0.014194214              -0.000069722              -0.000786465               0.004993512               0.004207048               0.000000000               0.000000000               0.000000000               0.000000000               0.002402518               0.011756230              -0.000421910              -0.000568583               0.004108232               0.003539649               0.000000000               0.000000000               0.000000000               0.000000000               0.001978227               0.010201788              -0.000561593              -0.000533387               0.003578358               0.003044970               0.000000000               0.000000000               0.000000000               0.000000000               0.001534794               0.009106614              -0.000603873              -0.000562778               0.003223100               0.002660323               0.000000000               0.000000000               0.000000000               0.000000000               0.001127314               0.008266584              -0.000603868              -0.000610579               0.002959027               0.002348448               0.000000000               0.000000000               0.000000000               0.000000000               0.000777690               0.007577069              -0.000586762              -0.000655498               0.002744164               0.002088665               0.000000000               0.000000000               0.000000000               0.000000000               0.000488678               0.006982560              -0.000562484              -0.000689564               0.002557351               0.001867787               0.000000000               0.000000000               0.000000000               0.000000000               0.000249526               0.006437519              -0.000532232              -0.000711116               0.002382857               0.001671741               0.000000000               0.000000000               0.000000000               0.000000000               0.000063919               0.005911951              -0.000498707              -0.000715023               0.002208971               0.001493949               0.000000000               0.000000000               0.000000000               0.000000000              -0.000068010               0.005387725              -0.000462287              -0.000698968               0.002028880               0.001329912               0.000000000               0.000000000               0.000000000               0.000000000              -0.000151218               0.004847809              -0.000417217              -0.000662681               0.001836814               0.001174133               0.000000000               0.000000000               0.000000000               0.000000000              -0.000180655               0.004280633              -0.000360082              -0.000602823               0.001627804               0.001024981               0.000000000               0.000000000               0.000000000               0.000000000              -0.000158733               0.003669217              -0.000277484              -0.000518176               0.001395785               0.000877610               0.000000000               0.000000000               0.000000000               0.000000000              -0.000093058               0.002992787              -0.000157207              -0.000408994               0.001133917               0.000724923               0.000000000               0.000000000               0.000000000               0.000000000              -0.000105451               0.002481578              -0.000098711              -0.000349740               0.000943764               0.000594024               0.000000000               0.000000000               0.000000000               0.000000000               0.002507829               0.022342415               0.003035325              -0.001852363               0.008064851               0.006212488               0.000000000               0.000000000               0.000000000               0.000000000               0.001951316               0.017547157               0.001435937              -0.001461648               0.006336210               0.004874562               0.000000000               0.000000000               0.000000000               0.000000000               0.002077555               0.013811697              -0.000129148              -0.000947377               0.004919645               0.003972269               0.000000000               0.000000000               0.000000000               0.000000000               0.001711054               0.011656825              -0.000754511              -0.000815456               0.004157388               0.003341932               0.000000000               0.000000000               0.000000000               0.000000000               0.001265389               0.010246545              -0.000988373              -0.000806296               0.003684246               0.002877950               0.000000000               0.000000000               0.000000000               0.000000000               0.000856391               0.009224833              -0.001051630              -0.000831956               0.003352232               0.002520276               0.000000000               0.000000000               0.000000000               0.000000000               0.000510332               0.008419862              -0.001042199              -0.000861107               0.003093628               0.002232522               0.000000000               0.000000000               0.000000000               0.000000000               0.000230648               0.007743202              -0.001009215              -0.000881405               0.002874843               0.001993438               0.000000000               0.000000000               0.000000000               0.000000000               0.000018929               0.007151253              -0.000966953              -0.000886806               0.002679329               0.001792523               0.000000000               0.000000000               0.000000000               0.000000000              -0.000132817               0.006604741              -0.000912010              -0.000875397               0.002493357               0.001617960               0.000000000               0.000000000               0.000000000               0.000000000              -0.000232402               0.006079147              -0.000849672              -0.000847042               0.002308709               0.001461667               0.000000000               0.000000000               0.000000000               0.000000000              -0.000287385               0.005562310              -0.000780225              -0.000803056               0.002121770               0.001318714               0.000000000               0.000000000               0.000000000               0.000000000              -0.000297184               0.005046879              -0.000697228              -0.000742302               0.001929710               0.001187408               0.000000000               0.000000000               0.000000000               0.000000000              -0.000262990               0.004529644              -0.000592633              -0.000664825               0.001731474               0.001066649               0.000000000               0.000000000               0.000000000               0.000000000              -0.000193300               0.004009050              -0.000448201              -0.000573618               0.001527542               0.000953925               0.000000000               0.000000000               0.000000000               0.000000000              -0.000100640               0.003486350              -0.000250181              -0.000473532               0.001319949               0.000846417               0.000000000               0.000000000               0.000000000               0.000000000              -0.000089762               0.003122808              -0.000152189              -0.000424011               0.001182262               0.000758252               0.000000000               0.000000000               0.000000000               0.000000000               0.002664348               0.020133652               0.004015580              -0.001517575               0.007217008               0.005699433               0.000000000               0.000000000               0.000000000               0.000000000               0.001616434               0.016165875               0.001896524              -0.001414569               0.005860094               0.004445525               0.000000000               0.000000000               0.000000000               0.000000000               0.001222811               0.013250450              -0.000146050              -0.001197749               0.004816022               0.003618273               0.000000000               0.000000000               0.000000000               0.000000000               0.000700693               0.011491029              -0.000912430              -0.001173616               0.004221510               0.003047894               0.000000000               0.000000000               0.000000000               0.000000000               0.000257366               0.010275591              -0.001178194              -0.001187934               0.003821141               0.002633207               0.000000000               0.000000000               0.000000000               0.000000000              -0.000076780               0.009345275              -0.001238625              -0.001196949               0.003514044               0.002317094               0.000000000               0.000000000               0.000000000               0.000000000              -0.000314823               0.008582898              -0.001216982              -0.001190918               0.003257910               0.002066992               0.000000000               0.000000000               0.000000000               0.000000000              -0.000474088               0.007926905              -0.001170979              -0.001168643               0.003031823               0.001863180               0.000000000               0.000000000               0.000000000               0.000000000              -0.000566910               0.007333493              -0.001115650              -0.001129275               0.002820898               0.001691623               0.000000000               0.000000000               0.000000000               0.000000000              -0.000605340               0.006778718              -0.001044233              -0.001074340               0.002617663               0.001543323               0.000000000               0.000000000               0.000000000               0.000000000              -0.000600755               0.006250514              -0.000963095              -0.001006595               0.002419015               0.001412420               0.000000000               0.000000000               0.000000000               0.000000000              -0.000553271               0.005747899              -0.000873074              -0.000925962               0.002224601               0.001298639               0.000000000               0.000000000               0.000000000               0.000000000              -0.000468962               0.005269307              -0.000764229              -0.000834522               0.002034592               0.001200070               0.000000000               0.000000000               0.000000000               0.000000000              -0.000359264               0.004816921              -0.000632574              -0.000736838               0.001851237               0.001114399               0.000000000               0.000000000               0.000000000               0.000000000              -0.000234601               0.004404463              -0.000464572              -0.000638532               0.001680983               0.001042452               0.000000000               0.000000000               0.000000000               0.000000000              -0.000112279               0.004049914              -0.000250138              -0.000548343               0.001532739               0.000984396               0.000000000               0.000000000               0.000000000               0.000000000              -0.000076204               0.003839367              -0.000143768              -0.000508496               0.001449275               0.000940779               0.000000000               0.000000000               0.000000000               0.000000000               0.002657122               0.017433040               0.004481440              -0.001182710               0.006205191               0.005022481               0.000000000               0.000000000               0.000000000               0.000000000               0.001098546               0.014513098               0.002140925              -0.001402180               0.005305044               0.003902864               0.000000000               0.000000000               0.000000000               0.000000000               0.000162970               0.012579362              -0.000075471              -0.001511303               0.004696846               0.003185543               0.000000000               0.000000000               0.000000000               0.000000000              -0.000453347               0.011249694              -0.000848423              -0.001576213               0.004275265               0.002699052               0.000000000               0.000000000               0.000000000               0.000000000              -0.000826452               0.010229803              -0.001093344              -0.001588641               0.003939447               0.002350806               0.000000000               0.000000000               0.000000000               0.000000000              -0.001034577               0.009387223              -0.001138950              -0.001561366               0.003649498               0.002088133               0.000000000               0.000000000               0.000000000               0.000000000              -0.001128602               0.008664617              -0.001113594              -0.001506299               0.003390277               0.001883977               0.000000000               0.000000000               0.000000000               0.000000000              -0.001146774               0.008018826              -0.001065102              -0.001432390               0.003150379               0.001717988               0.000000000               0.000000000               0.000000000               0.000000000              -0.001107102               0.007423802              -0.001006817              -0.001343135               0.002922288               0.001579152               0.000000000               0.000000000               0.000000000               0.000000000              -0.001020701               0.006862960              -0.000934586              -0.001240630               0.002701174               0.001460544               0.000000000               0.000000000               0.000000000               0.000000000              -0.000899825               0.006338292              -0.000852592              -0.001129718               0.002489316               0.001359597               0.000000000               0.000000000               0.000000000               0.000000000              -0.000753013               0.005854658              -0.000759837              -0.001014210               0.002289603               0.001275393               0.000000000               0.000000000               0.000000000               0.000000000              -0.000590069               0.005416826              -0.000645664              -0.000898377               0.002105049               0.001206672               0.000000000               0.000000000               0.000000000               0.000000000              -0.000420802               0.005032045              -0.000512250              -0.000786805               0.001939600               0.001152795               0.000000000               0.000000000               0.000000000               0.000000000              -0.000259611               0.004713732              -0.000359466              -0.000686569               0.001800085               0.001113516               0.000000000               0.000000000               0.000000000               0.000000000              -0.000122489               0.004482360              -0.000185555              -0.000606227               0.001696180               0.001089954               0.000000000               0.000000000               0.000000000               0.000000000              -0.000073092               0.004370559              -0.000101635              -0.000573728               0.001648081               0.001074353               0.000000000               0.000000000               0.000000000               0.000000000               0.002345690               0.014519714               0.004454349              -0.000935332               0.005151632               0.004216300               0.000000000               0.000000000               0.000000000               0.000000000               0.000395620               0.012761292               0.002209933              -0.001446802               0.004735988               0.003289186               0.000000000               0.000000000               0.000000000               0.000000000              -0.000969621               0.011843532               0.000113762              -0.001844045               0.004562486               0.002718441               0.000000000               0.000000000               0.000000000               0.000000000              -0.001572616               0.010914551              -0.000566707              -0.001954045               0.004289496               0.002335451               0.000000000               0.000000000               0.000000000               0.000000000              -0.001802244               0.010058675              -0.000772414              -0.001933171               0.003997249               0.002064077               0.000000000               0.000000000               0.000000000               0.000000000              -0.001837869               0.009288415              -0.000814684              -0.001850248               0.003712857               0.001862608               0.000000000               0.000000000               0.000000000               0.000000000              -0.001771641               0.008591552              -0.000802460              -0.001738305               0.003443257               0.001704952               0.000000000               0.000000000               0.000000000               0.000000000              -0.001646476               0.007953009              -0.000773671              -0.001611551               0.003188160               0.001576609               0.000000000               0.000000000               0.000000000               0.000000000              -0.001476527               0.007361519              -0.000730505              -0.001473884               0.002945110               0.001471226               0.000000000               0.000000000               0.000000000               0.000000000              -0.001280057               0.006804795              -0.000669293              -0.001330618               0.002711781               0.001381164               0.000000000               0.000000000               0.000000000               0.000000000              -0.001065306               0.006294250              -0.000601012              -0.001186268               0.002493485               0.001307217               0.000000000               0.000000000               0.000000000               0.000000000              -0.000840272               0.005841769              -0.000524239              -0.001045321               0.002295677               0.001250356               0.000000000               0.000000000               0.000000000               0.000000000              -0.000620846               0.005451305              -0.000430265              -0.000914228               0.002121826               0.001207598               0.000000000               0.000000000               0.000000000               0.000000000              -0.000416957               0.005133644              -0.000323874              -0.000798063               0.001977218               0.001179156               0.000000000               0.000000000               0.000000000               0.000000000              -0.000242172               0.004894821              -0.000212825              -0.000702666               0.001865813               0.001163147               0.000000000               0.000000000               0.000000000               0.000000000              -0.000108920               0.004740595              -0.000103376              -0.000633418               0.001791322               0.001157904               0.000000000               0.000000000               0.000000000               0.000000000              -0.000059850               0.004678370              -0.000054487              -0.000607238               0.001761854               0.001154616               0.000000000               0.000000000               0.000000000               0.000000000               0.001669197               0.011635892               0.004025642              -0.000828539               0.004154770               0.003326231               0.000000000               0.000000000               0.000000000               0.000000000              -0.000454919               0.011053030               0.002162076              -0.001552221               0.004201713               0.002649492               0.000000000               0.000000000               0.000000000               0.000000000              -0.002055224               0.011069422               0.000424045              -0.002154381               0.004407898               0.002253516               0.000000000               0.000000000               0.000000000               0.000000000              -0.002517926               0.010466382              -0.000122050              -0.002252514               0.004239597               0.001987083               0.000000000               0.000000000               0.000000000               0.000000000              -0.002546099               0.009740402              -0.000305712              -0.002172332               0.003970879               0.001798547               0.000000000               0.000000000               0.000000000               0.000000000              -0.002395530               0.009029506              -0.000368432              -0.002027007               0.003685474               0.001658467               0.000000000               0.000000000               0.000000000               0.000000000              -0.002168025               0.008357141              -0.000390272              -0.001857647               0.003404902               0.001547254               0.000000000               0.000000000               0.000000000               0.000000000              -0.001909367               0.007727425              -0.000394699              -0.001681937               0.003136428               0.001454492               0.000000000               0.000000000               0.000000000               0.000000000              -0.001632834               0.007141365              -0.000379536              -0.001504980               0.002882091               0.001377111               0.000000000               0.000000000               0.000000000               0.000000000              -0.001345129               0.006604945              -0.000345458              -0.001330038               0.002644972               0.001314934               0.000000000               0.000000000               0.000000000               0.000000000              -0.001057821               0.006130668              -0.000310145              -0.001163013               0.002431207               0.001268193               0.000000000               0.000000000               0.000000000               0.000000000              -0.000781436               0.005729332              -0.000269379              -0.001009203               0.002246159               0.001236957               0.000000000               0.000000000               0.000000000               0.000000000              -0.000536383               0.005401282              -0.000214482              -0.000876302               0.002092510               0.001216208               0.000000000               0.000000000               0.000000000               0.000000000              -0.000334482               0.005150698              -0.000151860              -0.000769266               0.001973304               0.001204038               0.000000000               0.000000000               0.000000000               0.000000000              -0.000179870               0.004978911              -0.000087956              -0.000689813               0.001889558               0.001199745               0.000000000               0.000000000               0.000000000               0.000000000              -0.000073986               0.004883070              -0.000035477              -0.000638127               0.001840383               0.001202256               0.000000000               0.000000000               0.000000000               0.000000000              -0.000037285               0.004851458              -0.000016233              -0.000620413               0.001823941               0.001203528               0.000000000               0.000000000               0.000000000               0.000000000               0.000665273               0.008968388               0.003300817              -0.000871572               0.003279956               0.002408384               0.000000000               0.000000000               0.000000000               0.000000000              -0.001397225               0.009485642               0.002046515              -0.001709662               0.003731736               0.002022074               0.000000000               0.000000000               0.000000000               0.000000000              -0.002987182               0.010260271               0.000836855              -0.002402721               0.004220963               0.001818242               0.000000000               0.000000000               0.000000000               0.000000000              -0.003208370               0.009903541               0.000409022              -0.002441075               0.004114839               0.001673764               0.000000000               0.000000000               0.000000000               0.000000000              -0.003005226               0.009291579               0.000213544              -0.002288401               0.003859963               0.001571561               0.000000000               0.000000000               0.000000000               0.000000000              -0.002674859               0.008634893               0.000107696              -0.002082429               0.003572412               0.001489983               0.000000000               0.000000000               0.000000000               0.000000000              -0.002312683               0.007987492               0.000042394              -0.001865688               0.003284367               0.001418679               0.000000000               0.000000000               0.000000000               0.000000000              -0.001944160               0.007376704              -0.000004942              -0.001651144               0.003009258               0.001358114               0.000000000               0.000000000               0.000000000               0.000000000              -0.001574441               0.006817904              -0.000034444              -0.001442650               0.002753495               0.001310845               0.000000000               0.000000000               0.000000000               0.000000000              -0.001213355               0.006320439              -0.000046690              -0.001245060               0.002521812               0.001276752               0.000000000               0.000000000               0.000000000               0.000000000              -0.000878743               0.005899926              -0.000058980              -0.001067017               0.002322295               0.001255278               0.000000000               0.000000000               0.000000000               0.000000000              -0.000587687               0.005558938              -0.000065498              -0.000915248               0.002158043               0.001242796               0.000000000               0.000000000               0.000000000               0.000000000              -0.000356982               0.005296258              -0.000054014              -0.000795899               0.002030701               0.001234802               0.000000000               0.000000000               0.000000000               0.000000000              -0.000190341               0.005112121              -0.000032974              -0.000710391               0.001940820               0.001230429               0.000000000               0.000000000               0.000000000               0.000000000              -0.000084270               0.005003826              -0.000011738              -0.000657078               0.001886951               0.001229873               0.000000000               0.000000000               0.000000000               0.000000000              -0.000027827               0.004958771               0.000000815              -0.000630280               0.001863000               0.001232720               0.000000000               0.000000000               0.000000000               0.000000000              -0.000011673               0.004949484               0.000002700              -0.000623061               0.001857499               0.001234437               0.000000000               0.000000000               0.000000000               0.000000000              -0.000541471               0.006711077               0.002407388              -0.001041935               0.002584314               0.001542379               0.000000000               0.000000000               0.000000000               0.000000000              -0.002319579               0.008078063               0.001909854              -0.001879596               0.003319192               0.001439596               0.000000000               0.000000000               0.000000000               0.000000000              -0.003709656               0.009444687               0.001323064              -0.002571701               0.004005431               0.001433730               0.000000000               0.000000000               0.000000000               0.000000000              -0.003671814               0.009349243               0.000970138              -0.002545579               0.003964909               0.001419330               0.000000000               0.000000000               0.000000000               0.000000000              -0.003280164               0.008876715               0.000740041              -0.002339645               0.003738757               0.001399112               0.000000000               0.000000000               0.000000000               0.000000000              -0.002809240               0.008294859               0.000581856              -0.002090317               0.003461698               0.001371381               0.000000000               0.000000000               0.000000000               0.000000000              -0.002338737               0.007699910               0.000464804              -0.001839510               0.003179781               0.001340271               0.000000000               0.000000000               0.000000000               0.000000000              -0.001885255               0.007135505               0.000367474              -0.001598905               0.002911446               0.001312541               0.000000000               0.000000000               0.000000000               0.000000000              -0.001442550               0.006615070               0.000287043              -0.001367837               0.002660947               0.001293110               0.000000000               0.000000000               0.000000000               0.000000000              -0.001026231               0.006157098               0.000218820              -0.001154471               0.002437169               0.001282698               0.000000000               0.000000000               0.000000000               0.000000000              -0.000663203               0.005781118               0.000153251              -0.000971338               0.002250800               0.001279461               0.000000000               0.000000000               0.000000000               0.000000000              -0.000377562               0.005478470               0.000097139              -0.000826392               0.002101603               0.001275210               0.000000000               0.000000000               0.000000000               0.000000000              -0.000176660               0.005247307               0.000059851              -0.000722159               0.001989805               0.001267646               0.000000000               0.000000000               0.000000000               0.000000000              -0.000050775               0.005096079               0.000035977              -0.000656049               0.001917359               0.001261310               0.000000000               0.000000000               0.000000000               0.000000000               0.000013869               0.005020137               0.000019238              -0.000622315               0.001880801               0.001258486               0.000000000               0.000000000               0.000000000               0.000000000               0.000029446               0.004994683               0.000007227              -0.000613292               0.001869308               0.001256017               0.000000000               0.000000000               0.000000000               0.000000000               0.000025554               0.004992200               0.000002160              -0.000614441               0.001868864               0.001254423               0.000000000               0.000000000               0.000000000               0.000000000              -0.001949121               0.004610257               0.001463105              -0.001307200               0.001972470               0.000665270               0.000000000               0.000000000               0.000000000               0.000000000              -0.003092035               0.006444439               0.001753122              -0.001965063               0.002803145               0.000838082               0.000000000               0.000000000               0.000000000               0.000000000              -0.004131039               0.008236357               0.001830875              -0.002578678               0.003604984               0.001026306               0.000000000               0.000000000               0.000000000               0.000000000              -0.003953442               0.008534228               0.001566910              -0.002549313               0.003694485               0.001145172               0.000000000               0.000000000               0.000000000               0.000000000              -0.003488338               0.008328656               0.001303791              -0.002349203               0.003559258               0.001210055               0.000000000               0.000000000               0.000000000               0.000000000              -0.002966882               0.007943003               0.001091899              -0.002105451               0.003349458               0.001244007               0.000000000               0.000000000               0.000000000               0.000000000              -0.002456957               0.007493672               0.000918650              -0.001858063               0.003117220               0.001259157               0.000000000               0.000000000               0.000000000               0.000000000              -0.001975517               0.007040804               0.000776216              -0.001620915               0.002887216               0.001266301               0.000000000               0.000000000               0.000000000               0.000000000              -0.001515733               0.006615346               0.000651612              -0.001395315               0.002670198               0.001274883               0.000000000               0.000000000               0.000000000               0.000000000              -0.001080125               0.006228033               0.000530758              -0.001183548               0.002470506               0.001286958               0.000000000               0.000000000               0.000000000               0.000000000              -0.000692654               0.005886909               0.000412367              -0.000995607               0.002294152               0.001298546               0.000000000               0.000000000               0.000000000               0.000000000              -0.000378330               0.005601528               0.000301456              -0.000842063               0.002147845               0.001305782               0.000000000               0.000000000               0.000000000               0.000000000              -0.000150286               0.005368840               0.000206375              -0.000727460               0.002032082               0.001304622               0.000000000               0.000000000               0.000000000               0.000000000              -0.000005872               0.005194314               0.000128620              -0.000651490               0.001948584               0.001297094               0.000000000               0.000000000               0.000000000               0.000000000               0.000066790               0.005079122               0.000065676              -0.000609843               0.001896305               0.001286462               0.000000000               0.000000000               0.000000000               0.000000000               0.000086327               0.005020515               0.000021920              -0.000595190               0.001871885               0.001276695               0.000000000               0.000000000               0.000000000               0.000000000               0.000081738               0.005005949               0.000004545              -0.000595091               0.001866997               0.001271906               0.000000000               0.000000000               0.000000000               0.000000000              -0.003739061               0.002709421               0.000534833              -0.001740822               0.001483404              -0.000257418               0.000000000               0.000000000               0.000000000               0.000000000              -0.003959757               0.004799667               0.001524512              -0.002084863               0.002294826               0.000209964               0.000000000               0.000000000               0.000000000               0.000000000              -0.004456497               0.006819103               0.002233804              -0.002523568               0.003114201               0.000590632               0.000000000               0.000000000               0.000000000               0.000000000              -0.004155122               0.007487731               0.002131497              -0.002494131               0.003327262               0.000833131               0.000000000               0.000000000               0.000000000               0.000000000              -0.003649834               0.007596941               0.001876196              -0.002318300               0.003305055               0.000986755               0.000000000               0.000000000               0.000000000               0.000000000              -0.003108928               0.007454308               0.001630736              -0.002097632               0.003183955               0.001086323               0.000000000               0.000000000               0.000000000               0.000000000              -0.002580037               0.007191200               0.001416212              -0.001866410               0.003019179               0.001152769               0.000000000               0.000000000               0.000000000               0.000000000              -0.002078147               0.006893255               0.001232817              -0.001640958               0.002844715               0.001203756               0.000000000               0.000000000               0.000000000               0.000000000              -0.001609314               0.006592700               0.001069895              -0.001427577               0.002673403               0.001245827               0.000000000               0.000000000               0.000000000               0.000000000              -0.001164328               0.006293609               0.000914261              -0.001223321               0.002505622               0.001282301               0.000000000               0.000000000               0.000000000               0.000000000              -0.000750343               0.006003270               0.000756344              -0.001031785               0.002344998               0.001313213               0.000000000               0.000000000               0.000000000               0.000000000              -0.000390276               0.005741584               0.000597388              -0.000864049               0.002201859               0.001337809               0.000000000               0.000000000               0.000000000               0.000000000              -0.000109725               0.005511392               0.000444044              -0.000730069               0.002080469               0.001350400               0.000000000               0.000000000               0.000000000               0.000000000               0.000082584               0.005313221               0.000302820              -0.000633182               0.001982117               0.001348935               0.000000000               0.000000000               0.000000000               0.000000000               0.000187661               0.005154483               0.000176332              -0.000573936               0.001909456               0.001335520               0.000000000               0.000000000               0.000000000               0.000000000               0.000218426               0.005052799               0.000074297              -0.000549689               0.001867479               0.001317790               0.000000000               0.000000000               0.000000000               0.000000000               0.000207726               0.005012960               0.000027906              -0.000548721               0.001853877               0.001305156               0.000000000               0.000000000               0.000000000               0.000000000              -0.005799463               0.001165576              -0.000291752              -0.002320493               0.001162015              -0.001158478               0.000000000               0.000000000               0.000000000               0.000000000              -0.004975751               0.003253248               0.001206482              -0.002272559               0.001841923              -0.000430636               0.000000000               0.000000000               0.000000000               0.000000000              -0.004726494               0.005212584               0.002413575              -0.002424003               0.002545510               0.000121507               0.000000000               0.000000000               0.000000000               0.000000000              -0.004217278               0.006131387               0.002514668              -0.002347898               0.002826407               0.000478509               0.000000000               0.000000000               0.000000000               0.000000000              -0.003651483               0.006527275               0.002325498              -0.002185211               0.002904139               0.000718929               0.000000000               0.000000000               0.000000000               0.000000000              -0.003094659               0.006637870               0.002085033              -0.001990227               0.002876010               0.000885783               0.000000000               0.000000000               0.000000000               0.000000000              -0.002560705               0.006596091               0.001852897              -0.001784772               0.002793598               0.001008827               0.000000000               0.000000000               0.000000000               0.000000000              -0.002055377               0.006484322               0.001645404              -0.001581303               0.002688520               0.001107217               0.000000000               0.000000000               0.000000000               0.000000000              -0.001576739               0.006337323               0.001462655              -0.001383440               0.002573566               0.001190126               0.000000000               0.000000000               0.000000000               0.000000000              -0.001123339               0.006161501               0.001289153              -0.001191437               0.002450959               0.001259521               0.000000000               0.000000000               0.000000000               0.000000000              -0.000696919               0.005962482               0.001111541              -0.001006653               0.002323025               0.001316372               0.000000000               0.000000000               0.000000000               0.000000000              -0.000305645               0.005756455               0.000924103              -0.000834172               0.002196856               0.001362684               0.000000000               0.000000000               0.000000000               0.000000000               0.000025838               0.005551759               0.000731668              -0.000684279               0.002078661               0.001394382               0.000000000               0.000000000               0.000000000               0.000000000               0.000278436               0.005359875               0.000539137              -0.000565569               0.001975130               0.001409561               0.000000000               0.000000000               0.000000000               0.000000000               0.000440356               0.005196452               0.000346294              -0.000484422               0.001893607               0.001409185               0.000000000               0.000000000               0.000000000               0.000000000               0.000502989               0.005078219               0.000164200              -0.000446155               0.001841441               0.001395286               0.000000000               0.000000000               0.000000000               0.000000000               0.000494178               0.005024641               0.000074377              -0.000442762               0.001822451               0.001379689               0.000000000               0.000000000               0.000000000               0.000000000              -0.007984259               0.000055733              -0.000891769              -0.003001061               0.001018924              -0.001982137               0.000000000               0.000000000               0.000000000               0.000000000              -0.006084881               0.001886613               0.000846594              -0.002517653               0.001468078              -0.001049575               0.000000000               0.000000000               0.000000000               0.000000000              -0.004968530               0.003553515               0.002336679              -0.002307384               0.001953619              -0.000353765               0.000000000               0.000000000               0.000000000               0.000000000              -0.004163041               0.004587668               0.002624420              -0.002134595               0.002240737               0.000106143               0.000000000               0.000000000               0.000000000               0.000000000              -0.003499784               0.005203906               0.002537215              -0.001962903               0.002388918               0.000426015               0.000000000               0.000000000               0.000000000               0.000000000              -0.002920839               0.005551706               0.002341157              -0.001789274               0.002446974               0.000657700               0.000000000               0.000000000               0.000000000               0.000000000              -0.002389939               0.005739778               0.002122513              -0.001613696               0.002451138               0.000837442               0.000000000               0.000000000               0.000000000               0.000000000              -0.001888852               0.005828197               0.001916363              -0.001436841               0.002421660               0.000984818               0.000000000               0.000000000               0.000000000               0.000000000              -0.001415470               0.005843252               0.001732714              -0.001261205               0.002368133               0.001106927               0.000000000               0.000000000               0.000000000               0.000000000              -0.000962612               0.005805133               0.001558019              -0.001086619               0.002297231               0.001210612               0.000000000               0.000000000               0.000000000               0.000000000              -0.000526264               0.005723805               0.001380403              -0.000912823               0.002212190               0.001299367               0.000000000               0.000000000               0.000000000               0.000000000              -0.000109147               0.005608647               0.001191125              -0.000742010               0.002116867               0.001374857               0.000000000               0.000000000               0.000000000               0.000000000               0.000275898               0.005472321               0.000988671              -0.000580578               0.002017614               0.001437037               0.000000000               0.000000000               0.000000000               0.000000000               0.000606801               0.005329197               0.000771812              -0.000438599               0.001922581               0.001483982               0.000000000               0.000000000               0.000000000               0.000000000               0.000860883               0.005198310               0.000531284              -0.000326957               0.001841738               0.001514781               0.000000000               0.000000000               0.000000000               0.000000000               0.001012219               0.005091972               0.000270149              -0.000256914               0.001782945               0.001526031               0.000000000               0.000000000               0.000000000               0.000000000               0.001054116               0.005043005               0.000135927              -0.000235082               0.001759345               0.001524264               0.000000000               0.000000000               0.000000000               0.000000000              -0.010075875              -0.000642334              -0.001158211              -0.003698159               0.001018601              -0.002679558               0.000000000               0.000000000               0.000000000               0.000000000              -0.007188988               0.000779258               0.000511727              -0.002793275               0.001190836              -0.001602439               0.000000000               0.000000000               0.000000000               0.000000000              -0.005193214               0.002014159               0.002004747              -0.002199222               0.001404450              -0.000794772               0.000000000               0.000000000               0.000000000               0.000000000              -0.004033405               0.003042108               0.002398866              -0.001892787               0.001644953              -0.000247835               0.000000000               0.000000000               0.000000000               0.000000000              -0.003240521               0.003798310               0.002407008              -0.001689981               0.001829416               0.000139435               0.000000000               0.000000000               0.000000000               0.000000000              -0.002623514               0.004338956               0.002279953              -0.001526185               0.001955031               0.000428847               0.000000000               0.000000000               0.000000000               0.000000000              -0.002087757               0.004721286               0.002109604              -0.001373067               0.002031435               0.000658367               0.000000000               0.000000000               0.000000000               0.000000000              -0.001597068               0.004984370               0.001932730              -0.001221944               0.002068754               0.000846810               0.000000000               0.000000000               0.000000000               0.000000000              -0.001139483               0.005158203               0.001766509              -0.001072080               0.002076743               0.001004663               0.000000000               0.000000000               0.000000000               0.000000000              -0.000696928               0.005266349               0.001612092              -0.000919640               0.002061978               0.001142338               0.000000000               0.000000000               0.000000000               0.000000000              -0.000254926               0.005318883               0.001458089              -0.000760456               0.002026428               0.001265972               0.000000000               0.000000000               0.000000000               0.000000000               0.000186589               0.005326245               0.001292304              -0.000595809               0.001974000               0.001378191               0.000000000               0.000000000               0.000000000               0.000000000               0.000623664               0.005297581               0.001110210              -0.000428323               0.001908617               0.001480294               0.000000000               0.000000000               0.000000000               0.000000000               0.001042478               0.005239149               0.000903340              -0.000263964               0.001834353               0.001570389               0.000000000               0.000000000               0.000000000               0.000000000               0.001423355               0.005160522               0.000652888              -0.000111307               0.001757259               0.001645952               0.000000000               0.000000000               0.000000000               0.000000000               0.001742771               0.005080683               0.000350405               0.000018453               0.001687393               0.001705846               0.000000000               0.000000000               0.000000000               0.000000000               0.001918100               0.005056835               0.000193475               0.000087182               0.001656534               0.001743716               0.000000000               0.000000000               0.000000000               0.000000000              -0.011825091              -0.001012401              -0.001053805              -0.004307856               0.001098477              -0.003209379               0.000000000               0.000000000               0.000000000               0.000000000              -0.008142060              -0.000020614               0.000255939              -0.003050693               0.001010019              -0.002040674               0.000000000               0.000000000               0.000000000               0.000000000              -0.005388686               0.000765288               0.001460587              -0.002116416               0.000960561              -0.001155855               0.000000000               0.000000000               0.000000000               0.000000000              -0.003890169               0.001712867               0.001831910              -0.001672919               0.001128587              -0.000544333               0.000000000               0.000000000               0.000000000               0.000000000              -0.002953377               0.002536400               0.001888487              -0.001424564               0.001320311              -0.000104252               0.000000000               0.000000000               0.000000000               0.000000000              -0.002278965               0.003199580               0.001828281              -0.001254557               0.001484701               0.000230144               0.000000000               0.000000000               0.000000000               0.000000000              -0.001732390               0.003718416               0.001721144              -0.001114446               0.001610941               0.000496495               0.000000000               0.000000000               0.000000000               0.000000000              -0.001252705               0.004118504               0.001595687              -0.000984576               0.001701012               0.000716436               0.000000000               0.000000000               0.000000000               0.000000000              -0.000805709               0.004430368               0.001473621              -0.000855936               0.001762086               0.000906150               0.000000000               0.000000000               0.000000000               0.000000000              -0.000367788               0.004674203               0.001363334              -0.000722195               0.001798783               0.001076588               0.000000000               0.000000000               0.000000000               0.000000000               0.000074880               0.004853772               0.001252632              -0.000578641               0.001810788               0.001232147               0.000000000               0.000000000               0.000000000               0.000000000               0.000534145               0.004982718               0.001130534              -0.000422535               0.001801734               0.001379199               0.000000000               0.000000000               0.000000000               0.000000000               0.001016613               0.005066039               0.000992992              -0.000252025               0.001772671               0.001520646               0.000000000               0.000000000               0.000000000               0.000000000               0.001520416               0.005099046               0.000829010              -0.000067225               0.001722073               0.001654848               0.000000000               0.000000000               0.000000000               0.000000000               0.002044853               0.005085820               0.000620310               0.000131091               0.001651560               0.001782650               0.000000000               0.000000000               0.000000000               0.000000000               0.002586876               0.005047000               0.000345452               0.000339200               0.001569250               0.001908450               0.000000000               0.000000000               0.000000000               0.000000000               0.002962743               0.005062265               0.000202160               0.000478241               0.001527991               0.002006232               0.000000000               0.000000000               0.000000000               0.000000000              -0.012995975              -0.001169154              -0.000624609              -0.004727344               0.001186055              -0.003541288               0.000000000               0.000000000               0.000000000               0.000000000              -0.008792467              -0.000497208               0.000094827              -0.003235022               0.000912598              -0.002322423               0.000000000               0.000000000               0.000000000               0.000000000              -0.005527723              -0.000045194               0.000768120              -0.002067245               0.000674012              -0.001393233               0.000000000               0.000000000               0.000000000               0.000000000              -0.003786249               0.000811520               0.000991820              -0.001521282               0.000777595              -0.000743687               0.000000000               0.000000000               0.000000000               0.000000000              -0.002728322               0.001650154               0.001040269              -0.001229388               0.000959841              -0.000269547               0.000000000               0.000000000               0.000000000               0.000000000              -0.002004299               0.002376691               0.001021589              -0.001048696               0.001141788               0.000093091               0.000000000               0.000000000               0.000000000               0.000000000              -0.001451010               0.002980870               0.000971460              -0.000916736               0.001299192               0.000382456               0.000000000               0.000000000               0.000000000               0.000000000              -0.000975789               0.003473204               0.000908429              -0.000800070               0.001424413               0.000624343               0.000000000               0.000000000               0.000000000               0.000000000              -0.000528664               0.003877009               0.000847633              -0.000682874               0.001519948               0.000837074               0.000000000               0.000000000               0.000000000               0.000000000              -0.000089130               0.004207912               0.000792706              -0.000559412               0.001589094               0.001029682               0.000000000               0.000000000               0.000000000               0.000000000               0.000355849               0.004471525               0.000735214              -0.000425497               0.001632326               0.001206829               0.000000000               0.000000000               0.000000000               0.000000000               0.000829918               0.004685322               0.000669779              -0.000274446               0.001653240               0.001378795               0.000000000               0.000000000               0.000000000               0.000000000               0.001346553               0.004846256               0.000594775              -0.000100825               0.001649011               0.001548186               0.000000000               0.000000000               0.000000000               0.000000000               0.001917445               0.004948624               0.000504262               0.000100463               0.001616037               0.001716500               0.000000000               0.000000000               0.000000000               0.000000000               0.002561090               0.005001801               0.000385813               0.000335180               0.001555523               0.001890704               0.000000000               0.000000000               0.000000000               0.000000000               0.003299315               0.005011447               0.000219526               0.000610806               0.001466864               0.002077670               0.000000000               0.000000000               0.000000000               0.000000000               0.003865869               0.005066142               0.000132717               0.000816425               0.001416556               0.002232980               0.000000000               0.000000000               0.000000000               0.000000000              -0.013409284              -0.001209202              -0.000000000              -0.004877328               0.001222700              -0.003654628               0.000000000               0.000000000               0.000000000               0.000000000              -0.009024176              -0.000653513              -0.000000000              -0.003302375               0.000882948              -0.002419427               0.000000000               0.000000000               0.000000000               0.000000000              -0.005579107              -0.000323300               0.000000000              -0.002051751               0.000576146              -0.001475605               0.000000000               0.000000000               0.000000000               0.000000000              -0.003747867               0.000492783              -0.000000000              -0.001467046               0.000653272              -0.000813774               0.000000000               0.000000000               0.000000000               0.000000000              -0.002640598               0.001331184              -0.000000000              -0.001156620               0.000829262              -0.000327358               0.000000000               0.000000000               0.000000000               0.000000000              -0.001901244               0.002077628               0.000000000              -0.000972668               0.001016758               0.000044090               0.000000000               0.000000000               0.000000000               0.000000000              -0.001346352               0.002711099              -0.000000000              -0.000843767               0.001184946               0.000341179               0.000000000               0.000000000               0.000000000               0.000000000              -0.000870923               0.003236357              -0.000000000              -0.000731139               0.001322488               0.000591349               0.000000000               0.000000000               0.000000000               0.000000000              -0.000422033               0.003671312              -0.000000000              -0.000617175               0.001429483               0.000812308               0.000000000               0.000000000               0.000000000               0.000000000               0.000018015               0.004029019               0.000000000              -0.000496871               0.001508617               0.001011746               0.000000000               0.000000000               0.000000000               0.000000000               0.000465476               0.004318408               0.000000000              -0.000365247               0.001561204               0.001195957               0.000000000               0.000000000               0.000000000               0.000000000               0.000946525               0.004559374              -0.000000000              -0.000214974               0.001591434               0.001376460               0.000000000               0.000000000               0.000000000               0.000000000               0.001479011               0.004750090               0.000000000              -0.000039132               0.001596392               0.001557259               0.000000000               0.000000000               0.000000000               0.000000000               0.002077784               0.004884712              -0.000000000               0.000168578               0.001572028               0.001740607               0.000000000               0.000000000               0.000000000               0.000000000               0.002767314               0.004967415               0.000000000               0.000416812               0.001516851               0.001933663               0.000000000               0.000000000               0.000000000               0.000000000               0.003582307               0.004995620               0.000000000               0.000718906               0.001425555               0.002144460               0.000000000               0.000000000               0.000000000               0.000000000               0.004227160               0.005065838               0.000000000               0.000951946               0.001371281               0.002323226               0.000000000               0.000000000               0.000000000               0.000000000               0.002251494               0.024291570              -0.000000000              -0.002192131               0.008827819               0.006635689               0.000000000               0.000000000               0.000000000               0.000000000               0.002186122               0.018806143              -0.000000000              -0.001530968               0.006778974               0.005248006               0.000000000               0.000000000               0.000000000               0.000000000               0.002829183               0.014329965               0.000000000              -0.000730300               0.005020041               0.004289741               0.000000000               0.000000000               0.000000000               0.000000000               0.002646552               0.011790333               0.000000000              -0.000481334               0.004090516               0.003609183               0.000000000               0.000000000               0.000000000               0.000000000               0.002231513               0.010182031              -0.000000000              -0.000435936               0.003539288               0.003103353               0.000000000               0.000000000               0.000000000               0.000000000               0.001779293               0.009058445               0.000000000              -0.000465070               0.003174475               0.002709405               0.000000000               0.000000000               0.000000000               0.000000000               0.001356218               0.008203301               0.000000000              -0.000516830               0.002906683               0.002389853               0.000000000               0.000000000               0.000000000               0.000000000               0.000987747               0.007511094              -0.000000000              -0.000568480               0.002693166               0.002124686               0.000000000               0.000000000               0.000000000               0.000000000               0.000667976               0.006914530               0.000000000              -0.000613824               0.002509428               0.001895605               0.000000000               0.000000000               0.000000000               0.000000000               0.000395553               0.006369718               0.000000000              -0.000647881               0.002339178               0.001691297               0.000000000               0.000000000               0.000000000               0.000000000               0.000180230               0.005844501              -0.000000000              -0.000662975               0.002169139               0.001506164               0.000000000               0.000000000               0.000000000               0.000000000               0.000019968               0.005317528              -0.000000000              -0.000657201               0.001991559               0.001334357               0.000000000               0.000000000               0.000000000               0.000000000              -0.000091264               0.004768501              -0.000000000              -0.000630285               0.001799580               0.001169294               0.000000000               0.000000000               0.000000000               0.000000000              -0.000147031               0.004179954               0.000000000              -0.000577629               0.001585847               0.001008218               0.000000000               0.000000000               0.000000000               0.000000000              -0.000143245               0.003534387               0.000000000              -0.000495514               0.001343289               0.000847774               0.000000000               0.000000000               0.000000000               0.000000000              -0.000085819               0.002796693               0.000000000              -0.000381768               0.001059477               0.000677710               0.000000000               0.000000000               0.000000000               0.000000000              -0.000106522               0.002224718               0.000000000              -0.000318035               0.000847577               0.000529542               0.000000000               0.000000000               0.000000000               0.000000000               0.002329615               0.023788859              -0.001635770              -0.002099997               0.008629539               0.006529542               0.000000000               0.000000000               0.000000000               0.000000000               0.002130123               0.018476570              -0.000777568              -0.001510772               0.006662386               0.005151614               0.000000000               0.000000000               0.000000000               0.000000000               0.002634161               0.014194214               0.000069722              -0.000786465               0.004993512               0.004207048               0.000000000               0.000000000               0.000000000               0.000000000               0.002402518               0.011756230               0.000421910              -0.000568583               0.004108232               0.003539649               0.000000000               0.000000000               0.000000000               0.000000000               0.001978227               0.010201788               0.000561593              -0.000533387               0.003578358               0.003044970               0.000000000               0.000000000               0.000000000               0.000000000               0.001534794               0.009106614               0.000603873              -0.000562778               0.003223100               0.002660323               0.000000000               0.000000000               0.000000000               0.000000000               0.001127314               0.008266584               0.000603868              -0.000610579               0.002959027               0.002348448               0.000000000               0.000000000               0.000000000               0.000000000               0.000777690               0.007577069               0.000586762              -0.000655498               0.002744164               0.002088665               0.000000000               0.000000000               0.000000000               0.000000000               0.000488678               0.006982560               0.000562484              -0.000689564               0.002557351               0.001867787               0.000000000               0.000000000               0.000000000               0.000000000               0.000249526               0.006437519               0.000532232              -0.000711116               0.002382857               0.001671741               0.000000000               0.000000000               0.000000000               0.000000000               0.000063919               0.005911951               0.000498707              -0.000715023               0.002208971               0.001493949               0.000000000               0.000000000               0.000000000               0.000000000              -0.000068010               0.005387725               0.000462287              -0.000698968               0.002028880               0.001329912               0.000000000               0.000000000               0.000000000               0.000000000              -0.000151218               0.004847809               0.000417217              -0.000662681               0.001836814               0.001174133               0.000000000               0.000000000               0.000000000               0.000000000              -0.000180655               0.004280633               0.000360082              -0.000602823               0.001627804               0.001024981               0.000000000               0.000000000               0.000000000               0.000000000              -0.000158733               0.003669217               0.000277484              -0.000518176               0.001395785               0.000877610               0.000000000               0.000000000               0.000000000               0.000000000              -0.000093058               0.002992787               0.000157207              -0.000408994               0.001133917               0.000724923               0.000000000               0.000000000               0.000000000               0.000000000              -0.000105451               0.002481578               0.000098711              -0.000349740               0.000943764               0.000594024               0.000000000               0.000000000               0.000000000               0.000000000               0.002507829               0.022342415              -0.003035325              -0.001852363               0.008064851               0.006212488               0.000000000               0.000000000               0.000000000               0.000000000               0.001951316               0.017547157              -0.001435937              -0.001461648               0.006336210               0.004874562               0.000000000               0.000000000               0.000000000               0.000000000               0.002077555               0.013811697               0.000129148              -0.000947377               0.004919645               0.003972269               0.000000000               0.000000000               0.000000000               0.000000000               0.001711054               0.011656825               0.000754511              -0.000815456               0.004157388               0.003341932               0.000000000               0.000000000               0.000000000               0.000000000               0.001265389               0.010246545               0.000988373              -0.000806296               0.003684246               0.002877950               0.000000000               0.000000000               0.000000000               0.000000000               0.000856391               0.009224833               0.001051630              -0.000831956               0.003352232               0.002520276               0.000000000               0.000000000               0.000000000               0.000000000               0.000510332               0.008419862               0.001042199              -0.000861107               0.003093628               0.002232522               0.000000000               0.000000000               0.000000000               0.000000000               0.000230648               0.007743202               0.001009215              -0.000881405               0.002874843               0.001993438               0.000000000               0.000000000               0.000000000               0.000000000               0.000018929               0.007151253               0.000966953              -0.000886806               0.002679329               0.001792523               0.000000000               0.000000000               0.000000000               0.000000000              -0.000132817               0.006604741               0.000912010              -0.000875397               0.002493357               0.001617960               0.000000000               0.000000000               0.000000000               0.000000000              -0.000232402               0.006079147               0.000849672              -0.000847042               0.002308709               0.001461667               0.000000000               0.000000000               0.000000000               0.000000000              -0.000287385               0.005562310               0.000780225              -0.000803056               0.002121770               0.001318714               0.000000000               0.000000000               0.000000000               0.000000000              -0.000297184               0.005046879               0.000697228              -0.000742302               0.001929710               0.001187408               0.000000000               0.000000000               0.000000000               0.000000000              -0.000262990               0.004529644               0.000592633              -0.000664825               0.001731474               0.001066649               0.000000000               0.000000000               0.000000000               0.000000000              -0.000193300               0.004009050               0.000448201              -0.000573618               0.001527542               0.000953925               0.000000000               0.000000000               0.000000000               0.000000000              -0.000100640               0.003486350               0.000250181              -0.000473532               0.001319949               0.000846417               0.000000000               0.000000000               0.000000000               0.000000000              -0.000089762               0.003122808               0.000152189              -0.000424011               0.001182262               0.000758252               0.000000000               0.000000000               0.000000000               0.000000000               0.002664348               0.020133652              -0.004015580              -0.001517575               0.007217008               0.005699433               0.000000000               0.000000000               0.000000000               0.000000000               0.001616434               0.016165875              -0.001896524              -0.001414569               0.005860094               0.004445525               0.000000000               0.000000000               0.000000000               0.000000000               0.001222811               0.013250450               0.000146050              -0.001197749               0.004816022               0.003618273               0.000000000               0.000000000               0.000000000               0.000000000               0.000700693               0.011491029               0.000912430              -0.001173616               0.004221510               0.003047894               0.000000000               0.000000000               0.000000000               0.000000000               0.000257366               0.010275591               0.001178194              -0.001187934               0.003821141               0.002633207               0.000000000               0.000000000               0.000000000               0.000000000              -0.000076780               0.009345275               0.001238625              -0.001196949               0.003514044               0.002317094               0.000000000               0.000000000               0.000000000               0.000000000              -0.000314823               0.008582898               0.001216982              -0.001190918               0.003257910               0.002066992               0.000000000               0.000000000               0.000000000               0.000000000              -0.000474088               0.007926905               0.001170979              -0.001168643               0.003031823               0.001863180               0.000000000               0.000000000               0.000000000               0.000000000              -0.000566910               0.007333493               0.001115650              -0.001129275               0.002820898               0.001691623               0.000000000               0.000000000               0.000000000               0.000000000              -0.000605340               0.006778718               0.001044233              -0.001074340               0.002617663               0.001543323               0.000000000               0.000000000               0.000000000               0.000000000              -0.000600755               0.006250514               0.000963095              -0.001006595               0.002419015               0.001412420               0.000000000               0.000000000               0.000000000               0.000000000              -0.000553271               0.005747899               0.000873074              -0.000925962               0.002224601               0.001298639               0.000000000               0.000000000               0.000000000               0.000000000              -0.000468962               0.005269307               0.000764229              -0.000834522               0.002034592               0.001200070               0.000000000               0.000000000               0.000000000               0.000000000              -0.000359264               0.004816921               0.000632574              -0.000736838               0.001851237               0.001114399               0.000000000               0.000000000               0.000000000               0.000000000              -0.000234601               0.004404463               0.000464572              -0.000638532               0.001680983               0.001042452               0.000000000               0.000000000               0.000000000               0.000000000              -0.000112279               0.004049914               0.000250138              -0.000548343               0.001532739               0.000984396               0.000000000               0.000000000               0.000000000               0.000000000              -0.000076204               0.003839367               0.000143768              -0.000508496               0.001449275               0.000940779               0.000000000               0.000000000               0.000000000               0.000000000               0.002657122               0.017433040              -0.004481440              -0.001182710               0.006205191               0.005022481               0.000000000               0.000000000               0.000000000               0.000000000               0.001098546               0.014513098              -0.002140925              -0.001402180               0.005305044               0.003902864               0.000000000               0.000000000               0.000000000               0.000000000               0.000162970               0.012579362               0.000075471              -0.001511303               0.004696846               0.003185543               0.000000000               0.000000000               0.000000000               0.000000000              -0.000453347               0.011249694               0.000848423              -0.001576213               0.004275265               0.002699052               0.000000000               0.000000000               0.000000000               0.000000000              -0.000826452               0.010229803               0.001093344              -0.001588641               0.003939447               0.002350806               0.000000000               0.000000000               0.000000000               0.000000000              -0.001034577               0.009387223               0.001138950              -0.001561366               0.003649498               0.002088133               0.000000000               0.000000000               0.000000000               0.000000000              -0.001128602               0.008664617               0.001113594              -0.001506299               0.003390277               0.001883977               0.000000000               0.000000000               0.000000000               0.000000000              -0.001146774               0.008018826               0.001065102              -0.001432390               0.003150379               0.001717988               0.000000000               0.000000000               0.000000000               0.000000000              -0.001107102               0.007423802               0.001006817              -0.001343135               0.002922288               0.001579152               0.000000000               0.000000000               0.000000000               0.000000000              -0.001020701               0.006862960               0.000934586              -0.001240630               0.002701174               0.001460544               0.000000000               0.000000000               0.000000000               0.000000000              -0.000899825               0.006338292               0.000852592              -0.001129718               0.002489316               0.001359597               0.000000000               0.000000000               0.000000000               0.000000000              -0.000753013               0.005854658               0.000759837              -0.001014210               0.002289603               0.001275393               0.000000000               0.000000000               0.000000000               0.000000000              -0.000590069               0.005416826               0.000645664              -0.000898377               0.002105049               0.001206672               0.000000000               0.000000000               0.000000000               0.000000000              -0.000420802               0.005032045               0.000512250              -0.000786805               0.001939600               0.001152795               0.000000000               0.000000000               0.000000000               0.000000000              -0.000259611               0.004713732               0.000359466              -0.000686569               0.001800085               0.001113516               0.000000000               0.000000000               0.000000000               0.000000000              -0.000122489               0.004482360               0.000185555              -0.000606227               0.001696180               0.001089954               0.000000000               0.000000000               0.000000000               0.000000000              -0.000073092               0.004370559               0.000101635              -0.000573728               0.001648081               0.001074353               0.000000000               0.000000000               0.000000000               0.000000000               0.002345690               0.014519714              -0.004454349              -0.000935332               0.005151632               0.004216300               0.000000000               0.000000000               0.000000000               0.000000000               0.000395620               0.012761292              -0.002209933              -0.001446802               0.004735988               0.003289186               0.000000000               0.000000000               0.000000000               0.000000000              -0.000969621               0.011843532              -0.000113762              -0.001844045               0.004562486               0.002718441               0.000000000               0.000000000               0.000000000               0.000000000              -0.001572616               0.010914551               0.000566707              -0.001954045               0.004289496               0.002335451               0.000000000               0.000000000               0.000000000               0.000000000              -0.001802244               0.010058675               0.000772414              -0.001933171               0.003997249               0.002064077               0.000000000               0.000000000               0.000000000               0.000000000              -0.001837869               0.009288415               0.000814684              -0.001850248               0.003712857               0.001862608               0.000000000               0.000000000               0.000000000               0.000000000              -0.001771641               0.008591552               0.000802460              -0.001738305               0.003443257               0.001704952               0.000000000               0.000000000               0.000000000               0.000000000              -0.001646476               0.007953009               0.000773671              -0.001611551               0.003188160               0.001576609               0.000000000               0.000000000               0.000000000               0.000000000              -0.001476527               0.007361519               0.000730505              -0.001473884               0.002945110               0.001471226               0.000000000               0.000000000               0.000000000               0.000000000              -0.001280057               0.006804795               0.000669293              -0.001330618               0.002711781               0.001381164               0.000000000               0.000000000               0.000000000               0.000000000              -0.001065306               0.006294250               0.000601012              -0.001186268               0.002493485               0.001307217               0.000000000               0.000000000               0.000000000               0.000000000              -0.000840272               0.005841769               0.000524239              -0.001045321               0.002295677               0.001250356               0.000000000               0.000000000               0.000000000               0.000000000              -0.000620846               0.005451305               0.000430265              -0.000914228               0.002121826               0.001207598               0.000000000               0.000000000               0.000000000               0.000000000              -0.000416957               0.005133644               0.000323874              -0.000798063               0.001977218               0.001179156               0.000000000               0.000000000               0.000000000               0.000000000              -0.000242172               0.004894821               0.000212825              -0.000702666               0.001865813               0.001163147               0.000000000               0.000000000               0.000000000               0.000000000              -0.000108920               0.004740595               0.000103376              -0.000633418               0.001791322               0.001157904               0.000000000               0.000000000               0.000000000               0.000000000              -0.000059850               0.004678370               0.000054487              -0.000607238               0.001761854               0.001154616               0.000000000               0.000000000               0.000000000               0.000000000               0.001669197               0.011635892              -0.004025642              -0.000828539               0.004154770               0.003326231               0.000000000               0.000000000               0.000000000               0.000000000              -0.000454919               0.011053030              -0.002162076              -0.001552221               0.004201713               0.002649492               0.000000000               0.000000000               0.000000000               0.000000000              -0.002055224               0.011069422              -0.000424045              -0.002154381               0.004407898               0.002253516               0.000000000               0.000000000               0.000000000               0.000000000              -0.002517926               0.010466382               0.000122050              -0.002252514               0.004239597               0.001987083               0.000000000               0.000000000               0.000000000               0.000000000              -0.002546099               0.009740402               0.000305712              -0.002172332               0.003970879               0.001798547               0.000000000               0.000000000               0.000000000               0.000000000              -0.002395530               0.009029506               0.000368432              -0.002027007               0.003685474               0.001658467               0.000000000               0.000000000               0.000000000               0.000000000              -0.002168025               0.008357141               0.000390272              -0.001857647               0.003404902               0.001547254               0.000000000               0.000000000               0.000000000               0.000000000              -0.001909367               0.007727425               0.000394699              -0.001681937               0.003136428               0.001454492               0.000000000               0.000000000               0.000000000               0.000000000              -0.001632834               0.007141365               0.000379536              -0.001504980               0.002882091               0.001377111               0.000000000               0.000000000               0.000000000               0.000000000              -0.001345129               0.006604945               0.000345458              -0.001330038               0.002644972               0.001314934               0.000000000               0.000000000               0.000000000               0.000000000              -0.001057821               0.006130668               0.000310145              -0.001163013               0.002431207               0.001268193               0.000000000               0.000000000               0.000000000               0.000000000              -0.000781436               0.005729332               0.000269379              -0.001009203               0.002246159               0.001236957               0.000000000               0.000000000               0.000000000               0.000000000              -0.000536383               0.005401282               0.000214482              -0.000876302               0.002092510               0.001216208               0.000000000               0.000000000               0.000000000               0.000000000              -0.000334482               0.005150698               0.000151860              -0.000769266               0.001973304               0.001204038               0.000000000               0.000000000               0.000000000               0.000000000              -0.000179870               0.004978911               0.000087956              -0.000689813               0.001889558               0.001199745               0.000000000               0.000000000               0.000000000               0.000000000              -0.000073986               0.004883070               0.000035477              -0.000638127               0.001840383               0.001202256               0.000000000               0.000000000               0.000000000               0.000000000              -0.000037285               0.004851458               0.000016233              -0.000620413               0.001823941               0.001203528               0.000000000               0.000000000               0.000000000               0.000000000               0.000665273               0.008968388              -0.003300817              -0.000871572               0.003279956               0.002408384               0.000000000               0.000000000               0.000000000               0.000000000              -0.001397225               0.009485642              -0.002046515              -0.001709662               0.003731736               0.002022074               0.000000000               0.000000000               0.000000000               0.000000000              -0.002987182               0.010260271              -0.000836855              -0.002402721               0.004220963               0.001818242               0.000000000               0.000000000               0.000000000               0.000000000              -0.003208370               0.009903541              -0.000409022              -0.002441075               0.004114839               0.001673764               0.000000000               0.000000000               0.000000000               0.000000000              -0.003005226               0.009291579              -0.000213544              -0.002288401               0.003859963               0.001571561               0.000000000               0.000000000               0.000000000               0.000000000              -0.002674859               0.008634893              -0.000107696              -0.002082429               0.003572412               0.001489983               0.000000000               0.000000000               0.000000000               0.000000000              -0.002312683               0.007987492              -0.000042394              -0.001865688               0.003284367               0.001418679               0.000000000               0.000000000               0.000000000               0.000000000              -0.001944160               0.007376704               0.000004942              -0.001651144               0.003009258               0.001358114               0.000000000               0.000000000               0.000000000               0.000000000              -0.001574441               0.006817904               0.000034444              -0.001442650               0.002753495               0.001310845               0.000000000               0.000000000               0.000000000               0.000000000              -0.001213355               0.006320439               0.000046690              -0.001245060               0.002521812               0.001276752               0.000000000               0.000000000               0.000000000               0.000000000              -0.000878743               0.005899926               0.000058980              -0.001067017               0.002322295               0.001255278               0.000000000               0.000000000               0.000000000               0.000000000              -0.000587687               0.005558938               0.000065498              -0.000915248               0.002158043               0.001242796               0.000000000               0.000000000               0.000000000               0.000000000              -0.000356982               0.005296258               0.000054014              -0.000795899               0.002030701               0.001234802               0.000000000               0.000000000               0.000000000               0.000000000              -0.000190341               0.005112121               0.000032974              -0.000710391               0.001940820               0.001230429               0.000000000               0.000000000               0.000000000               0.000000000              -0.000084270               0.005003826               0.000011738              -0.000657078               0.001886951               0.001229873               0.000000000               0.000000000               0.000000000               0.000000000              -0.000027827               0.004958771              -0.000000815              -0.000630280               0.001863000               0.001232720               0.000000000               0.000000000               0.000000000               0.000000000              -0.000011673               0.004949484              -0.000002700              -0.000623061               0.001857499               0.001234437               0.000000000               0.000000000               0.000000000               0.000000000              -0.000541471               0.006711077              -0.002407388              -0.001041935               0.002584314               0.001542379               0.000000000               0.000000000               0.000000000               0.000000000              -0.002319579               0.008078063              -0.001909854              -0.001879596               0.003319192               0.001439596               0.000000000               0.000000000               0.000000000               0.000000000              -0.003709656               0.009444687              -0.001323064              -0.002571701               0.004005431               0.001433730               0.000000000               0.000000000               0.000000000               0.000000000              -0.003671814               0.009349243              -0.000970138              -0.002545579               0.003964909               0.001419330               0.000000000               0.000000000               0.000000000               0.000000000              -0.003280164               0.008876715              -0.000740041              -0.002339645               0.003738757               0.001399112               0.000000000               0.000000000               0.000000000               0.000000000              -0.002809240               0.008294859              -0.000581856              -0.002090317               0.003461698               0.001371381               0.000000000               0.000000000               0.000000000               0.000000000              -0.002338737               0.007699910              -0.000464804              -0.001839510               0.003179781               0.001340271               0.000000000               0.000000000               0.000000000               0.000000000              -0.001885255               0.007135505              -0.000367474              -0.001598905               0.002911446               0.001312541               0.000000000               0.000000000               0.000000000               0.000000000              -0.001442550               0.006615070              -0.000287043              -0.001367837               0.002660947               0.001293110               0.000000000               0.000000000               0.000000000               0.000000000              -0.001026231               0.006157098              -0.000218820              -0.001154471               0.002437169               0.001282698               0.000000000               0.000000000               0.000000000               0.000000000              -0.000663203               0.005781118              -0.000153251              -0.000971338               0.002250800               0.001279461               0.000000000               0.000000000               0.000000000               0.000000000              -0.000377562               0.005478470              -0.000097139              -0.000826392               0.002101603               0.001275210               0.000000000               0.000000000               0.000000000               0.000000000              -0.000176660               0.005247307              -0.000059851              -0.000722159               0.001989805               0.001267646               0.000000000               0.000000000               0.000000000               0.000000000              -0.000050775               0.005096079              -0.000035977              -0.000656049               0.001917359               0.001261310               0.000000000               0.000000000               0.000000000               0.000000000               0.000013869               0.005020137              -0.000019238              -0.000622315               0.001880801               0.001258486               0.000000000               0.000000000               0.000000000               0.000000000               0.000029446               0.004994683              -0.000007227              -0.000613292               0.001869308               0.001256017               0.000000000               0.000000000               0.000000000               0.000000000               0.000025554               0.004992200              -0.000002160              -0.000614441               0.001868864               0.001254423               0.000000000               0.000000000               0.000000000               0.000000000              -0.001949121               0.004610257              -0.001463105              -0.001307200               0.001972470               0.000665270               0.000000000               0.000000000               0.000000000               0.000000000              -0.003092035               0.006444439              -0.001753122              -0.001965063               0.002803145               0.000838082               0.000000000               0.000000000               0.000000000               0.000000000              -0.004131039               0.008236357              -0.001830875              -0.002578678               0.003604984               0.001026306               0.000000000               0.000000000               0.000000000               0.000000000              -0.003953442               0.008534228              -0.001566910              -0.002549313               0.003694485               0.001145172               0.000000000               0.000000000               0.000000000               0.000000000              -0.003488338               0.008328656              -0.001303791              -0.002349203               0.003559258               0.001210055               0.000000000               0.000000000               0.000000000               0.000000000              -0.002966882               0.007943003              -0.001091899              -0.002105451               0.003349458               0.001244007               0.000000000               0.000000000               0.000000000               0.000000000              -0.002456957               0.007493672              -0.000918650              -0.001858063               0.003117220               0.001259157               0.000000000               0.000000000               0.000000000               0.000000000              -0.001975517               0.007040804              -0.000776216              -0.001620915               0.002887216               0.001266301               0.000000000               0.000000000               0.000000000               0.000000000              -0.001515733               0.006615346              -0.000651612              -0.001395315               0.002670198               0.001274883               0.000000000               0.000000000               0.000000000               0.000000000              -0.001080125               0.006228033              -0.000530758              -0.001183548               0.002470506               0.001286958               0.000000000               0.000000000               0.000000000               0.000000000              -0.000692654               0.005886909              -0.000412367              -0.000995607               0.002294152               0.001298546               0.000000000               0.000000000               0.000000000               0.000000000              -0.000378330               0.005601528              -0.000301456              -0.000842063               0.002147845               0.001305782               0.000000000               0.000000000               0.000000000               0.000000000              -0.000150286               0.005368840              -0.000206375              -0.000727460               0.002032082               0.001304622               0.000000000               0.000000000               0.000000000               0.000000000              -0.000005872               0.005194314              -0.000128620              -0.000651490               0.001948584               0.001297094               0.000000000               0.000000000               0.000000000               0.000000000               0.000066790               0.005079122              -0.000065676              -0.000609843               0.001896305               0.001286462               0.000000000               0.000000000               0.000000000               0.000000000               0.000086327               0.005020515              -0.000021920              -0.000595190               0.001871885               0.001276695               0.000000000               0.000000000               0.000000000               0.000000000               0.000081738               0.005005949              -0.000004545              -0.000595091               0.001866997               0.001271906               0.000000000               0.000000000               0.000000000               0.000000000              -0.003739061               0.002709421              -0.000534833              -0.001740822               0.001483404              -0.000257418               0.000000000               0.000000000               0.000000000               0.000000000              -0.003959757               0.004799667              -0.001524512              -0.002084863               0.002294826               0.000209964               0.000000000               0.000000000               0.000000000               0.000000000              -0.004456497               0.006819103              -0.002233804              -0.002523568               0.003114201               0.000590632               0.000000000               0.000000000               0.000000000               0.000000000              -0.004155122               0.007487731              -0.002131497              -0.002494131               0.003327262               0.000833131               0.000000000               0.000000000               0.000000000               0.000000000              -0.003649834               0.007596941              -0.001876196              -0.002318300               0.003305055               0.000986755               0.000000000               0.000000000               0.000000000               0.000000000              -0.003108928               0.007454308              -0.001630736              -0.002097632               0.003183955               0.001086323               0.000000000               0.000000000               0.000000000               0.000000000              -0.002580037               0.007191200              -0.001416212              -0.001866410               0.003019179               0.001152769               0.000000000               0.000000000               0.000000000               0.000000000              -0.002078147               0.006893255              -0.001232817              -0.001640958               0.002844715               0.001203756               0.000000000               0.000000000               0.000000000               0.000000000              -0.001609314               0.006592700              -0.001069895              -0.001427577               0.002673403               0.001245827               0.000000000               0.000000000               0.000000000               0.000000000              -0.001164328               0.006293609              -0.000914261              -0.001223321               0.002505622               0.001282301               0.000000000               0.000000000               0.000000000               0.000000000              -0.000750343               0.006003270              -0.000756344              -0.001031785               0.002344998               0.001313213               0.000000000               0.000000000               0.000000000               0.000000000              -0.000390276               0.005741584              -0.000597388              -0.000864049               0.002201859               0.001337809               0.000000000               0.000000000               0.000000000               0.000000000              -0.000109725               0.005511392              -0.000444044              -0.000730069               0.002080469               0.001350400               0.000000000               0.000000000               0.000000000               0.000000000               0.000082584               0.005313221              -0.000302820              -0.000633182               0.001982117               0.001348935               0.000000000               0.000000000               0.000000000               0.000000000               0.000187661               0.005154483              -0.000176332              -0.000573936               0.001909456               0.001335520               0.000000000               0.000000000               0.000000000               0.000000000               0.000218426               0.005052799              -0.000074297              -0.000549689               0.001867479               0.001317790               0.000000000               0.000000000               0.000000000               0.000000000               0.000207726               0.005012960              -0.000027906              -0.000548721               0.001853877               0.001305156               0.000000000               0.000000000               0.000000000               0.000000000              -0.005799463               0.001165576               0.000291752              -0.002320493               0.001162015              -0.001158478               0.000000000               0.000000000               0.000000000               0.000000000              -0.004975751               0.003253248              -0.001206482              -0.002272559               0.001841923              -0.000430636               0.000000000               0.000000000               0.000000000               0.000000000              -0.004726494               0.005212584              -0.002413575              -0.002424003               0.002545510               0.000121507               0.000000000               0.000000000               0.000000000               0.000000000              -0.004217278               0.006131387              -0.002514668              -0.002347898               0.002826407               0.000478509               0.000000000               0.000000000               0.000000000               0.000000000              -0.003651483               0.006527275              -0.002325498              -0.002185211               0.002904139               0.000718929               0.000000000               0.000000000               0.000000000               0.000000000              -0.003094659               0.006637870              -0.002085033              -0.001990227               0.002876010               0.000885783               0.000000000               0.000000000               0.000000000               0.000000000              -0.002560705               0.006596091              -0.001852897              -0.001784772               0.002793598               0.001008827               0.000000000               0.000000000               0.000000000               0.000000000              -0.002055377               0.006484322              -0.001645404              -0.001581303               0.002688520               0.001107217               0.000000000               0.000000000               0.000000000               0.000000000              -0.001576739               0.006337323              -0.001462655              -0.001383440               0.002573566               0.001190126               0.000000000               0.000000000               0.000000000               0.000000000              -0.001123339               0.006161501              -0.001289153              -0.001191437               0.002450959               0.001259521               0.000000000               0.000000000               0.000000000               0.000000000              -0.000696919               0.005962482              -0.001111541              -0.001006653               0.002323025               0.001316372               0.000000000               0.000000000               0.000000000               0.000000000              -0.000305645               0.005756455              -0.000924103              -0.000834172               0.002196856               0.001362684               0.000000000               0.000000000               0.000000000               0.000000000               0.000025838               0.005551759              -0.000731668              -0.000684279               0.002078661               0.001394382               0.000000000               0.000000000               0.000000000               0.000000000               0.000278436               0.005359875              -0.000539137              -0.000565569               0.001975130               0.001409561               0.000000000               0.000000000               0.000000000               0.000000000               0.000440356               0.005196452              -0.000346294              -0.000484422               0.001893607               0.001409185               0.000000000               0.000000000               0.000000000               0.000000000               0.000502989               0.005078219              -0.000164200              -0.000446155               0.001841441               0.001395286               0.000000000               0.000000000               0.000000000               0.000000000               0.000494178               0.005024641              -0.000074377              -0.000442762               0.001822451               0.001379689               0.000000000               0.000000000               0.000000000               0.000000000              -0.007984259               0.000055733               0.000891769              -0.003001061               0.001018924              -0.001982137               0.000000000               0.000000000               0.000000000               0.000000000              -0.006084881               0.001886613              -0.000846594              -0.002517653               0.001468078              -0.001049575               0.000000000               0.000000000               0.000000000               0.000000000              -0.004968530               0.003553515              -0.002336679              -0.002307384               0.001953619              -0.000353765               0.000000000               0.000000000               0.000000000               0.000000000              -0.004163041               0.004587668              -0.002624420              -0.002134595               0.002240737               0.000106143               0.000000000               0.000000000               0.000000000               0.000000000              -0.003499784               0.005203906              -0.002537215              -0.001962903               0.002388918               0.000426015               0.000000000               0.000000000               0.000000000               0.000000000              -0.002920839               0.005551706              -0.002341157              -0.001789274               0.002446974               0.000657700               0.000000000               0.000000000               0.000000000               0.000000000              -0.002389939               0.005739778              -0.002122513              -0.001613696               0.002451138               0.000837442               0.000000000               0.000000000               0.000000000               0.000000000              -0.001888852               0.005828197              -0.001916363              -0.001436841               0.002421660               0.000984818               0.000000000               0.000000000               0.000000000               0.000000000              -0.001415470               0.005843252              -0.001732714              -0.001261205               0.002368133               0.001106927               0.000000000               0.000000000               0.000000000               0.000000000              -0.000962612               0.005805133              -0.001558019              -0.001086619               0.002297231               0.001210612               0.000000000               0.000000000               0.000000000               0.000000000              -0.000526264               0.005723805              -0.001380403              -0.000912823               0.002212190               0.001299367               0.000000000               0.000000000               0.000000000               0.000000000              -0.000109147               0.005608647              -0.001191125              -0.000742010               0.002116867               0.001374857               0.000000000               0.000000000               0.000000000               0.000000000               0.000275898               0.005472321              -0.000988671              -0.000580578               0.002017614               0.001437037               0.000000000               0.000000000               0.000000000               0.000000000               0.000606801               0.005329197              -0.000771812              -0.000438599               0.001922581               0.001483982               0.000000000               0.000000000               0.000000000               0.000000000               0.000860883               0.005198310              -0.000531284              -0.000326957               0.001841738               0.001514781               0.000000000               0.000000000               0.000000000               0.000000000               0.001012219               0.005091972              -0.000270149              -0.000256914               0.001782945               0.001526031               0.000000000               0.000000000               0.000000000               0.000000000               0.001054116               0.005043005              -0.000135927              -0.000235082               0.001759345               0.001524264               0.000000000               0.000000000               0.000000000               0.000000000              -0.010075875              -0.000642334               0.001158211              -0.003698159               0.001018601              -0.002679558               0.000000000               0.000000000               0.000000000               0.000000000              -0.007188988               0.000779258              -0.000511727              -0.002793275               0.001190836              -0.001602439               0.000000000               0.000000000               0.000000000               0.000000000              -0.005193214               0.002014159              -0.002004747              -0.002199222               0.001404450              -0.000794772               0.000000000               0.000000000               0.000000000               0.000000000              -0.004033405               0.003042108              -0.002398866              -0.001892787               0.001644953              -0.000247835               0.000000000               0.000000000               0.000000000               0.000000000              -0.003240521               0.003798310              -0.002407008              -0.001689981               0.001829416               0.000139435               0.000000000               0.000000000               0.000000000               0.000000000              -0.002623514               0.004338956              -0.002279953              -0.001526185               0.001955031               0.000428847               0.000000000               0.000000000               0.000000000               0.000000000              -0.002087757               0.004721286              -0.002109604              -0.001373067               0.002031435               0.000658367               0.000000000               0.000000000               0.000000000               0.000000000              -0.001597068               0.004984370              -0.001932730              -0.001221944               0.002068754               0.000846810               0.000000000               0.000000000               0.000000000               0.000000000              -0.001139483               0.005158203              -0.001766509              -0.001072080               0.002076743               0.001004663               0.000000000               0.000000000               0.000000000               0.000000000              -0.000696928               0.005266349              -0.001612092              -0.000919640               0.002061978               0.001142338               0.000000000               0.000000000               0.000000000               0.000000000              -0.000254926               0.005318883              -0.001458089              -0.000760456               0.002026428               0.001265972               0.000000000               0.000000000               0.000000000               0.000000000               0.000186589               0.005326245              -0.001292304              -0.000595809               0.001974000               0.001378191               0.000000000               0.000000000               0.000000000               0.000000000               0.000623664               0.005297581              -0.001110210              -0.000428323               0.001908617               0.001480294               0.000000000               0.000000000               0.000000000               0.000000000               0.001042478               0.005239149              -0.000903340              -0.000263964               0.001834353               0.001570389               0.000000000               0.000000000               0.000000000               0.000000000               0.001423355               0.005160522              -0.000652888              -0.000111307               0.001757259               0.001645952               0.000000000               0.000000000               0.000000000               0.000000000               0.001742771               0.005080683              -0.000350405               0.000018453               0.001687393               0.001705846               0.000000000               0.000000000               0.000000000               0.000000000               0.001918100               0.005056835              -0.000193475               0.000087182               0.001656534               0.001743716               0.000000000               0.000000000               0.000000000               0.000000000              -0.011825091              -0.001012401               0.001053805              -0.004307856               0.001098477              -0.003209379               0.000000000               0.000000000               0.000000000               0.000000000              -0.008142060              -0.000020614              -0.000255939              -0.003050693               0.001010019              -0.002040674               0.000000000               0.000000000               0.000000000               0.000000000              -0.005388686               0.000765288              -0.001460587              -0.002116416               0.000960561              -0.001155855               0.000000000               0.000000000               0.000000000               0.000000000              -0.003890169               0.001712867              -0.001831910              -0.001672919               0.001128587              -0.000544333               0.000000000               0.000000000               0.000000000               0.000000000              -0.002953377               0.002536400              -0.001888487              -0.001424564               0.001320311              -0.000104252               0.000000000               0.000000000               0.000000000               0.000000000              -0.002278965               0.003199580              -0.001828281              -0.001254557               0.001484701               0.000230144               0.000000000               0.000000000               0.000000000               0.000000000              -0.001732390               0.003718416              -0.001721144              -0.001114446               0.001610941               0.000496495               0.000000000               0.000000000               0.000000000               0.000000000              -0.001252705               0.004118504              -0.001595687              -0.000984576               0.001701012               0.000716436               0.000000000               0.000000000               0.000000000               0.000000000              -0.000805709               0.004430368              -0.001473621              -0.000855936               0.001762086               0.000906150               0.000000000               0.000000000               0.000000000               0.000000000              -0.000367788               0.004674203              -0.001363334              -0.000722195               0.001798783               0.001076588               0.000000000               0.000000000               0.000000000               0.000000000               0.000074880               0.004853772              -0.001252632              -0.000578641               0.001810788               0.001232147               0.000000000               0.000000000               0.000000000               0.000000000               0.000534145               0.004982718              -0.001130534              -0.000422535               0.001801734               0.001379199               0.000000000               0.000000000               0.000000000               0.000000000               0.001016613               0.005066039              -0.000992992              -0.000252025               0.001772671               0.001520646               0.000000000               0.000000000               0.000000000               0.000000000               0.001520416               0.005099046              -0.000829010              -0.000067225               0.001722073               0.001654848               0.000000000               0.000000000               0.000000000               0.000000000               0.002044853               0.005085820              -0.000620310               0.000131091               0.001651560               0.001782650               0.000000000               0.000000000               0.000000000               0.000000000               0.002586876               0.005047000              -0.000345452               0.000339200               0.001569250               0.001908450               0.000000000               0.000000000               0.000000000               0.000000000               0.002962743               0.005062265              -0.000202160               0.000478241               0.001527991               0.002006232               0.000000000               0.000000000               0.000000000               0.000000000              -0.012995975              -0.001169154               0.000624609              -0.004727344               0.001186055              -0.003541288               0.000000000               0.000000000               0.000000000               0.000000000              -0.008792467              -0.000497208              -0.000094827              -0.003235022               0.000912598              -0.002322423               0.000000000               0.000000000               0.000000000               0.000000000              -0.005527723              -0.000045194              -0.000768120              -0.002067245               0.000674012              -0.001393233               0.000000000               0.000000000               0.000000000               0.000000000              -0.003786249               0.000811520              -0.000991820              -0.001521282               0.000777595              -0.000743687               0.000000000               0.000000000               0.000000000               0.000000000              -0.002728322               0.001650154              -0.001040269              -0.001229388               0.000959841              -0.000269547               0.000000000               0.000000000               0.000000000               0.000000000              -0.002004299               0.002376691              -0.001021589              -0.001048696               0.001141788               0.000093091               0.000000000               0.000000000               0.000000000               0.000000000              -0.001451010               0.002980870              -0.000971460              -0.000916736               0.001299192               0.000382456               0.000000000               0.000000000               0.000000000               0.000000000              -0.000975789               0.003473204              -0.000908429              -0.000800070               0.001424413               0.000624343               0.000000000               0.000000000               0.000000000               0.000000000              -0.000528664               0.003877009              -0.000847633              -0.000682874               0.001519948               0.000837074               0.000000000               0.000000000               0.000000000               0.000000000              -0.000089130               0.004207912              -0.000792706              -0.000559412               0.001589094               0.001029682               0.000000000               0.000000000               0.000000000               0.000000000               0.000355849               0.004471525              -0.000735214              -0.000425497               0.001632326               0.001206829               0.000000000               0.000000000               0.000000000               0.000000000               0.000829918               0.004685322              -0.000669779              -0.000274446               0.001653240               0.001378795               0.000000000               0.000000000               0.000000000               0.000000000               0.001346553               0.004846256              -0.000594775              -0.000100825               0.001649011               0.001548186               0.000000000               0.000000000               0.000000000               0.000000000               0.001917445               0.004948624              -0.000504262               0.000100463               0.001616037               0.001716500               0.000000000               0.000000000               0.000000000               0.000000000               0.002561090               0.005001801              -0.000385813               0.000335180               0.001555523               0.001890704               0.000000000               0.000000000               0.000000000               0.000000000               0.003299315               0.005011447              -0.000219526               0.000610806               0.001466864               0.002077670               0.000000000               0.000000000               0.000000000               0.000000000               0.003865869               0.005066142              -0.000132717               0.000816425               0.001416556               0.002232980               0.000000000               0.000000000               0.000000000               0.000000000               0.000000000               0.000000000               0.000000000               0.000000000               0.000000000               0.000000000               0.000000000               0.000000000               0.000000000               0.000000000               0.000000000               0.000000000               0.000000000               0.000000000               0.000000000               0.000000000               0.000000000               0.000000000               0.000000000               0.000000000               0.000000000               0.000000000               0.000000000               0.000000000               0.000000000               0.000000000               0.000000000               0.000000000               0.000000000               0.000000000               0.000000000               0.000000000               0.000000000               0.000000000               0.000000000               0.000000000               0.000000000               0.000000000               0.000000000               0.000000000               0.000000000               0.000000000               0.000000000               0.000000000               0.000000000               0.000000000               0.000000000               0.000000000               0.000000000               0.000000000               0.000000000               0.000000000               0.000000000               0.000000000               0.000000000               0.000000000               0.000000000               0.000000000               0.000000000               0.000000000               0.000000000               0.000000000               0.000000000               0.000000000               0.000000000               0.000000000               0.000000000               0.000000000               0.000000000               0.000000000               0.000000000               0.000000000               0.000000000               0.000000000               0.000000000               0.000000000               0.000000000               0.000000000               0.000000000               0.000000000               0.000000000               0.000000000               0.000000000               0.000000000               0.000000000               0.000000000               0.000000000               0.000000000               0.000000000               0.000000000               0.000000000               0.000000000               0.000000000               0.000000000               0.000000000               0.000000000               0.000000000               0.000000000               0.000000000               0.000000000               0.000000000               0.000000000               0.000000000               0.000000000               0.000000000               0.000000000               0.000000000               0.000000000               0.000000000               0.000000000               0.000000000               0.000000000               0.000000000               0.000000000               0.000000000               0.000000000               0.000000000               0.000000000               0.000000000               0.000000000               0.000000000               0.000000000               0.000000000               0.000000000               0.000000000               0.000000000               0.000000000               0.000000000               0.000000000               0.000000000               0.000000000               0.000000000               0.000000000               0.000000000               0.000000000               0.000000000               0.000000000               0.000000000               0.000000000               0.000000000               0.000000000               0.000000000               0.000000000               0.000000000               0.000000000               0.000000000               0.000000000               0.000000000               0.000000000               0.000000000               0.000000000               0.000000000               0.000000000               0.000000000               0.000000000               0.000000000               0.000000000               0.000000000               0.000000000               0.000000000               0.000000000               0.000000000               0.000000000               0.000000000               0.000000000               0.000000000               0.000000000               0.000000000               0.000000000               0.000000000               0.000000000               0.000000000               0.000000000               0.000000000               0.000000000               0.000000000               0.000000000               0.000000000               0.000000000               0.000000000               0.000000000               0.000000000               0.000000000               0.000000000               0.000000000               0.000000000               0.000000000               0.000000000               0.000000000               0.000000000               0.000000000               0.000000000               0.000000000               0.000000000               0.000000000               0.000000000               0.000000000               0.000000000               0.000000000               0.000000000               0.000000000               0.000000000               0.000000000               0.000000000               0.000000000               0.000000000               0.000000000               0.000000000               0.000000000               0.000000000               0.000000000               0.000000000               0.000000000               0.000000000               0.000000000               0.000000000               0.000000000               0.000000000               0.000000000               0.000000000               0.000000000               0.000000000               0.000000000               0.000000000               0.000000000               0.000000000               0.000000000               0.000000000               0.000000000               0.000000000               0.000000000               0.000000000               0.000000000               0.000000000               0.000000000               0.000000000               0.000000000               0.000000000               0.000000000               0.000000000               0.000000000               0.000000000               0.000000000               0.000000000               0.000000000               0.000000000               0.000000000               0.000000000               0.000000000               0.000000000               0.000000000               0.000000000               0.000000000               0.000000000               0.000000000               0.000000000               0.000000000               0.000000000               0.000000000               0.000000000               0.000000000               0.000000000               0.000000000               0.000000000               0.000000000               0.000000000               0.000000000               0.000000000               0.000000000               0.000000000               0.000000000               0.000000000               0.000000000               0.000000000               0.000000000               0.000000000               0.000000000               0.000000000               0.000000000               0.000000000               0.000000000               0.000000000               0.000000000               0.000000000               0.000000000               0.000000000               0.000000000               0.000000000               0.000000000               0.000000000               0.000000000               0.000000000               0.000000000               0.000000000               0.000000000               0.000000000               0.000000000               0.000000000               0.000000000               0.000000000               0.000000000               0.000000000               0.000000000               0.000000000               0.000000000               0.000000000               0.000000000               0.000000000               0.000000000               0.000000000               0.000000000               0.000000000               0.000000000               0.000000000               0.000000000               0.000000000               0.000000000               0.000000000               0.000000000               0.000000000               0.000000000               0.000000000               0.000000000               0.000000000               0.000000000               0.000000000               0.000000000               0.000000000               0.000000000               0.000000000               0.000000000               0.000000000               0.000000000               0.000000000               0.000000000               0.000000000               0.000000000               0.000000000               0.000000000               0.000000000               0.002329615               0.023788859               0.001635770              -0.002099997               0.008629539               0.006529542               0.000000000               0.000000000               0.000000000               0.000000000               0.002130123               0.018476570               0.000777568              -0.001510772               0.006662386               0.005151614               0.000000000               0.000000000               0.000000000               0.000000000               0.002634161               0.014194214              -0.000069722              -0.000786465               0.004993512               0.004207048               0.000000000               0.000000000               0.000000000               0.000000000               0.002402518               0.011756230              -0.000421910              -0.000568583               0.004108232               0.003539649               0.000000000               0.000000000               0.000000000               0.000000000               0.001978227               0.010201788              -0.000561593              -0.000533387               0.003578358               0.003044970               0.000000000               0.000000000               0.000000000               0.000000000               0.001534794               0.009106614              -0.000603873              -0.000562778               0.003223100               0.002660323               0.000000000               0.000000000               0.000000000               0.000000000               0.001127314               0.008266584              -0.000603868              -0.000610579               0.002959027               0.002348448               0.000000000               0.000000000               0.000000000               0.000000000               0.000777690               0.007577069              -0.000586762              -0.000655498               0.002744164               0.002088665               0.000000000               0.000000000               0.000000000               0.000000000               0.000488678               0.006982560              -0.000562484              -0.000689564               0.002557351               0.001867787               0.000000000               0.000000000               0.000000000               0.000000000               0.000249526               0.006437519              -0.000532232              -0.000711116               0.002382857               0.001671741               0.000000000               0.000000000               0.000000000               0.000000000               0.000063919               0.005911951              -0.000498707              -0.000715023               0.002208971               0.001493949               0.000000000               0.000000000               0.000000000               0.000000000              -0.000068010               0.005387725              -0.000462287              -0.000698968               0.002028880               0.001329912               0.000000000               0.000000000               0.000000000               0.000000000              -0.000151218               0.004847809              -0.000417217              -0.000662681               0.001836814               0.001174133               0.000000000               0.000000000               0.000000000               0.000000000              -0.000180655               0.004280633              -0.000360082              -0.000602823               0.001627804               0.001024981               0.000000000               0.000000000               0.000000000               0.000000000              -0.000158733               0.003669217              -0.000277484              -0.000518176               0.001395785               0.000877610               0.000000000               0.000000000               0.000000000               0.000000000              -0.000093058               0.002992787              -0.000157207              -0.000408994               0.001133917               0.000724923               0.000000000               0.000000000               0.000000000               0.000000000              -0.000105451               0.002481578              -0.000098711              -0.000349740               0.000943764               0.000594024               0.000000000               0.000000000               0.000000000               0.000000000               0.002507829               0.022342415               0.003035325              -0.001852363               0.008064851               0.006212488               0.000000000               0.000000000               0.000000000               0.000000000               0.001951316               0.017547157               0.001435937              -0.001461648               0.006336210               0.004874562               0.000000000               0.000000000               0.000000000               0.000000000               0.002077555               0.013811697              -0.000129148              -0.000947377               0.004919645               0.003972269               0.000000000               0.000000000               0.000000000               0.000000000               0.001711054               0.011656825              -0.000754511              -0.000815456               0.004157388               0.003341932               0.000000000               0.000000000               0.000000000               0.000000000               0.001265389               0.010246545              -0.000988373              -0.000806296               0.003684246               0.002877950               0.000000000               0.000000000               0.000000000               0.000000000               0.000856391               0.009224833              -0.001051630              -0.000831956               0.003352232               0.002520276               0.000000000               0.000000000               0.000000000               0.000000000               0.000510332               0.008419862              -0.001042199              -0.000861107               0.003093628               0.002232522               0.000000000               0.000000000               0.000000000               0.000000000               0.000230648               0.007743202              -0.001009215              -0.000881405               0.002874843               0.001993438               0.000000000               0.000000000               0.000000000               0.000000000               0.000018929               0.007151253              -0.000966953              -0.000886806               0.002679329               0.001792523               0.000000000               0.000000000               0.000000000               0.000000000              -0.000132817               0.006604741              -0.000912010              -0.000875397               0.002493357               0.001617960               0.000000000               0.000000000               0.000000000               0.000000000              -0.000232402               0.006079147              -0.000849672              -0.000847042               0.002308709               0.001461667               0.000000000               0.000000000               0.000000000               0.000000000              -0.000287385               0.005562310              -0.000780225              -0.000803056               0.002121770               0.001318714               0.000000000               0.000000000               0.000000000               0.000000000              -0.000297184               0.005046879              -0.000697228              -0.000742302               0.001929710               0.001187408               0.000000000               0.000000000               0.000000000               0.000000000              -0.000262990               0.004529644              -0.000592633              -0.000664825               0.001731474               0.001066649               0.000000000               0.000000000               0.000000000               0.000000000              -0.000193300               0.004009050              -0.000448201              -0.000573618               0.001527542               0.000953925               0.000000000               0.000000000               0.000000000               0.000000000              -0.000100640               0.003486350              -0.000250181              -0.000473532               0.001319949               0.000846417               0.000000000               0.000000000               0.000000000               0.000000000              -0.000089762               0.003122808              -0.000152189              -0.000424011               0.001182262               0.000758252               0.000000000               0.000000000               0.000000000               0.000000000               0.002664348               0.020133652               0.004015580              -0.001517575               0.007217008               0.005699433               0.000000000               0.000000000               0.000000000               0.000000000               0.001616434               0.016165875               0.001896524              -0.001414569               0.005860094               0.004445525               0.000000000               0.000000000               0.000000000               0.000000000               0.001222811               0.013250450              -0.000146050              -0.001197749               0.004816022               0.003618273               0.000000000               0.000000000               0.000000000               0.000000000               0.000700693               0.011491029              -0.000912430              -0.001173616               0.004221510               0.003047894               0.000000000               0.000000000               0.000000000               0.000000000               0.000257366               0.010275591              -0.001178194              -0.001187934               0.003821141               0.002633207               0.000000000               0.000000000               0.000000000               0.000000000              -0.000076780               0.009345275              -0.001238625              -0.001196949               0.003514044               0.002317094               0.000000000               0.000000000               0.000000000               0.000000000              -0.000314823               0.008582898              -0.001216982              -0.001190918               0.003257910               0.002066992               0.000000000               0.000000000               0.000000000               0.000000000              -0.000474088               0.007926905              -0.001170979              -0.001168643               0.003031823               0.001863180               0.000000000               0.000000000               0.000000000               0.000000000              -0.000566910               0.007333493              -0.001115650              -0.001129275               0.002820898               0.001691623               0.000000000               0.000000000               0.000000000               0.000000000              -0.000605340               0.006778718              -0.001044233              -0.001074340               0.002617663               0.001543323               0.000000000               0.000000000               0.000000000               0.000000000              -0.000600755               0.006250514              -0.000963095              -0.001006595               0.002419015               0.001412420               0.000000000               0.000000000               0.000000000               0.000000000              -0.000553271               0.005747899              -0.000873074              -0.000925962               0.002224601               0.001298639               0.000000000               0.000000000               0.000000000               0.000000000              -0.000468962               0.005269307              -0.000764229              -0.000834522               0.002034592               0.001200070               0.000000000               0.000000000               0.000000000               0.000000000              -0.000359264               0.004816921              -0.000632574              -0.000736838               0.001851237               0.001114399               0.000000000               0.000000000               0.000000000               0.000000000              -0.000234601               0.004404463              -0.000464572              -0.000638532               0.001680983               0.001042452               0.000000000               0.000000000               0.000000000               0.000000000              -0.000112279               0.004049914              -0.000250138              -0.000548343               0.001532739               0.000984396               0.000000000               0.000000000               0.000000000               0.000000000              -0.000076204               0.003839367              -0.000143768              -0.000508496               0.001449275               0.000940779               0.000000000               0.000000000               0.000000000               0.000000000               0.002657122               0.017433040               0.004481440              -0.001182710               0.006205191               0.005022481               0.000000000               0.000000000               0.000000000               0.000000000               0.001098546               0.014513098               0.002140925              -0.001402180               0.005305044               0.003902864               0.000000000               0.000000000               0.000000000               0.000000000               0.000162970               0.012579362              -0.000075471              -0.001511303               0.004696846               0.003185543               0.000000000               0.000000000               0.000000000               0.000000000              -0.000453347               0.011249694              -0.000848423              -0.001576213               0.004275265               0.002699052               0.000000000               0.000000000               0.000000000               0.000000000              -0.000826452               0.010229803              -0.001093344              -0.001588641               0.003939447               0.002350806               0.000000000               0.000000000               0.000000000               0.000000000              -0.001034577               0.009387223              -0.001138950              -0.001561366               0.003649498               0.002088133               0.000000000               0.000000000               0.000000000               0.000000000              -0.001128602               0.008664617              -0.001113594              -0.001506299               0.003390277               0.001883977               0.000000000               0.000000000               0.000000000               0.000000000              -0.001146774               0.008018826              -0.001065102              -0.001432390               0.003150379               0.001717988               0.000000000               0.000000000               0.000000000               0.000000000              -0.001107102               0.007423802              -0.001006817              -0.001343135               0.002922288               0.001579152               0.000000000               0.000000000               0.000000000               0.000000000              -0.001020701               0.006862960              -0.000934586              -0.001240630               0.002701174               0.001460544               0.000000000               0.000000000               0.000000000               0.000000000              -0.000899825               0.006338292              -0.000852592              -0.001129718               0.002489316               0.001359597               0.000000000               0.000000000               0.000000000               0.000000000              -0.000753013               0.005854658              -0.000759837              -0.001014210               0.002289603               0.001275393               0.000000000               0.000000000               0.000000000               0.000000000              -0.000590069               0.005416826              -0.000645664              -0.000898377               0.002105049               0.001206672               0.000000000               0.000000000               0.000000000               0.000000000              -0.000420802               0.005032045              -0.000512250              -0.000786805               0.001939600               0.001152795               0.000000000               0.000000000               0.000000000               0.000000000              -0.000259611               0.004713732              -0.000359466              -0.000686569               0.001800085               0.001113516               0.000000000               0.000000000               0.000000000               0.000000000              -0.000122489               0.004482360              -0.000185555              -0.000606227               0.001696180               0.001089954               0.000000000               0.000000000               0.000000000               0.000000000              -0.000073092               0.004370559              -0.000101635              -0.000573728               0.001648081               0.001074353               0.000000000               0.000000000               0.000000000               0.000000000               0.002345690               0.014519714               0.004454349              -0.000935332               0.005151632               0.004216300               0.000000000               0.000000000               0.000000000               0.000000000               0.000395620               0.012761292               0.002209933              -0.001446802               0.004735988               0.003289186               0.000000000               0.000000000               0.000000000               0.000000000              -0.000969621               0.011843532               0.000113762              -0.001844045               0.004562486               0.002718441               0.000000000               0.000000000               0.000000000               0.000000000              -0.001572616               0.010914551              -0.000566707              -0.001954045               0.004289496               0.002335451               0.000000000               0.000000000               0.000000000               0.000000000              -0.001802244               0.010058675              -0.000772414              -0.001933171               0.003997249               0.002064077               0.000000000               0.000000000               0.000000000               0.000000000              -0.001837869               0.009288415              -0.000814684              -0.001850248               0.003712857               0.001862608               0.000000000               0.000000000               0.000000000               0.000000000              -0.001771641               0.008591552              -0.000802460              -0.001738305               0.003443257               0.001704952               0.000000000               0.000000000               0.000000000               0.000000000              -0.001646476               0.007953009              -0.000773671              -0.001611551               0.003188160               0.001576609               0.000000000               0.000000000               0.000000000               0.000000000              -0.001476527               0.007361519              -0.000730505              -0.001473884               0.002945110               0.001471226               0.000000000               0.000000000               0.000000000               0.000000000              -0.001280057               0.006804795              -0.000669293              -0.001330618               0.002711781               0.001381164               0.000000000               0.000000000               0.000000000               0.000000000              -0.001065306               0.006294250              -0.000601012              -0.001186268               0.002493485               0.001307217               0.000000000               0.000000000               0.000000000               0.000000000              -0.000840272               0.005841769              -0.000524239              -0.001045321               0.002295677               0.001250356               0.000000000               0.000000000               0.000000000               0.000000000              -0.000620846               0.005451305              -0.000430265              -0.000914228               0.002121826               0.001207598               0.000000000               0.000000000               0.000000000               0.000000000              -0.000416957               0.005133644              -0.000323874              -0.000798063               0.001977218               0.001179156               0.000000000               0.000000000               0.000000000               0.000000000              -0.000242172               0.004894821              -0.000212825              -0.000702666               0.001865813               0.001163147               0.000000000               0.000000000               0.000000000               0.000000000              -0.000108920               0.004740595              -0.000103376              -0.000633418               0.001791322               0.001157904               0.000000000               0.000000000               0.000000000               0.000000000              -0.000059850               0.004678370              -0.000054487              -0.000607238               0.001761854               0.001154616               0.000000000               0.000000000               0.000000000               0.000000000               0.001669197               0.011635892               0.004025642              -0.000828539               0.004154770               0.003326231               0.000000000               0.000000000               0.000000000               0.000000000              -0.000454919               0.011053030               0.002162076              -0.001552221               0.004201713               0.002649492               0.000000000               0.000000000               0.000000000               0.000000000              -0.002055224               0.011069422               0.000424045              -0.002154381               0.004407898               0.002253516               0.000000000               0.000000000               0.000000000               0.000000000              -0.002517926               0.010466382              -0.000122050              -0.002252514               0.004239597               0.001987083               0.000000000               0.000000000               0.000000000               0.000000000              -0.002546099               0.009740402              -0.000305712              -0.002172332               0.003970879               0.001798547               0.000000000               0.000000000               0.000000000               0.000000000              -0.002395530               0.009029506              -0.000368432              -0.002027007               0.003685474               0.001658467               0.000000000               0.000000000               0.000000000               0.000000000              -0.002168025               0.008357141              -0.000390272              -0.001857647               0.003404902               0.001547254               0.000000000               0.000000000               0.000000000               0.000000000              -0.001909367               0.007727425              -0.000394699              -0.001681937               0.003136428               0.001454492               0.000000000               0.000000000               0.000000000               0.000000000              -0.001632834               0.007141365              -0.000379536              -0.001504980               0.002882091               0.001377111               0.000000000               0.000000000               0.000000000               0.000000000              -0.001345129               0.006604945              -0.000345458              -0.001330038               0.002644972               0.001314934               0.000000000               0.000000000               0.000000000               0.000000000              -0.001057821               0.006130668              -0.000310145              -0.001163013               0.002431207               0.001268193               0.000000000               0.000000000               0.000000000               0.000000000              -0.000781436               0.005729332              -0.000269379              -0.001009203               0.002246159               0.001236957               0.000000000               0.000000000               0.000000000               0.000000000              -0.000536383               0.005401282              -0.000214482              -0.000876302               0.002092510               0.001216208               0.000000000               0.000000000               0.000000000               0.000000000              -0.000334482               0.005150698              -0.000151860              -0.000769266               0.001973304               0.001204038               0.000000000               0.000000000               0.000000000               0.000000000              -0.000179870               0.004978911              -0.000087956              -0.000689813               0.001889558               0.001199745               0.000000000               0.000000000               0.000000000               0.000000000              -0.000073986               0.004883070              -0.000035477              -0.000638127               0.001840383               0.001202256               0.000000000               0.000000000               0.000000000               0.000000000              -0.000037285               0.004851458              -0.000016233              -0.000620413               0.001823941               0.001203528               0.000000000               0.000000000               0.000000000               0.000000000               0.000665273               0.008968388               0.003300817              -0.000871572               0.003279956               0.002408384               0.000000000               0.000000000               0.000000000               0.000000000              -0.001397225               0.009485642               0.002046515              -0.001709662               0.003731736               0.002022074               0.000000000               0.000000000               0.000000000               0.000000000              -0.002987182               0.010260271               0.000836855              -0.002402721               0.004220963               0.001818242               0.000000000               0.000000000               0.000000000               0.000000000              -0.003208370               0.009903541               0.000409022              -0.002441075               0.004114839               0.001673764               0.000000000               0.000000000               0.000000000               0.000000000              -0.003005226               0.009291579               0.000213544              -0.002288401               0.003859963               0.001571561               0.000000000               0.000000000               0.000000000               0.000000000              -0.002674859               0.008634893               0.000107696              -0.002082429               0.003572412               0.001489983               0.000000000               0.000000000               0.000000000               0.000000000              -0.002312683               0.007987492               0.000042394              -0.001865688               0.003284367               0.001418679               0.000000000               0.000000000               0.000000000               0.000000000              -0.001944160               0.007376704              -0.000004942              -0.001651144               0.003009258               0.001358114               0.000000000               0.000000000               0.000000000               0.000000000              -0.001574441               0.006817904              -0.000034444              -0.001442650               0.002753495               0.001310845               0.000000000               0.000000000               0.000000000               0.000000000              -0.001213355               0.006320439              -0.000046690              -0.001245060               0.002521812               0.001276752               0.000000000               0.000000000               0.000000000               0.000000000              -0.000878743               0.005899926              -0.000058980              -0.001067017               0.002322295               0.001255278               0.000000000               0.000000000               0.000000000               0.000000000              -0.000587687               0.005558938              -0.000065498              -0.000915248               0.002158043               0.001242796               0.000000000               0.000000000               0.000000000               0.000000000              -0.000356982               0.005296258              -0.000054014              -0.000795899               0.002030701               0.001234802               0.000000000               0.000000000               0.000000000               0.000000000              -0.000190341               0.005112121              -0.000032974              -0.000710391               0.001940820               0.001230429               0.000000000               0.000000000               0.000000000               0.000000000              -0.000084270               0.005003826              -0.000011738              -0.000657078               0.001886951               0.001229873               0.000000000               0.000000000               0.000000000               0.000000000              -0.000027827               0.004958771               0.000000815              -0.000630280               0.001863000               0.001232720               0.000000000               0.000000000               0.000000000               0.000000000              -0.000011673               0.004949484               0.000002700              -0.000623061               0.001857499               0.001234437               0.000000000               0.000000000               0.000000000               0.000000000              -0.000541471               0.006711077               0.002407388              -0.001041935               0.002584314               0.001542379               0.000000000               0.000000000               0.000000000               0.000000000              -0.002319579               0.008078063               0.001909854              -0.001879596               0.003319192               0.001439596               0.000000000               0.000000000               0.000000000               0.000000000              -0.003709656               0.009444687               0.001323064              -0.002571701               0.004005431               0.001433730               0.000000000               0.000000000               0.000000000               0.000000000              -0.003671814               0.009349243               0.000970138              -0.002545579               0.003964909               0.001419330               0.000000000               0.000000000               0.000000000               0.000000000              -0.003280164               0.008876715               0.000740041              -0.002339645               0.003738757               0.001399112               0.000000000               0.000000000               0.000000000               0.000000000              -0.002809240               0.008294859               0.000581856              -0.002090317               0.003461698               0.001371381               0.000000000               0.000000000               0.000000000               0.000000000              -0.002338737               0.007699910               0.000464804              -0.001839510               0.003179781               0.001340271               0.000000000               0.000000000               0.000000000               0.000000000              -0.001885255               0.007135505               0.000367474              -0.001598905               0.002911446               0.001312541               0.000000000               0.000000000               0.000000000               0.000000000              -0.001442550               0.006615070               0.000287043              -0.001367837               0.002660947               0.001293110               0.000000000               0.000000000               0.000000000               0.000000000              -0.001026231               0.006157098               0.000218820              -0.001154471               0.002437169               0.001282698               0.000000000               0.000000000               0.000000000               0.000000000              -0.000663203               0.005781118               0.000153251              -0.000971338               0.002250800               0.001279461               0.000000000               0.000000000               0.000000000               0.000000000              -0.000377562               0.005478470               0.000097139              -0.000826392               0.002101603               0.001275210               0.000000000               0.000000000               0.000000000               0.000000000              -0.000176660               0.005247307               0.000059851              -0.000722159               0.001989805               0.001267646               0.000000000               0.000000000               0.000000000               0.000000000              -0.000050775               0.005096079               0.000035977              -0.000656049               0.001917359               0.001261310               0.000000000               0.000000000               0.000000000               0.000000000               0.000013869               0.005020137               0.000019238              -0.000622315               0.001880801               0.001258486               0.000000000               0.000000000               0.000000000               0.000000000               0.000029446               0.004994683               0.000007227              -0.000613292               0.001869308               0.001256017               0.000000000               0.000000000               0.000000000               0.000000000               0.000025554               0.004992200               0.000002160              -0.000614441               0.001868864               0.001254423               0.000000000               0.000000000               0.000000000               0.000000000              -0.001949121               0.004610257               0.001463105              -0.001307200               0.001972470               0.000665270               0.000000000               0.000000000               0.000000000               0.000000000              -0.003092035               0.006444439               0.001753122              -0.001965063               0.002803145               0.000838082               0.000000000               0.000000000               0.000000000               0.000000000              -0.004131039               0.008236357               0.001830875              -0.002578678               0.003604984               0.001026306               0.000000000               0.000000000               0.000000000               0.000000000              -0.003953442               0.008534228               0.001566910              -0.002549313               0.003694485               0.001145172               0.000000000               0.000000000               0.000000000               0.000000000              -0.003488338               0.008328656               0.001303791              -0.002349203               0.003559258               0.001210055               0.000000000               0.000000000               0.000000000               0.000000000              -0.002966882               0.007943003               0.001091899              -0.002105451               0.003349458               0.001244007               0.000000000               0.000000000               0.000000000               0.000000000              -0.002456957               0.007493672               0.000918650              -0.001858063               0.003117220               0.001259157               0.000000000               0.000000000               0.000000000               0.000000000              -0.001975517               0.007040804               0.000776216              -0.001620915               0.002887216               0.001266301               0.000000000               0.000000000               0.000000000               0.000000000              -0.001515733               0.006615346               0.000651612              -0.001395315               0.002670198               0.001274883               0.000000000               0.000000000               0.000000000               0.000000000              -0.001080125               0.006228033               0.000530758              -0.001183548               0.002470506               0.001286958               0.000000000               0.000000000               0.000000000               0.000000000              -0.000692654               0.005886909               0.000412367              -0.000995607               0.002294152               0.001298546               0.000000000               0.000000000               0.000000000               0.000000000              -0.000378330               0.005601528               0.000301456              -0.000842063               0.002147845               0.001305782               0.000000000               0.000000000               0.000000000               0.000000000              -0.000150286               0.005368840               0.000206375              -0.000727460               0.002032082               0.001304622               0.000000000               0.000000000               0.000000000               0.000000000              -0.000005872               0.005194314               0.000128620              -0.000651490               0.001948584               0.001297094               0.000000000               0.000000000               0.000000000               0.000000000               0.000066790               0.005079122               0.000065676              -0.000609843               0.001896305               0.001286462               0.000000000               0.000000000               0.000000000               0.000000000               0.000086327               0.005020515               0.000021920              -0.000595190               0.001871885               0.001276695               0.000000000               0.000000000               0.000000000               0.000000000               0.000081738               0.005005949               0.000004545              -0.000595091               0.001866997               0.001271906               0.000000000               0.000000000               0.000000000               0.000000000              -0.003739061               0.002709421               0.000534833              -0.001740822               0.001483404              -0.000257418               0.000000000               0.000000000               0.000000000               0.000000000              -0.003959757               0.004799667               0.001524512              -0.002084863               0.002294826               0.000209964               0.000000000               0.000000000               0.000000000               0.000000000              -0.004456497               0.006819103               0.002233804              -0.002523568               0.003114201               0.000590632               0.000000000               0.000000000               0.000000000               0.000000000              -0.004155122               0.007487731               0.002131497              -0.002494131               0.003327262               0.000833131               0.000000000               0.000000000               0.000000000               0.000000000              -0.003649834               0.007596941               0.001876196              -0.002318300               0.003305055               0.000986755               0.000000000               0.000000000               0.000000000               0.000000000              -0.003108928               0.007454308               0.001630736              -0.002097632               0.003183955               0.001086323               0.000000000               0.000000000               0.000000000               0.000000000              -0.002580037               0.007191200               0.001416212              -0.001866410               0.003019179               0.001152769               0.000000000               0.000000000               0.000000000               0.000000000              -0.002078147               0.006893255               0.001232817              -0.001640958               0.002844715               0.001203756               0.000000000               0.000000000               0.000000000               0.000000000              -0.001609314               0.006592700               0.001069895              -0.001427577               0.002673403               0.001245827               0.000000000               0.000000000               0.000000000               0.000000000              -0.001164328               0.006293609               0.000914261              -0.001223321               0.002505622               0.001282301               0.000000000               0.000000000               0.000000000               0.000000000              -0.000750343               0.006003270               0.000756344              -0.001031785               0.002344998               0.001313213               0.000000000               0.000000000               0.000000000               0.000000000              -0.000390276               0.005741584               0.000597388              -0.000864049               0.002201859               0.001337809               0.000000000               0.000000000               0.000000000               0.000000000              -0.000109725               0.005511392               0.000444044              -0.000730069               0.002080469               0.001350400               0.000000000               0.000000000               0.000000000               0.000000000               0.000082584               0.005313221               0.000302820              -0.000633182               0.001982117               0.001348935               0.000000000               0.000000000               0.000000000               0.000000000               0.000187661               0.005154483               0.000176332              -0.000573936               0.001909456               0.001335520               0.000000000               0.000000000               0.000000000               0.000000000               0.000218426               0.005052799               0.000074297              -0.000549689               0.001867479               0.001317790               0.000000000               0.000000000               0.000000000               0.000000000               0.000207726               0.005012960               0.000027906              -0.000548721               0.001853877               0.001305156               0.000000000               0.000000000               0.000000000               0.000000000              -0.005799463               0.001165576              -0.000291752              -0.002320493               0.001162015              -0.001158478               0.000000000               0.000000000               0.000000000               0.000000000              -0.004975751               0.003253248               0.001206482              -0.002272559               0.001841923              -0.000430636               0.000000000               0.000000000               0.000000000               0.000000000              -0.004726494               0.005212584               0.002413575              -0.002424003               0.002545510               0.000121507               0.000000000               0.000000000               0.000000000               0.000000000              -0.004217278               0.006131387               0.002514668              -0.002347898               0.002826407               0.000478509               0.000000000               0.000000000               0.000000000               0.000000000              -0.003651483               0.006527275               0.002325498              -0.002185211               0.002904139               0.000718929               0.000000000               0.000000000               0.000000000               0.000000000              -0.003094659               0.006637870               0.002085033              -0.001990227               0.002876010               0.000885783               0.000000000               0.000000000               0.000000000               0.000000000              -0.002560705               0.006596091               0.001852897              -0.001784772               0.002793598               0.001008827               0.000000000               0.000000000               0.000000000               0.000000000              -0.002055377               0.006484322               0.001645404              -0.001581303               0.002688520               0.001107217               0.000000000               0.000000000               0.000000000               0.000000000              -0.001576739               0.006337323               0.001462655              -0.001383440               0.002573566               0.001190126               0.000000000               0.000000000               0.000000000               0.000000000              -0.001123339               0.006161501               0.001289153              -0.001191437               0.002450959               0.001259521               0.000000000               0.000000000               0.000000000               0.000000000              -0.000696919               0.005962482               0.001111541              -0.001006653               0.002323025               0.001316372               0.000000000               0.000000000               0.000000000               0.000000000              -0.000305645               0.005756455               0.000924103              -0.000834172               0.002196856               0.001362684               0.000000000               0.000000000               0.000000000               0.000000000               0.000025838               0.005551759               0.000731668              -0.000684279               0.002078661               0.001394382               0.000000000               0.000000000               0.000000000               0.000000000               0.000278436               0.005359875               0.000539137              -0.000565569               0.001975130               0.001409561               0.000000000               0.000000000               0.000000000               0.000000000               0.000440356               0.005196452               0.000346294              -0.000484422               0.001893607               0.001409185               0.000000000               0.000000000               0.000000000               0.000000000               0.000502989               0.005078219               0.000164200              -0.000446155               0.001841441               0.001395286               0.000000000               0.000000000               0.000000000               0.000000000               0.000494178               0.005024641               0.000074377              -0.000442762               0.001822451               0.001379689               0.000000000               0.000000000               0.000000000               0.000000000              -0.007984259               0.000055733              -0.000891769              -0.003001061               0.001018924              -0.001982137               0.000000000               0.000000000               0.000000000               0.000000000              -0.006084881               0.001886613               0.000846594              -0.002517653               0.001468078              -0.001049575               0.000000000               0.000000000               0.000000000               0.000000000              -0.004968530               0.003553515               0.002336679              -0.002307384               0.001953619              -0.000353765               0.000000000               0.000000000               0.000000000               0.000000000              -0.004163041               0.004587668               0.002624420              -0.002134595               0.002240737               0.000106143               0.000000000               0.000000000               0.000000000               0.000000000              -0.003499784               0.005203906               0.002537215              -0.001962903               0.002388918               0.000426015               0.000000000               0.000000000               0.000000000               0.000000000              -0.002920839               0.005551706               0.002341157              -0.001789274               0.002446974               0.000657700               0.000000000               0.000000000               0.000000000               0.000000000              -0.002389939               0.005739778               0.002122513              -0.001613696               0.002451138               0.000837442               0.000000000               0.000000000               0.000000000               0.000000000              -0.001888852               0.005828197               0.001916363              -0.001436841               0.002421660               0.000984818               0.000000000               0.000000000               0.000000000               0.000000000              -0.001415470               0.005843252               0.001732714              -0.001261205               0.002368133               0.001106927               0.000000000               0.000000000               0.000000000               0.000000000              -0.000962612               0.005805133               0.001558019              -0.001086619               0.002297231               0.001210612               0.000000000               0.000000000               0.000000000               0.000000000              -0.000526264               0.005723805               0.001380403              -0.000912823               0.002212190               0.001299367               0.000000000               0.000000000               0.000000000               0.000000000              -0.000109147               0.005608647               0.001191125              -0.000742010               0.002116867               0.001374857               0.000000000               0.000000000               0.000000000               0.000000000               0.000275898               0.005472321               0.000988671              -0.000580578               0.002017614               0.001437037               0.000000000               0.000000000               0.000000000               0.000000000               0.000606801               0.005329197               0.000771812              -0.000438599               0.001922581               0.001483982               0.000000000               0.000000000               0.000000000               0.000000000               0.000860883               0.005198310               0.000531284              -0.000326957               0.001841738               0.001514781               0.000000000               0.000000000               0.000000000               0.000000000               0.001012219               0.005091972               0.000270149              -0.000256914               0.001782945               0.001526031               0.000000000               0.000000000               0.000000000               0.000000000               0.001054116               0.005043005               0.000135927              -0.000235082               0.001759345               0.001524264               0.000000000               0.000000000               0.000000000               0.000000000              -0.010075875              -0.000642334              -0.001158211              -0.003698159               0.001018601              -0.002679558               0.000000000               0.000000000               0.000000000               0.000000000              -0.007188988               0.000779258               0.000511727              -0.002793275               0.001190836              -0.001602439               0.000000000               0.000000000               0.000000000               0.000000000              -0.005193214               0.002014159               0.002004747              -0.002199222               0.001404450              -0.000794772               0.000000000               0.000000000               0.000000000               0.000000000              -0.004033405               0.003042108               0.002398866              -0.001892787               0.001644953              -0.000247835               0.000000000               0.000000000               0.000000000               0.000000000              -0.003240521               0.003798310               0.002407008              -0.001689981               0.001829416               0.000139435               0.000000000               0.000000000               0.000000000               0.000000000              -0.002623514               0.004338956               0.002279953              -0.001526185               0.001955031               0.000428847               0.000000000               0.000000000               0.000000000               0.000000000              -0.002087757               0.004721286               0.002109604              -0.001373067               0.002031435               0.000658367               0.000000000               0.000000000               0.000000000               0.000000000              -0.001597068               0.004984370               0.001932730              -0.001221944               0.002068754               0.000846810               0.000000000               0.000000000               0.000000000               0.000000000              -0.001139483               0.005158203               0.001766509              -0.001072080               0.002076743               0.001004663               0.000000000               0.000000000               0.000000000               0.000000000              -0.000696928               0.005266349               0.001612092              -0.000919640               0.002061978               0.001142338               0.000000000               0.000000000               0.000000000               0.000000000              -0.000254926               0.005318883               0.001458089              -0.000760456               0.002026428               0.001265972               0.000000000               0.000000000               0.000000000               0.000000000               0.000186589               0.005326245               0.001292304              -0.000595809               0.001974000               0.001378191               0.000000000               0.000000000               0.000000000               0.000000000               0.000623664               0.005297581               0.001110210              -0.000428323               0.001908617               0.001480294               0.000000000               0.000000000               0.000000000               0.000000000               0.001042478               0.005239149               0.000903340              -0.000263964               0.001834353               0.001570389               0.000000000               0.000000000               0.000000000               0.000000000               0.001423355               0.005160522               0.000652888              -0.000111307               0.001757259               0.001645952               0.000000000               0.000000000               0.000000000               0.000000000               0.001742771               0.005080683               0.000350405               0.000018453               0.001687393               0.001705846               0.000000000               0.000000000               0.000000000               0.000000000               0.001918100               0.005056835               0.000193475               0.000087182               0.001656534               0.001743716               0.000000000               0.000000000               0.000000000               0.000000000              -0.011825091              -0.001012401              -0.001053805              -0.004307856               0.001098477              -0.003209379               0.000000000               0.000000000               0.000000000               0.000000000              -0.008142060              -0.000020614               0.000255939              -0.003050693               0.001010019              -0.002040674               0.000000000               0.000000000               0.000000000               0.000000000              -0.005388686               0.000765288               0.001460587              -0.002116416               0.000960561              -0.001155855               0.000000000               0.000000000               0.000000000               0.000000000              -0.003890169               0.001712867               0.001831910              -0.001672919               0.001128587              -0.000544333               0.000000000               0.000000000               0.000000000               0.000000000              -0.002953377               0.002536400               0.001888487              -0.001424564               0.001320311              -0.000104252               0.000000000               0.000000000               0.000000000               0.000000000              -0.002278965               0.003199580               0.001828281              -0.001254557               0.001484701               0.000230144               0.000000000               0.000000000               0.000000000               0.000000000              -0.001732390               0.003718416               0.001721144              -0.001114446               0.001610941               0.000496495               0.000000000               0.000000000               0.000000000               0.000000000              -0.001252705               0.004118504               0.001595687              -0.000984576               0.001701012               0.000716436               0.000000000               0.000000000               0.000000000               0.000000000              -0.000805709               0.004430368               0.001473621              -0.000855936               0.001762086               0.000906150               0.000000000               0.000000000               0.000000000               0.000000000              -0.000367788               0.004674203               0.001363334              -0.000722195               0.001798783               0.001076588               0.000000000               0.000000000               0.000000000               0.000000000               0.000074880               0.004853772               0.001252632              -0.000578641               0.001810788               0.001232147               0.000000000               0.000000000               0.000000000               0.000000000               0.000534145               0.004982718               0.001130534              -0.000422535               0.001801734               0.001379199               0.000000000               0.000000000               0.000000000               0.000000000               0.001016613               0.005066039               0.000992992              -0.000252025               0.001772671               0.001520646               0.000000000               0.000000000               0.000000000               0.000000000               0.001520416               0.005099046               0.000829010              -0.000067225               0.001722073               0.001654848               0.000000000               0.000000000               0.000000000               0.000000000               0.002044853               0.005085820               0.000620310               0.000131091               0.001651560               0.001782650               0.000000000               0.000000000               0.000000000               0.000000000               0.002586876               0.005047000               0.000345452               0.000339200               0.001569250               0.001908450               0.000000000               0.000000000               0.000000000               0.000000000               0.002962743               0.005062265               0.000202160               0.000478241               0.001527991               0.002006232               0.000000000               0.000000000               0.000000000               0.000000000              -0.012995975              -0.001169154              -0.000624609              -0.004727344               0.001186055              -0.003541288               0.000000000               0.000000000               0.000000000               0.000000000              -0.008792467              -0.000497208               0.000094827              -0.003235022               0.000912598              -0.002322423               0.000000000               0.000000000               0.000000000               0.000000000              -0.005527723              -0.000045194               0.000768120              -0.002067245               0.000674012              -0.001393233               0.000000000               0.000000000               0.000000000               0.000000000              -0.003786249               0.000811520               0.000991820              -0.001521282               0.000777595              -0.000743687               0.000000000               0.000000000               0.000000000               0.000000000              -0.002728322               0.001650154               0.001040269              -0.001229388               0.000959841              -0.000269547               0.000000000               0.000000000               0.000000000               0.000000000              -0.002004299               0.002376691               0.001021589              -0.001048696               0.001141788               0.000093091               0.000000000               0.000000000               0.000000000               0.000000000              -0.001451010               0.002980870               0.000971460              -0.000916736               0.001299192               0.000382456               0.000000000               0.000000000               0.000000000               0.000000000              -0.000975789               0.003473204               0.000908429              -0.000800070               0.001424413               0.000624343               0.000000000               0.000000000               0.000000000               0.000000000              -0.000528664               0.003877009               0.000847633              -0.000682874               0.001519948               0.000837074               0.000000000               0.000000000               0.000000000               0.000000000              -0.000089130               0.004207912               0.000792706              -0.000559412               0.001589094               0.001029682               0.000000000               0.000000000               0.000000000               0.000000000               0.000355849               0.004471525               0.000735214              -0.000425497               0.001632326               0.001206829               0.000000000               0.000000000               0.000000000               0.000000000               0.000829918               0.004685322               0.000669779              -0.000274446               0.001653240               0.001378795               0.000000000               0.000000000               0.000000000               0.000000000               0.001346553               0.004846256               0.000594775              -0.000100825               0.001649011               0.001548186               0.000000000               0.000000000               0.000000000               0.000000000               0.001917445               0.004948624               0.000504262               0.000100463               0.001616037               0.001716500               0.000000000               0.000000000               0.000000000               0.000000000               0.002561090               0.005001801               0.000385813               0.000335180               0.001555523               0.001890704               0.000000000               0.000000000               0.000000000               0.000000000               0.003299315               0.005011447               0.000219526               0.000610806               0.001466864               0.002077670               0.000000000               0.000000000               0.000000000               0.000000000               0.003865869               0.005066142               0.000132717               0.000816425               0.001416556               0.002232980               0.000000000               0.000000000               0.000000000               0.000000000               0.000000000               0.000000000               0.000000000               0.000000000               0.000000000               0.000000000               0.000000000               0.000000000               0.000000000               0.000000000               0.000000000               0.000000000               0.000000000               0.000000000               0.000000000               0.000000000               0.000000000               0.000000000               0.000000000               0.000000000               0.000000000               0.000000000               0.000000000               0.000000000               0.000000000               0.000000000               0.000000000               0.000000000               0.000000000               0.000000000               0.000000000               0.000000000               0.000000000               0.000000000               0.000000000               0.000000000               0.000000000               0.000000000               0.000000000               0.000000000               0.000000000               0.000000000               0.000000000               0.000000000               0.000000000               0.000000000               0.000000000               0.000000000               0.000000000               0.000000000               0.000000000               0.000000000               0.000000000               0.000000000               0.000000000               0.000000000               0.000000000               0.000000000               0.000000000               0.000000000               0.000000000               0.000000000               0.000000000               0.000000000               0.000000000               0.000000000               0.000000000               0.000000000               0.000000000               0.000000000               0.000000000               0.000000000               0.000000000               0.000000000               0.000000000               0.000000000               0.000000000               0.000000000               0.000000000               0.000000000               0.000000000               0.000000000               0.000000000               0.000000000               0.000000000               0.000000000               0.000000000               0.000000000               0.000000000               0.000000000               0.000000000               0.000000000               0.000000000               0.000000000               0.000000000               0.000000000               0.000000000               0.000000000               0.000000000               0.000000000               0.000000000               0.000000000               0.000000000               0.000000000               0.000000000               0.000000000               0.000000000               0.000000000               0.000000000               0.000000000               0.000000000               0.000000000               0.000000000               0.000000000               0.000000000               0.000000000               0.000000000               0.000000000               0.000000000               0.000000000               0.000000000               0.000000000               0.000000000               0.000000000               0.000000000               0.000000000               0.000000000               0.000000000               0.000000000               0.000000000               0.000000000               0.000000000               0.000000000               0.000000000               0.000000000               0.000000000               0.000000000               0.000000000               0.000000000               0.000000000               0.000000000               0.000000000               0.000000000               0.000000000               0.000000000               0.000000000               0.000000000               0.000000000               0.000000000               0.000000000               0.000000000               0.000000000               0.000000000               0.000000000               0.000000000               0.000000000               0.000000000               0.000000000               0.000000000               0.000000000               0.000000000               0.000000000               0.000000000               0.000000000               0.000000000               0.000000000               0.000000000               0.000000000               0.000000000               0.000000000 </DataArray>
</PointData>
</Piece>
</UnstructuredGrid> </VTKFile>
