<?xml version="1.0"?>
<VTKFile type="UnstructuredGrid" version="0.1">
<UnstructuredGrid>
<Piece NumberOfPoints="      1156" NumberOfCells="      1024">
<Points>
<DataArray type="Float64"                                    Name="coordinates"                                                      NumberOfComponents=" 3" format="ascii">
              0.133000000               0.000000000               0.000000000               0.155937500               0.000000000               0.000000000               0.178875000               0.000000000               0.000000000               0.201812500               0.000000000               0.000000000               0.224750000               0.000000000               0.000000000               0.247687500               0.000000000               0.000000000               0.270625000               0.000000000               0.000000000               0.293562500               0.000000000               0.000000000               0.316500000               0.000000000               0.000000000               0.339437500               0.000000000               0.000000000               0.362375000               0.000000000               0.000000000               0.385312500               0.000000000               0.000000000               0.408250000               0.000000000               0.000000000               0.431187500               0.000000000               0.000000000               0.454125000               0.000000000               0.000000000               0.477062500               0.000000000               0.000000000               0.500000000               0.000000000               0.000000000               0.132359569               0.013036280               0.000000000               0.155337096               0.016127762               0.000000000               0.178314623               0.019219245               0.000000000               0.201292150               0.022310727               0.000000000               0.224269676               0.025402210               0.000000000               0.247247203               0.028493692               0.000000000               0.270224730               0.031585175               0.000000000               0.293202257               0.034676657               0.000000000               0.316179784               0.037768140               0.000000000               0.339157311               0.040859622               0.000000000               0.362134838               0.043951105               0.000000000               0.385112365               0.047042587               0.000000000               0.408089892               0.050134070               0.000000000               0.431067419               0.053225552               0.000000000               0.454044946               0.056317035               0.000000000               0.477022473               0.059408517               0.000000000               0.500000000               0.062500000               0.000000000               0.130444442               0.025947013               0.000000000               0.153541665               0.032137825               0.000000000               0.176638887               0.038328636               0.000000000               0.199736109               0.044519448               0.000000000               0.222833332               0.050710260               0.000000000               0.245930554               0.056901071               0.000000000               0.269027776               0.063091883               0.000000000               0.292124999               0.069282695               0.000000000               0.315222221               0.075473506               0.000000000               0.338319444               0.081664318               0.000000000               0.361416666               0.087855130               0.000000000               0.384513888               0.094045942               0.000000000               0.407611111               0.100236753               0.000000000               0.430708333               0.106427565               0.000000000               0.453805555               0.112618377               0.000000000               0.476902778               0.118809188               0.000000000               0.500000000               0.125000000               0.000000000               0.127273065               0.038607862               0.000000000               0.150568498               0.047913621               0.000000000               0.173863932               0.057219379               0.000000000               0.197159365               0.066525138               0.000000000               0.220454798               0.075830897               0.000000000               0.243750232               0.085136655               0.000000000               0.267045665               0.094442414               0.000000000               0.290341099               0.103748172               0.000000000               0.313636532               0.113053931               0.000000000               0.336931966               0.122359690               0.000000000               0.360227399               0.131665448               0.000000000               0.383522833               0.140971207               0.000000000               0.406818266               0.150276966               0.000000000               0.430113700               0.159582724               0.000000000               0.453409133               0.168888483               0.000000000               0.476704567               0.178194241               0.000000000               0.500000000               0.187500000               0.000000000               0.122875978               0.050896897               0.000000000               0.146446229               0.063340840               0.000000000               0.170016481               0.075784784               0.000000000               0.193586732               0.088228728               0.000000000               0.217156983               0.100672672               0.000000000               0.240727235               0.113116616               0.000000000               0.264297486               0.125560560               0.000000000               0.287867738               0.138004504               0.000000000               0.311437989               0.150448448               0.000000000               0.335008240               0.162892392               0.000000000               0.358578492               0.175336336               0.000000000               0.382148743               0.187780280               0.000000000               0.405718994               0.200224224               0.000000000               0.429289246               0.212668168               0.000000000               0.452859497               0.225112112               0.000000000               0.476429749               0.237556056               0.000000000               0.500000000               0.250000000               0.000000000               0.117295528               0.062695766               0.000000000               0.141214558               0.078308531               0.000000000               0.165133587               0.093921295               0.000000000               0.189052617               0.109534060               0.000000000               0.212971646               0.125146824               0.000000000               0.236890676               0.140759589               0.000000000               0.260809705               0.156372354               0.000000000               0.284728735               0.171985118               0.000000000               0.308647764               0.187597883               0.000000000               0.332566794               0.203210648               0.000000000               0.356485823               0.218823412               0.000000000               0.380404853               0.234436177               0.000000000               0.404323882               0.250048941               0.000000000               0.428242912               0.265661706               0.000000000               0.452161941               0.281274471               0.000000000               0.476080971               0.296887235               0.000000000               0.500000000               0.312500000               0.000000000               0.110585458               0.073890841               0.000000000               0.134923867               0.092710163               0.000000000               0.159262276               0.111529486               0.000000000               0.183600685               0.130348808               0.000000000               0.207939094               0.149168131               0.000000000               0.232277503               0.167987453               0.000000000               0.256615912               0.186806776               0.000000000               0.280954320               0.205626098               0.000000000               0.305292729               0.224445420               0.000000000               0.329631138               0.243264743               0.000000000               0.353969547               0.262084065               0.000000000               0.378307956               0.280903388               0.000000000               0.402646365               0.299722710               0.000000000               0.426984773               0.318542033               0.000000000               0.451323182               0.337361355               0.000000000               0.475661591               0.356180678               0.000000000               0.500000000               0.375000000               0.000000000               0.102810390               0.084374307               0.000000000               0.127634741               0.106444663               0.000000000               0.152459092               0.128515018               0.000000000               0.177283442               0.150585374               0.000000000               0.202107793               0.172655730               0.000000000               0.226932143               0.194726086               0.000000000               0.251756494               0.216796442               0.000000000               0.276580845               0.238866798               0.000000000               0.301405195               0.260937153               0.000000000               0.326229546               0.283007509               0.000000000               0.351053896               0.305077865               0.000000000               0.375878247               0.327148221               0.000000000               0.400702598               0.349218577               0.000000000               0.425526948               0.371288933               0.000000000               0.450351299               0.393359288               0.000000000               0.475175649               0.415429644               0.000000000               0.500000000               0.437500000               0.000000000               0.094045202               0.094045202               0.000000000               0.119417377               0.119417377               0.000000000               0.144789552               0.144789552               0.000000000               0.170161727               0.170161727               0.000000000               0.195533901               0.195533901               0.000000000               0.220906076               0.220906076               0.000000000               0.246278251               0.246278251               0.000000000               0.271650426               0.271650426               0.000000000               0.297022601               0.297022601               0.000000000               0.322394776               0.322394776               0.000000000               0.347766951               0.347766951               0.000000000               0.373139126               0.373139126               0.000000000               0.398511300               0.398511300               0.000000000               0.423883475               0.423883475               0.000000000               0.449255650               0.449255650               0.000000000               0.474627825               0.474627825               0.000000000               0.500000000               0.500000000               0.000000000               0.084374307               0.102810390               0.000000000               0.106444663               0.127634741               0.000000000               0.128515018               0.152459092               0.000000000               0.150585374               0.177283442               0.000000000               0.172655730               0.202107793               0.000000000               0.194726086               0.226932143               0.000000000               0.216796442               0.251756494               0.000000000               0.238866798               0.276580845               0.000000000               0.260937153               0.301405195               0.000000000               0.283007509               0.326229546               0.000000000               0.305077865               0.351053896               0.000000000               0.327148221               0.375878247               0.000000000               0.349218577               0.400702598               0.000000000               0.371288933               0.425526948               0.000000000               0.393359288               0.450351299               0.000000000               0.415429644               0.475175649               0.000000000               0.437500000               0.500000000               0.000000000               0.073890841               0.110585458               0.000000000               0.092710163               0.134923867               0.000000000               0.111529486               0.159262276               0.000000000               0.130348808               0.183600685               0.000000000               0.149168131               0.207939094               0.000000000               0.167987453               0.232277503               0.000000000               0.186806776               0.256615912               0.000000000               0.205626098               0.280954320               0.000000000               0.224445420               0.305292729               0.000000000               0.243264743               0.329631138               0.000000000               0.262084065               0.353969547               0.000000000               0.280903388               0.378307956               0.000000000               0.299722710               0.402646365               0.000000000               0.318542033               0.426984773               0.000000000               0.337361355               0.451323182               0.000000000               0.356180678               0.475661591               0.000000000               0.375000000               0.500000000               0.000000000               0.062695766               0.117295528               0.000000000               0.078308531               0.141214558               0.000000000               0.093921295               0.165133587               0.000000000               0.109534060               0.189052617               0.000000000               0.125146824               0.212971646               0.000000000               0.140759589               0.236890676               0.000000000               0.156372354               0.260809705               0.000000000               0.171985118               0.284728735               0.000000000               0.187597883               0.308647764               0.000000000               0.203210648               0.332566794               0.000000000               0.218823412               0.356485823               0.000000000               0.234436177               0.380404853               0.000000000               0.250048941               0.404323882               0.000000000               0.265661706               0.428242912               0.000000000               0.281274471               0.452161941               0.000000000               0.296887235               0.476080971               0.000000000               0.312500000               0.500000000               0.000000000               0.050896897               0.122875978               0.000000000               0.063340840               0.146446229               0.000000000               0.075784784               0.170016481               0.000000000               0.088228728               0.193586732               0.000000000               0.100672672               0.217156983               0.000000000               0.113116616               0.240727235               0.000000000               0.125560560               0.264297486               0.000000000               0.138004504               0.287867738               0.000000000               0.150448448               0.311437989               0.000000000               0.162892392               0.335008240               0.000000000               0.175336336               0.358578492               0.000000000               0.187780280               0.382148743               0.000000000               0.200224224               0.405718994               0.000000000               0.212668168               0.429289246               0.000000000               0.225112112               0.452859497               0.000000000               0.237556056               0.476429749               0.000000000               0.250000000               0.500000000               0.000000000               0.038607862               0.127273065               0.000000000               0.047913621               0.150568498               0.000000000               0.057219379               0.173863932               0.000000000               0.066525138               0.197159365               0.000000000               0.075830897               0.220454798               0.000000000               0.085136655               0.243750232               0.000000000               0.094442414               0.267045665               0.000000000               0.103748172               0.290341099               0.000000000               0.113053931               0.313636532               0.000000000               0.122359690               0.336931966               0.000000000               0.131665448               0.360227399               0.000000000               0.140971207               0.383522833               0.000000000               0.150276966               0.406818266               0.000000000               0.159582724               0.430113700               0.000000000               0.168888483               0.453409133               0.000000000               0.178194241               0.476704567               0.000000000               0.187500000               0.500000000               0.000000000               0.025947013               0.130444442               0.000000000               0.032137825               0.153541665               0.000000000               0.038328636               0.176638887               0.000000000               0.044519448               0.199736109               0.000000000               0.050710260               0.222833332               0.000000000               0.056901071               0.245930554               0.000000000               0.063091883               0.269027776               0.000000000               0.069282695               0.292124999               0.000000000               0.075473506               0.315222221               0.000000000               0.081664318               0.338319444               0.000000000               0.087855130               0.361416666               0.000000000               0.094045942               0.384513888               0.000000000               0.100236753               0.407611111               0.000000000               0.106427565               0.430708333               0.000000000               0.112618377               0.453805555               0.000000000               0.118809188               0.476902778               0.000000000               0.125000000               0.500000000               0.000000000               0.013036280               0.132359569               0.000000000               0.016127762               0.155337096               0.000000000               0.019219245               0.178314623               0.000000000               0.022310727               0.201292150               0.000000000               0.025402210               0.224269676               0.000000000               0.028493692               0.247247203               0.000000000               0.031585175               0.270224730               0.000000000               0.034676657               0.293202257               0.000000000               0.037768140               0.316179784               0.000000000               0.040859622               0.339157311               0.000000000               0.043951105               0.362134838               0.000000000               0.047042587               0.385112365               0.000000000               0.050134070               0.408089892               0.000000000               0.053225552               0.431067419               0.000000000               0.056317035               0.454044946               0.000000000               0.059408517               0.477022473               0.000000000               0.062500000               0.500000000               0.000000000               0.000000000               0.133000000               0.000000000               0.000000000               0.155937500               0.000000000               0.000000000               0.178875000               0.000000000               0.000000000               0.201812500               0.000000000               0.000000000               0.224750000               0.000000000               0.000000000               0.247687500               0.000000000               0.000000000               0.270625000               0.000000000               0.000000000               0.293562500               0.000000000               0.000000000               0.316500000               0.000000000               0.000000000               0.339437500               0.000000000               0.000000000               0.362375000               0.000000000               0.000000000               0.385312500               0.000000000               0.000000000               0.408250000               0.000000000               0.000000000               0.431187500               0.000000000               0.000000000               0.454125000               0.000000000               0.000000000               0.477062500               0.000000000               0.000000000               0.500000000               0.000000000               0.133000000               0.000000000               0.000000000               0.155937500               0.000000000               0.000000000               0.178875000               0.000000000               0.000000000               0.201812500               0.000000000               0.000000000               0.224750000               0.000000000               0.000000000               0.247687500               0.000000000               0.000000000               0.270625000               0.000000000               0.000000000               0.293562500               0.000000000               0.000000000               0.316500000               0.000000000               0.000000000               0.339437500               0.000000000               0.000000000               0.362375000               0.000000000               0.000000000               0.385312500               0.000000000               0.000000000               0.408250000               0.000000000               0.000000000               0.431187500               0.000000000               0.000000000               0.454125000               0.000000000               0.000000000               0.477062500               0.000000000               0.000000000               0.500000000               0.000000000               0.000000000               0.132359569              -0.013036280               0.000000000               0.155337096              -0.016127762               0.000000000               0.178314623              -0.019219245               0.000000000               0.201292150              -0.022310727               0.000000000               0.224269676              -0.025402210               0.000000000               0.247247203              -0.028493692               0.000000000               0.270224730              -0.031585175               0.000000000               0.293202257              -0.034676657               0.000000000               0.316179784              -0.037768140               0.000000000               0.339157311              -0.040859622               0.000000000               0.362134838              -0.043951105               0.000000000               0.385112365              -0.047042587               0.000000000               0.408089892              -0.050134070               0.000000000               0.431067419              -0.053225552               0.000000000               0.454044946              -0.056317035               0.000000000               0.477022473              -0.059408517               0.000000000               0.500000000              -0.062500000               0.000000000               0.130444442              -0.025947013               0.000000000               0.153541665              -0.032137825               0.000000000               0.176638887              -0.038328636               0.000000000               0.199736109              -0.044519448               0.000000000               0.222833332              -0.050710260               0.000000000               0.245930554              -0.056901071               0.000000000               0.269027776              -0.063091883               0.000000000               0.292124999              -0.069282695               0.000000000               0.315222221              -0.075473506               0.000000000               0.338319444              -0.081664318               0.000000000               0.361416666              -0.087855130               0.000000000               0.384513888              -0.094045942               0.000000000               0.407611111              -0.100236753               0.000000000               0.430708333              -0.106427565               0.000000000               0.453805555              -0.112618377               0.000000000               0.476902778              -0.118809188               0.000000000               0.500000000              -0.125000000               0.000000000               0.127273065              -0.038607862               0.000000000               0.150568498              -0.047913621               0.000000000               0.173863932              -0.057219379               0.000000000               0.197159365              -0.066525138               0.000000000               0.220454798              -0.075830897               0.000000000               0.243750232              -0.085136655               0.000000000               0.267045665              -0.094442414               0.000000000               0.290341099              -0.103748172               0.000000000               0.313636532              -0.113053931               0.000000000               0.336931966              -0.122359690               0.000000000               0.360227399              -0.131665448               0.000000000               0.383522833              -0.140971207               0.000000000               0.406818266              -0.150276966               0.000000000               0.430113700              -0.159582724               0.000000000               0.453409133              -0.168888483               0.000000000               0.476704567              -0.178194241               0.000000000               0.500000000              -0.187500000               0.000000000               0.122875978              -0.050896897               0.000000000               0.146446229              -0.063340840               0.000000000               0.170016481              -0.075784784               0.000000000               0.193586732              -0.088228728               0.000000000               0.217156983              -0.100672672               0.000000000               0.240727235              -0.113116616               0.000000000               0.264297486              -0.125560560               0.000000000               0.287867738              -0.138004504               0.000000000               0.311437989              -0.150448448               0.000000000               0.335008240              -0.162892392               0.000000000               0.358578492              -0.175336336               0.000000000               0.382148743              -0.187780280               0.000000000               0.405718994              -0.200224224               0.000000000               0.429289246              -0.212668168               0.000000000               0.452859497              -0.225112112               0.000000000               0.476429749              -0.237556056               0.000000000               0.500000000              -0.250000000               0.000000000               0.117295528              -0.062695766               0.000000000               0.141214558              -0.078308531               0.000000000               0.165133587              -0.093921295               0.000000000               0.189052617              -0.109534060               0.000000000               0.212971646              -0.125146824               0.000000000               0.236890676              -0.140759589               0.000000000               0.260809705              -0.156372354               0.000000000               0.284728735              -0.171985118               0.000000000               0.308647764              -0.187597883               0.000000000               0.332566794              -0.203210648               0.000000000               0.356485823              -0.218823412               0.000000000               0.380404853              -0.234436177               0.000000000               0.404323882              -0.250048941               0.000000000               0.428242912              -0.265661706               0.000000000               0.452161941              -0.281274471               0.000000000               0.476080971              -0.296887235               0.000000000               0.500000000              -0.312500000               0.000000000               0.110585458              -0.073890841               0.000000000               0.134923867              -0.092710163               0.000000000               0.159262276              -0.111529486               0.000000000               0.183600685              -0.130348808               0.000000000               0.207939094              -0.149168131               0.000000000               0.232277503              -0.167987453               0.000000000               0.256615912              -0.186806776               0.000000000               0.280954320              -0.205626098               0.000000000               0.305292729              -0.224445420               0.000000000               0.329631138              -0.243264743               0.000000000               0.353969547              -0.262084065               0.000000000               0.378307956              -0.280903388               0.000000000               0.402646365              -0.299722710               0.000000000               0.426984773              -0.318542033               0.000000000               0.451323182              -0.337361355               0.000000000               0.475661591              -0.356180678               0.000000000               0.500000000              -0.375000000               0.000000000               0.102810390              -0.084374307               0.000000000               0.127634741              -0.106444663               0.000000000               0.152459092              -0.128515018               0.000000000               0.177283442              -0.150585374               0.000000000               0.202107793              -0.172655730               0.000000000               0.226932143              -0.194726086               0.000000000               0.251756494              -0.216796442               0.000000000               0.276580845              -0.238866798               0.000000000               0.301405195              -0.260937153               0.000000000               0.326229546              -0.283007509               0.000000000               0.351053896              -0.305077865               0.000000000               0.375878247              -0.327148221               0.000000000               0.400702598              -0.349218577               0.000000000               0.425526948              -0.371288933               0.000000000               0.450351299              -0.393359288               0.000000000               0.475175649              -0.415429644               0.000000000               0.500000000              -0.437500000               0.000000000               0.094045202              -0.094045202               0.000000000               0.119417377              -0.119417377               0.000000000               0.144789552              -0.144789552               0.000000000               0.170161727              -0.170161727               0.000000000               0.195533901              -0.195533901               0.000000000               0.220906076              -0.220906076               0.000000000               0.246278251              -0.246278251               0.000000000               0.271650426              -0.271650426               0.000000000               0.297022601              -0.297022601               0.000000000               0.322394776              -0.322394776               0.000000000               0.347766951              -0.347766951               0.000000000               0.373139126              -0.373139126               0.000000000               0.398511300              -0.398511300               0.000000000               0.423883475              -0.423883475               0.000000000               0.449255650              -0.449255650               0.000000000               0.474627825              -0.474627825               0.000000000               0.500000000              -0.500000000               0.000000000               0.084374307              -0.102810390               0.000000000               0.106444663              -0.127634741               0.000000000               0.128515018              -0.152459092               0.000000000               0.150585374              -0.177283442               0.000000000               0.172655730              -0.202107793               0.000000000               0.194726086              -0.226932143               0.000000000               0.216796442              -0.251756494               0.000000000               0.238866798              -0.276580845               0.000000000               0.260937153              -0.301405195               0.000000000               0.283007509              -0.326229546               0.000000000               0.305077865              -0.351053896               0.000000000               0.327148221              -0.375878247               0.000000000               0.349218577              -0.400702598               0.000000000               0.371288933              -0.425526948               0.000000000               0.393359288              -0.450351299               0.000000000               0.415429644              -0.475175649               0.000000000               0.437500000              -0.500000000               0.000000000               0.073890841              -0.110585458               0.000000000               0.092710163              -0.134923867               0.000000000               0.111529486              -0.159262276               0.000000000               0.130348808              -0.183600685               0.000000000               0.149168131              -0.207939094               0.000000000               0.167987453              -0.232277503               0.000000000               0.186806776              -0.256615912               0.000000000               0.205626098              -0.280954320               0.000000000               0.224445420              -0.305292729               0.000000000               0.243264743              -0.329631138               0.000000000               0.262084065              -0.353969547               0.000000000               0.280903388              -0.378307956               0.000000000               0.299722710              -0.402646365               0.000000000               0.318542033              -0.426984773               0.000000000               0.337361355              -0.451323182               0.000000000               0.356180678              -0.475661591               0.000000000               0.375000000              -0.500000000               0.000000000               0.062695766              -0.117295528               0.000000000               0.078308531              -0.141214558               0.000000000               0.093921295              -0.165133587               0.000000000               0.109534060              -0.189052617               0.000000000               0.125146824              -0.212971646               0.000000000               0.140759589              -0.236890676               0.000000000               0.156372354              -0.260809705               0.000000000               0.171985118              -0.284728735               0.000000000               0.187597883              -0.308647764               0.000000000               0.203210648              -0.332566794               0.000000000               0.218823412              -0.356485823               0.000000000               0.234436177              -0.380404853               0.000000000               0.250048941              -0.404323882               0.000000000               0.265661706              -0.428242912               0.000000000               0.281274471              -0.452161941               0.000000000               0.296887235              -0.476080971               0.000000000               0.312500000              -0.500000000               0.000000000               0.050896897              -0.122875978               0.000000000               0.063340840              -0.146446229               0.000000000               0.075784784              -0.170016481               0.000000000               0.088228728              -0.193586732               0.000000000               0.100672672              -0.217156983               0.000000000               0.113116616              -0.240727235               0.000000000               0.125560560              -0.264297486               0.000000000               0.138004504              -0.287867738               0.000000000               0.150448448              -0.311437989               0.000000000               0.162892392              -0.335008240               0.000000000               0.175336336              -0.358578492               0.000000000               0.187780280              -0.382148743               0.000000000               0.200224224              -0.405718994               0.000000000               0.212668168              -0.429289246               0.000000000               0.225112112              -0.452859497               0.000000000               0.237556056              -0.476429749               0.000000000               0.250000000              -0.500000000               0.000000000               0.038607862              -0.127273065               0.000000000               0.047913621              -0.150568498               0.000000000               0.057219379              -0.173863932               0.000000000               0.066525138              -0.197159365               0.000000000               0.075830897              -0.220454798               0.000000000               0.085136655              -0.243750232               0.000000000               0.094442414              -0.267045665               0.000000000               0.103748172              -0.290341099               0.000000000               0.113053931              -0.313636532               0.000000000               0.122359690              -0.336931966               0.000000000               0.131665448              -0.360227399               0.000000000               0.140971207              -0.383522833               0.000000000               0.150276966              -0.406818266               0.000000000               0.159582724              -0.430113700               0.000000000               0.168888483              -0.453409133               0.000000000               0.178194241              -0.476704567               0.000000000               0.187500000              -0.500000000               0.000000000               0.025947013              -0.130444442               0.000000000               0.032137825              -0.153541665               0.000000000               0.038328636              -0.176638887               0.000000000               0.044519448              -0.199736109               0.000000000               0.050710260              -0.222833332               0.000000000               0.056901071              -0.245930554               0.000000000               0.063091883              -0.269027776               0.000000000               0.069282695              -0.292124999               0.000000000               0.075473506              -0.315222221               0.000000000               0.081664318              -0.338319444               0.000000000               0.087855130              -0.361416666               0.000000000               0.094045942              -0.384513888               0.000000000               0.100236753              -0.407611111               0.000000000               0.106427565              -0.430708333               0.000000000               0.112618377              -0.453805555               0.000000000               0.118809188              -0.476902778               0.000000000               0.125000000              -0.500000000               0.000000000               0.013036280              -0.132359569               0.000000000               0.016127762              -0.155337096               0.000000000               0.019219245              -0.178314623               0.000000000               0.022310727              -0.201292150               0.000000000               0.025402210              -0.224269676               0.000000000               0.028493692              -0.247247203               0.000000000               0.031585175              -0.270224730               0.000000000               0.034676657              -0.293202257               0.000000000               0.037768140              -0.316179784               0.000000000               0.040859622              -0.339157311               0.000000000               0.043951105              -0.362134838               0.000000000               0.047042587              -0.385112365               0.000000000               0.050134070              -0.408089892               0.000000000               0.053225552              -0.431067419               0.000000000               0.056317035              -0.454044946               0.000000000               0.059408517              -0.477022473               0.000000000               0.062500000              -0.500000000               0.000000000               0.000000000              -0.133000000               0.000000000               0.000000000              -0.155937500               0.000000000               0.000000000              -0.178875000               0.000000000               0.000000000              -0.201812500               0.000000000               0.000000000              -0.224750000               0.000000000               0.000000000              -0.247687500               0.000000000               0.000000000              -0.270625000               0.000000000               0.000000000              -0.293562500               0.000000000               0.000000000              -0.316500000               0.000000000               0.000000000              -0.339437500               0.000000000               0.000000000              -0.362375000               0.000000000               0.000000000              -0.385312500               0.000000000               0.000000000              -0.408250000               0.000000000               0.000000000              -0.431187500               0.000000000               0.000000000              -0.454125000               0.000000000               0.000000000              -0.477062500               0.000000000               0.000000000              -0.500000000               0.000000000              -0.133000000               0.000000000               0.000000000              -0.155937500               0.000000000               0.000000000              -0.178875000               0.000000000               0.000000000              -0.201812500               0.000000000               0.000000000              -0.224750000               0.000000000               0.000000000              -0.247687500               0.000000000               0.000000000              -0.270625000               0.000000000               0.000000000              -0.293562500               0.000000000               0.000000000              -0.316500000               0.000000000               0.000000000              -0.339437500               0.000000000               0.000000000              -0.362375000               0.000000000               0.000000000              -0.385312500               0.000000000               0.000000000              -0.408250000               0.000000000               0.000000000              -0.431187500               0.000000000               0.000000000              -0.454125000               0.000000000               0.000000000              -0.477062500               0.000000000               0.000000000              -0.500000000               0.000000000               0.000000000              -0.132359569              -0.013036280               0.000000000              -0.155337096              -0.016127762               0.000000000              -0.178314623              -0.019219245               0.000000000              -0.201292150              -0.022310727               0.000000000              -0.224269676              -0.025402210               0.000000000              -0.247247203              -0.028493692               0.000000000              -0.270224730              -0.031585175               0.000000000              -0.293202257              -0.034676657               0.000000000              -0.316179784              -0.037768140               0.000000000              -0.339157311              -0.040859622               0.000000000              -0.362134838              -0.043951105               0.000000000              -0.385112365              -0.047042587               0.000000000              -0.408089892              -0.050134070               0.000000000              -0.431067419              -0.053225552               0.000000000              -0.454044946              -0.056317035               0.000000000              -0.477022473              -0.059408517               0.000000000              -0.500000000              -0.062500000               0.000000000              -0.130444442              -0.025947013               0.000000000              -0.153541665              -0.032137825               0.000000000              -0.176638887              -0.038328636               0.000000000              -0.199736109              -0.044519448               0.000000000              -0.222833332              -0.050710260               0.000000000              -0.245930554              -0.056901071               0.000000000              -0.269027776              -0.063091883               0.000000000              -0.292124999              -0.069282695               0.000000000              -0.315222221              -0.075473506               0.000000000              -0.338319444              -0.081664318               0.000000000              -0.361416666              -0.087855130               0.000000000              -0.384513888              -0.094045942               0.000000000              -0.407611111              -0.100236753               0.000000000              -0.430708333              -0.106427565               0.000000000              -0.453805555              -0.112618377               0.000000000              -0.476902778              -0.118809188               0.000000000              -0.500000000              -0.125000000               0.000000000              -0.127273065              -0.038607862               0.000000000              -0.150568498              -0.047913621               0.000000000              -0.173863932              -0.057219379               0.000000000              -0.197159365              -0.066525138               0.000000000              -0.220454798              -0.075830897               0.000000000              -0.243750232              -0.085136655               0.000000000              -0.267045665              -0.094442414               0.000000000              -0.290341099              -0.103748172               0.000000000              -0.313636532              -0.113053931               0.000000000              -0.336931966              -0.122359690               0.000000000              -0.360227399              -0.131665448               0.000000000              -0.383522833              -0.140971207               0.000000000              -0.406818266              -0.150276966               0.000000000              -0.430113700              -0.159582724               0.000000000              -0.453409133              -0.168888483               0.000000000              -0.476704567              -0.178194241               0.000000000              -0.500000000              -0.187500000               0.000000000              -0.122875978              -0.050896897               0.000000000              -0.146446229              -0.063340840               0.000000000              -0.170016481              -0.075784784               0.000000000              -0.193586732              -0.088228728               0.000000000              -0.217156983              -0.100672672               0.000000000              -0.240727235              -0.113116616               0.000000000              -0.264297486              -0.125560560               0.000000000              -0.287867738              -0.138004504               0.000000000              -0.311437989              -0.150448448               0.000000000              -0.335008240              -0.162892392               0.000000000              -0.358578492              -0.175336336               0.000000000              -0.382148743              -0.187780280               0.000000000              -0.405718994              -0.200224224               0.000000000              -0.429289246              -0.212668168               0.000000000              -0.452859497              -0.225112112               0.000000000              -0.476429749              -0.237556056               0.000000000              -0.500000000              -0.250000000               0.000000000              -0.117295528              -0.062695766               0.000000000              -0.141214558              -0.078308531               0.000000000              -0.165133587              -0.093921295               0.000000000              -0.189052617              -0.109534060               0.000000000              -0.212971646              -0.125146824               0.000000000              -0.236890676              -0.140759589               0.000000000              -0.260809705              -0.156372354               0.000000000              -0.284728735              -0.171985118               0.000000000              -0.308647764              -0.187597883               0.000000000              -0.332566794              -0.203210648               0.000000000              -0.356485823              -0.218823412               0.000000000              -0.380404853              -0.234436177               0.000000000              -0.404323882              -0.250048941               0.000000000              -0.428242912              -0.265661706               0.000000000              -0.452161941              -0.281274471               0.000000000              -0.476080971              -0.296887235               0.000000000              -0.500000000              -0.312500000               0.000000000              -0.110585458              -0.073890841               0.000000000              -0.134923867              -0.092710163               0.000000000              -0.159262276              -0.111529486               0.000000000              -0.183600685              -0.130348808               0.000000000              -0.207939094              -0.149168131               0.000000000              -0.232277503              -0.167987453               0.000000000              -0.256615912              -0.186806776               0.000000000              -0.280954320              -0.205626098               0.000000000              -0.305292729              -0.224445420               0.000000000              -0.329631138              -0.243264743               0.000000000              -0.353969547              -0.262084065               0.000000000              -0.378307956              -0.280903388               0.000000000              -0.402646365              -0.299722710               0.000000000              -0.426984773              -0.318542033               0.000000000              -0.451323182              -0.337361355               0.000000000              -0.475661591              -0.356180678               0.000000000              -0.500000000              -0.375000000               0.000000000              -0.102810390              -0.084374307               0.000000000              -0.127634741              -0.106444663               0.000000000              -0.152459092              -0.128515018               0.000000000              -0.177283442              -0.150585374               0.000000000              -0.202107793              -0.172655730               0.000000000              -0.226932143              -0.194726086               0.000000000              -0.251756494              -0.216796442               0.000000000              -0.276580845              -0.238866798               0.000000000              -0.301405195              -0.260937153               0.000000000              -0.326229546              -0.283007509               0.000000000              -0.351053896              -0.305077865               0.000000000              -0.375878247              -0.327148221               0.000000000              -0.400702598              -0.349218577               0.000000000              -0.425526948              -0.371288933               0.000000000              -0.450351299              -0.393359288               0.000000000              -0.475175649              -0.415429644               0.000000000              -0.500000000              -0.437500000               0.000000000              -0.094045202              -0.094045202               0.000000000              -0.119417377              -0.119417377               0.000000000              -0.144789552              -0.144789552               0.000000000              -0.170161727              -0.170161727               0.000000000              -0.195533901              -0.195533901               0.000000000              -0.220906076              -0.220906076               0.000000000              -0.246278251              -0.246278251               0.000000000              -0.271650426              -0.271650426               0.000000000              -0.297022601              -0.297022601               0.000000000              -0.322394776              -0.322394776               0.000000000              -0.347766951              -0.347766951               0.000000000              -0.373139126              -0.373139126               0.000000000              -0.398511300              -0.398511300               0.000000000              -0.423883475              -0.423883475               0.000000000              -0.449255650              -0.449255650               0.000000000              -0.474627825              -0.474627825               0.000000000              -0.500000000              -0.500000000               0.000000000              -0.084374307              -0.102810390               0.000000000              -0.106444663              -0.127634741               0.000000000              -0.128515018              -0.152459092               0.000000000              -0.150585374              -0.177283442               0.000000000              -0.172655730              -0.202107793               0.000000000              -0.194726086              -0.226932143               0.000000000              -0.216796442              -0.251756494               0.000000000              -0.238866798              -0.276580845               0.000000000              -0.260937153              -0.301405195               0.000000000              -0.283007509              -0.326229546               0.000000000              -0.305077865              -0.351053896               0.000000000              -0.327148221              -0.375878247               0.000000000              -0.349218577              -0.400702598               0.000000000              -0.371288933              -0.425526948               0.000000000              -0.393359288              -0.450351299               0.000000000              -0.415429644              -0.475175649               0.000000000              -0.437500000              -0.500000000               0.000000000              -0.073890841              -0.110585458               0.000000000              -0.092710163              -0.134923867               0.000000000              -0.111529486              -0.159262276               0.000000000              -0.130348808              -0.183600685               0.000000000              -0.149168131              -0.207939094               0.000000000              -0.167987453              -0.232277503               0.000000000              -0.186806776              -0.256615912               0.000000000              -0.205626098              -0.280954320               0.000000000              -0.224445420              -0.305292729               0.000000000              -0.243264743              -0.329631138               0.000000000              -0.262084065              -0.353969547               0.000000000              -0.280903388              -0.378307956               0.000000000              -0.299722710              -0.402646365               0.000000000              -0.318542033              -0.426984773               0.000000000              -0.337361355              -0.451323182               0.000000000              -0.356180678              -0.475661591               0.000000000              -0.375000000              -0.500000000               0.000000000              -0.062695766              -0.117295528               0.000000000              -0.078308531              -0.141214558               0.000000000              -0.093921295              -0.165133587               0.000000000              -0.109534060              -0.189052617               0.000000000              -0.125146824              -0.212971646               0.000000000              -0.140759589              -0.236890676               0.000000000              -0.156372354              -0.260809705               0.000000000              -0.171985118              -0.284728735               0.000000000              -0.187597883              -0.308647764               0.000000000              -0.203210648              -0.332566794               0.000000000              -0.218823412              -0.356485823               0.000000000              -0.234436177              -0.380404853               0.000000000              -0.250048941              -0.404323882               0.000000000              -0.265661706              -0.428242912               0.000000000              -0.281274471              -0.452161941               0.000000000              -0.296887235              -0.476080971               0.000000000              -0.312500000              -0.500000000               0.000000000              -0.050896897              -0.122875978               0.000000000              -0.063340840              -0.146446229               0.000000000              -0.075784784              -0.170016481               0.000000000              -0.088228728              -0.193586732               0.000000000              -0.100672672              -0.217156983               0.000000000              -0.113116616              -0.240727235               0.000000000              -0.125560560              -0.264297486               0.000000000              -0.138004504              -0.287867738               0.000000000              -0.150448448              -0.311437989               0.000000000              -0.162892392              -0.335008240               0.000000000              -0.175336336              -0.358578492               0.000000000              -0.187780280              -0.382148743               0.000000000              -0.200224224              -0.405718994               0.000000000              -0.212668168              -0.429289246               0.000000000              -0.225112112              -0.452859497               0.000000000              -0.237556056              -0.476429749               0.000000000              -0.250000000              -0.500000000               0.000000000              -0.038607862              -0.127273065               0.000000000              -0.047913621              -0.150568498               0.000000000              -0.057219379              -0.173863932               0.000000000              -0.066525138              -0.197159365               0.000000000              -0.075830897              -0.220454798               0.000000000              -0.085136655              -0.243750232               0.000000000              -0.094442414              -0.267045665               0.000000000              -0.103748172              -0.290341099               0.000000000              -0.113053931              -0.313636532               0.000000000              -0.122359690              -0.336931966               0.000000000              -0.131665448              -0.360227399               0.000000000              -0.140971207              -0.383522833               0.000000000              -0.150276966              -0.406818266               0.000000000              -0.159582724              -0.430113700               0.000000000              -0.168888483              -0.453409133               0.000000000              -0.178194241              -0.476704567               0.000000000              -0.187500000              -0.500000000               0.000000000              -0.025947013              -0.130444442               0.000000000              -0.032137825              -0.153541665               0.000000000              -0.038328636              -0.176638887               0.000000000              -0.044519448              -0.199736109               0.000000000              -0.050710260              -0.222833332               0.000000000              -0.056901071              -0.245930554               0.000000000              -0.063091883              -0.269027776               0.000000000              -0.069282695              -0.292124999               0.000000000              -0.075473506              -0.315222221               0.000000000              -0.081664318              -0.338319444               0.000000000              -0.087855130              -0.361416666               0.000000000              -0.094045942              -0.384513888               0.000000000              -0.100236753              -0.407611111               0.000000000              -0.106427565              -0.430708333               0.000000000              -0.112618377              -0.453805555               0.000000000              -0.118809188              -0.476902778               0.000000000              -0.125000000              -0.500000000               0.000000000              -0.013036280              -0.132359569               0.000000000              -0.016127762              -0.155337096               0.000000000              -0.019219245              -0.178314623               0.000000000              -0.022310727              -0.201292150               0.000000000              -0.025402210              -0.224269676               0.000000000              -0.028493692              -0.247247203               0.000000000              -0.031585175              -0.270224730               0.000000000              -0.034676657              -0.293202257               0.000000000              -0.037768140              -0.316179784               0.000000000              -0.040859622              -0.339157311               0.000000000              -0.043951105              -0.362134838               0.000000000              -0.047042587              -0.385112365               0.000000000              -0.050134070              -0.408089892               0.000000000              -0.053225552              -0.431067419               0.000000000              -0.056317035              -0.454044946               0.000000000              -0.059408517              -0.477022473               0.000000000              -0.062500000              -0.500000000               0.000000000               0.000000000              -0.133000000               0.000000000               0.000000000              -0.155937500               0.000000000               0.000000000              -0.178875000               0.000000000               0.000000000              -0.201812500               0.000000000               0.000000000              -0.224750000               0.000000000               0.000000000              -0.247687500               0.000000000               0.000000000              -0.270625000               0.000000000               0.000000000              -0.293562500               0.000000000               0.000000000              -0.316500000               0.000000000               0.000000000              -0.339437500               0.000000000               0.000000000              -0.362375000               0.000000000               0.000000000              -0.385312500               0.000000000               0.000000000              -0.408250000               0.000000000               0.000000000              -0.431187500               0.000000000               0.000000000              -0.454125000               0.000000000               0.000000000              -0.477062500               0.000000000               0.000000000              -0.500000000               0.000000000              -0.133000000               0.000000000               0.000000000              -0.155937500               0.000000000               0.000000000              -0.178875000               0.000000000               0.000000000              -0.201812500               0.000000000               0.000000000              -0.224750000               0.000000000               0.000000000              -0.247687500               0.000000000               0.000000000              -0.270625000               0.000000000               0.000000000              -0.293562500               0.000000000               0.000000000              -0.316500000               0.000000000               0.000000000              -0.339437500               0.000000000               0.000000000              -0.362375000               0.000000000               0.000000000              -0.385312500               0.000000000               0.000000000              -0.408250000               0.000000000               0.000000000              -0.431187500               0.000000000               0.000000000              -0.454125000               0.000000000               0.000000000              -0.477062500               0.000000000               0.000000000              -0.500000000               0.000000000               0.000000000              -0.132359569               0.013036280               0.000000000              -0.155337096               0.016127762               0.000000000              -0.178314623               0.019219245               0.000000000              -0.201292150               0.022310727               0.000000000              -0.224269676               0.025402210               0.000000000              -0.247247203               0.028493692               0.000000000              -0.270224730               0.031585175               0.000000000              -0.293202257               0.034676657               0.000000000              -0.316179784               0.037768140               0.000000000              -0.339157311               0.040859622               0.000000000              -0.362134838               0.043951105               0.000000000              -0.385112365               0.047042587               0.000000000              -0.408089892               0.050134070               0.000000000              -0.431067419               0.053225552               0.000000000              -0.454044946               0.056317035               0.000000000              -0.477022473               0.059408517               0.000000000              -0.500000000               0.062500000               0.000000000              -0.130444442               0.025947013               0.000000000              -0.153541665               0.032137825               0.000000000              -0.176638887               0.038328636               0.000000000              -0.199736109               0.044519448               0.000000000              -0.222833332               0.050710260               0.000000000              -0.245930554               0.056901071               0.000000000              -0.269027776               0.063091883               0.000000000              -0.292124999               0.069282695               0.000000000              -0.315222221               0.075473506               0.000000000              -0.338319444               0.081664318               0.000000000              -0.361416666               0.087855130               0.000000000              -0.384513888               0.094045942               0.000000000              -0.407611111               0.100236753               0.000000000              -0.430708333               0.106427565               0.000000000              -0.453805555               0.112618377               0.000000000              -0.476902778               0.118809188               0.000000000              -0.500000000               0.125000000               0.000000000              -0.127273065               0.038607862               0.000000000              -0.150568498               0.047913621               0.000000000              -0.173863932               0.057219379               0.000000000              -0.197159365               0.066525138               0.000000000              -0.220454798               0.075830897               0.000000000              -0.243750232               0.085136655               0.000000000              -0.267045665               0.094442414               0.000000000              -0.290341099               0.103748172               0.000000000              -0.313636532               0.113053931               0.000000000              -0.336931966               0.122359690               0.000000000              -0.360227399               0.131665448               0.000000000              -0.383522833               0.140971207               0.000000000              -0.406818266               0.150276966               0.000000000              -0.430113700               0.159582724               0.000000000              -0.453409133               0.168888483               0.000000000              -0.476704567               0.178194241               0.000000000              -0.500000000               0.187500000               0.000000000              -0.122875978               0.050896897               0.000000000              -0.146446229               0.063340840               0.000000000              -0.170016481               0.075784784               0.000000000              -0.193586732               0.088228728               0.000000000              -0.217156983               0.100672672               0.000000000              -0.240727235               0.113116616               0.000000000              -0.264297486               0.125560560               0.000000000              -0.287867738               0.138004504               0.000000000              -0.311437989               0.150448448               0.000000000              -0.335008240               0.162892392               0.000000000              -0.358578492               0.175336336               0.000000000              -0.382148743               0.187780280               0.000000000              -0.405718994               0.200224224               0.000000000              -0.429289246               0.212668168               0.000000000              -0.452859497               0.225112112               0.000000000              -0.476429749               0.237556056               0.000000000              -0.500000000               0.250000000               0.000000000              -0.117295528               0.062695766               0.000000000              -0.141214558               0.078308531               0.000000000              -0.165133587               0.093921295               0.000000000              -0.189052617               0.109534060               0.000000000              -0.212971646               0.125146824               0.000000000              -0.236890676               0.140759589               0.000000000              -0.260809705               0.156372354               0.000000000              -0.284728735               0.171985118               0.000000000              -0.308647764               0.187597883               0.000000000              -0.332566794               0.203210648               0.000000000              -0.356485823               0.218823412               0.000000000              -0.380404853               0.234436177               0.000000000              -0.404323882               0.250048941               0.000000000              -0.428242912               0.265661706               0.000000000              -0.452161941               0.281274471               0.000000000              -0.476080971               0.296887235               0.000000000              -0.500000000               0.312500000               0.000000000              -0.110585458               0.073890841               0.000000000              -0.134923867               0.092710163               0.000000000              -0.159262276               0.111529486               0.000000000              -0.183600685               0.130348808               0.000000000              -0.207939094               0.149168131               0.000000000              -0.232277503               0.167987453               0.000000000              -0.256615912               0.186806776               0.000000000              -0.280954320               0.205626098               0.000000000              -0.305292729               0.224445420               0.000000000              -0.329631138               0.243264743               0.000000000              -0.353969547               0.262084065               0.000000000              -0.378307956               0.280903388               0.000000000              -0.402646365               0.299722710               0.000000000              -0.426984773               0.318542033               0.000000000              -0.451323182               0.337361355               0.000000000              -0.475661591               0.356180678               0.000000000              -0.500000000               0.375000000               0.000000000              -0.102810390               0.084374307               0.000000000              -0.127634741               0.106444663               0.000000000              -0.152459092               0.128515018               0.000000000              -0.177283442               0.150585374               0.000000000              -0.202107793               0.172655730               0.000000000              -0.226932143               0.194726086               0.000000000              -0.251756494               0.216796442               0.000000000              -0.276580845               0.238866798               0.000000000              -0.301405195               0.260937153               0.000000000              -0.326229546               0.283007509               0.000000000              -0.351053896               0.305077865               0.000000000              -0.375878247               0.327148221               0.000000000              -0.400702598               0.349218577               0.000000000              -0.425526948               0.371288933               0.000000000              -0.450351299               0.393359288               0.000000000              -0.475175649               0.415429644               0.000000000              -0.500000000               0.437500000               0.000000000              -0.094045202               0.094045202               0.000000000              -0.119417377               0.119417377               0.000000000              -0.144789552               0.144789552               0.000000000              -0.170161727               0.170161727               0.000000000              -0.195533901               0.195533901               0.000000000              -0.220906076               0.220906076               0.000000000              -0.246278251               0.246278251               0.000000000              -0.271650426               0.271650426               0.000000000              -0.297022601               0.297022601               0.000000000              -0.322394776               0.322394776               0.000000000              -0.347766951               0.347766951               0.000000000              -0.373139126               0.373139126               0.000000000              -0.398511300               0.398511300               0.000000000              -0.423883475               0.423883475               0.000000000              -0.449255650               0.449255650               0.000000000              -0.474627825               0.474627825               0.000000000              -0.500000000               0.500000000               0.000000000              -0.084374307               0.102810390               0.000000000              -0.106444663               0.127634741               0.000000000              -0.128515018               0.152459092               0.000000000              -0.150585374               0.177283442               0.000000000              -0.172655730               0.202107793               0.000000000              -0.194726086               0.226932143               0.000000000              -0.216796442               0.251756494               0.000000000              -0.238866798               0.276580845               0.000000000              -0.260937153               0.301405195               0.000000000              -0.283007509               0.326229546               0.000000000              -0.305077865               0.351053896               0.000000000              -0.327148221               0.375878247               0.000000000              -0.349218577               0.400702598               0.000000000              -0.371288933               0.425526948               0.000000000              -0.393359288               0.450351299               0.000000000              -0.415429644               0.475175649               0.000000000              -0.437500000               0.500000000               0.000000000              -0.073890841               0.110585458               0.000000000              -0.092710163               0.134923867               0.000000000              -0.111529486               0.159262276               0.000000000              -0.130348808               0.183600685               0.000000000              -0.149168131               0.207939094               0.000000000              -0.167987453               0.232277503               0.000000000              -0.186806776               0.256615912               0.000000000              -0.205626098               0.280954320               0.000000000              -0.224445420               0.305292729               0.000000000              -0.243264743               0.329631138               0.000000000              -0.262084065               0.353969547               0.000000000              -0.280903388               0.378307956               0.000000000              -0.299722710               0.402646365               0.000000000              -0.318542033               0.426984773               0.000000000              -0.337361355               0.451323182               0.000000000              -0.356180678               0.475661591               0.000000000              -0.375000000               0.500000000               0.000000000              -0.062695766               0.117295528               0.000000000              -0.078308531               0.141214558               0.000000000              -0.093921295               0.165133587               0.000000000              -0.109534060               0.189052617               0.000000000              -0.125146824               0.212971646               0.000000000              -0.140759589               0.236890676               0.000000000              -0.156372354               0.260809705               0.000000000              -0.171985118               0.284728735               0.000000000              -0.187597883               0.308647764               0.000000000              -0.203210648               0.332566794               0.000000000              -0.218823412               0.356485823               0.000000000              -0.234436177               0.380404853               0.000000000              -0.250048941               0.404323882               0.000000000              -0.265661706               0.428242912               0.000000000              -0.281274471               0.452161941               0.000000000              -0.296887235               0.476080971               0.000000000              -0.312500000               0.500000000               0.000000000              -0.050896897               0.122875978               0.000000000              -0.063340840               0.146446229               0.000000000              -0.075784784               0.170016481               0.000000000              -0.088228728               0.193586732               0.000000000              -0.100672672               0.217156983               0.000000000              -0.113116616               0.240727235               0.000000000              -0.125560560               0.264297486               0.000000000              -0.138004504               0.287867738               0.000000000              -0.150448448               0.311437989               0.000000000              -0.162892392               0.335008240               0.000000000              -0.175336336               0.358578492               0.000000000              -0.187780280               0.382148743               0.000000000              -0.200224224               0.405718994               0.000000000              -0.212668168               0.429289246               0.000000000              -0.225112112               0.452859497               0.000000000              -0.237556056               0.476429749               0.000000000              -0.250000000               0.500000000               0.000000000              -0.038607862               0.127273065               0.000000000              -0.047913621               0.150568498               0.000000000              -0.057219379               0.173863932               0.000000000              -0.066525138               0.197159365               0.000000000              -0.075830897               0.220454798               0.000000000              -0.085136655               0.243750232               0.000000000              -0.094442414               0.267045665               0.000000000              -0.103748172               0.290341099               0.000000000              -0.113053931               0.313636532               0.000000000              -0.122359690               0.336931966               0.000000000              -0.131665448               0.360227399               0.000000000              -0.140971207               0.383522833               0.000000000              -0.150276966               0.406818266               0.000000000              -0.159582724               0.430113700               0.000000000              -0.168888483               0.453409133               0.000000000              -0.178194241               0.476704567               0.000000000              -0.187500000               0.500000000               0.000000000              -0.025947013               0.130444442               0.000000000              -0.032137825               0.153541665               0.000000000              -0.038328636               0.176638887               0.000000000              -0.044519448               0.199736109               0.000000000              -0.050710260               0.222833332               0.000000000              -0.056901071               0.245930554               0.000000000              -0.063091883               0.269027776               0.000000000              -0.069282695               0.292124999               0.000000000              -0.075473506               0.315222221               0.000000000              -0.081664318               0.338319444               0.000000000              -0.087855130               0.361416666               0.000000000              -0.094045942               0.384513888               0.000000000              -0.100236753               0.407611111               0.000000000              -0.106427565               0.430708333               0.000000000              -0.112618377               0.453805555               0.000000000              -0.118809188               0.476902778               0.000000000              -0.125000000               0.500000000               0.000000000              -0.013036280               0.132359569               0.000000000              -0.016127762               0.155337096               0.000000000              -0.019219245               0.178314623               0.000000000              -0.022310727               0.201292150               0.000000000              -0.025402210               0.224269676               0.000000000              -0.028493692               0.247247203               0.000000000              -0.031585175               0.270224730               0.000000000              -0.034676657               0.293202257               0.000000000              -0.037768140               0.316179784               0.000000000              -0.040859622               0.339157311               0.000000000              -0.043951105               0.362134838               0.000000000              -0.047042587               0.385112365               0.000000000              -0.050134070               0.408089892               0.000000000              -0.053225552               0.431067419               0.000000000              -0.056317035               0.454044946               0.000000000              -0.059408517               0.477022473               0.000000000              -0.062500000               0.500000000               0.000000000               0.000000000               0.133000000               0.000000000               0.000000000               0.155937500               0.000000000               0.000000000               0.178875000               0.000000000               0.000000000               0.201812500               0.000000000               0.000000000               0.224750000               0.000000000               0.000000000               0.247687500               0.000000000               0.000000000               0.270625000               0.000000000               0.000000000               0.293562500               0.000000000               0.000000000               0.316500000               0.000000000               0.000000000               0.339437500               0.000000000               0.000000000               0.362375000               0.000000000               0.000000000               0.385312500               0.000000000               0.000000000               0.408250000               0.000000000               0.000000000               0.431187500               0.000000000               0.000000000               0.454125000               0.000000000               0.000000000               0.477062500               0.000000000               0.000000000               0.500000000               0.000000000 </DataArray>
</Points>
<Cells>
<DataArray type="Int32"                                    Name="connectivity"                                                      NumberOfComponents=" 1" format="ascii">
         0          1         18         17          1          2         19         18          2          3         20         19          3          4         21         20          4          5         22         21          5          6         23         22          6          7         24         23          7          8         25         24          8          9         26         25          9         10         27         26         10         11         28         27         11         12         29         28         12         13         30         29         13         14         31         30         14         15         32         31         15         16         33         32         17         18         35         34         18         19         36         35         19         20         37         36         20         21         38         37         21         22         39         38         22         23         40         39         23         24         41         40         24         25         42         41         25         26         43         42         26         27         44         43         27         28         45         44         28         29         46         45         29         30         47         46         30         31         48         47         31         32         49         48         32         33         50         49         34         35         52         51         35         36         53         52         36         37         54         53         37         38         55         54         38         39         56         55         39         40         57         56         40         41         58         57         41         42         59         58         42         43         60         59         43         44         61         60         44         45         62         61         45         46         63         62         46         47         64         63         47         48         65         64         48         49         66         65         49         50         67         66         51         52         69         68         52         53         70         69         53         54         71         70         54         55         72         71         55         56         73         72         56         57         74         73         57         58         75         74         58         59         76         75         59         60         77         76         60         61         78         77         61         62         79         78         62         63         80         79         63         64         81         80         64         65         82         81         65         66         83         82         66         67         84         83         68         69         86         85         69         70         87         86         70         71         88         87         71         72         89         88         72         73         90         89         73         74         91         90         74         75         92         91         75         76         93         92         76         77         94         93         77         78         95         94         78         79         96         95         79         80         97         96         80         81         98         97         81         82         99         98         82         83        100         99         83         84        101        100         85         86        103        102         86         87        104        103         87         88        105        104         88         89        106        105         89         90        107        106         90         91        108        107         91         92        109        108         92         93        110        109         93         94        111        110         94         95        112        111         95         96        113        112         96         97        114        113         97         98        115        114         98         99        116        115         99        100        117        116        100        101        118        117        102        103        120        119        103        104        121        120        104        105        122        121        105        106        123        122        106        107        124        123        107        108        125        124        108        109        126        125        109        110        127        126        110        111        128        127        111        112        129        128        112        113        130        129        113        114        131        130        114        115        132        131        115        116        133        132        116        117        134        133        117        118        135        134        119        120        137        136        120        121        138        137        121        122        139        138        122        123        140        139        123        124        141        140        124        125        142        141        125        126        143        142        126        127        144        143        127        128        145        144        128        129        146        145        129        130        147        146        130        131        148        147        131        132        149        148        132        133        150        149        133        134        151        150        134        135        152        151        136        137        154        153        137        138        155        154        138        139        156        155        139        140        157        156        140        141        158        157        141        142        159        158        142        143        160        159        143        144        161        160        144        145        162        161        145        146        163        162        146        147        164        163        147        148        165        164        148        149        166        165        149        150        167        166        150        151        168        167        151        152        169        168        153        154        171        170        154        155        172        171        155        156        173        172        156        157        174        173        157        158        175        174        158        159        176        175        159        160        177        176        160        161        178        177        161        162        179        178        162        163        180        179        163        164        181        180        164        165        182        181        165        166        183        182        166        167        184        183        167        168        185        184        168        169        186        185        170        171        188        187        171        172        189        188        172        173        190        189        173        174        191        190        174        175        192        191        175        176        193        192        176        177        194        193        177        178        195        194        178        179        196        195        179        180        197        196        180        181        198        197        181        182        199        198        182        183        200        199        183        184        201        200        184        185        202        201        185        186        203        202        187        188        205        204        188        189        206        205        189        190        207        206        190        191        208        207        191        192        209        208        192        193        210        209        193        194        211        210        194        195        212        211        195        196        213        212        196        197        214        213        197        198        215        214        198        199        216        215        199        200        217        216        200        201        218        217        201        202        219        218        202        203        220        219        204        205        222        221        205        206        223        222        206        207        224        223        207        208        225        224        208        209        226        225        209        210        227        226        210        211        228        227        211        212        229        228        212        213        230        229        213        214        231        230        214        215        232        231        215        216        233        232        216        217        234        233        217        218        235        234        218        219        236        235        219        220        237        236        221        222        239        238        222        223        240        239        223        224        241        240        224        225        242        241        225        226        243        242        226        227        244        243        227        228        245        244        228        229        246        245        229        230        247        246        230        231        248        247        231        232        249        248        232        233        250        249        233        234        251        250        234        235        252        251        235        236        253        252        236        237        254        253        238        239        256        255        239        240        257        256        240        241        258        257        241        242        259        258        242        243        260        259        243        244        261        260        244        245        262        261        245        246        263        262        246        247        264        263        247        248        265        264        248        249        266        265        249        250        267        266        250        251        268        267        251        252        269        268        252        253        270        269        253        254        271        270        255        256        273        272        256        257        274        273        257        258        275        274        258        259        276        275        259        260        277        276        260        261        278        277        261        262        279        278        262        263        280        279        263        264        281        280        264        265        282        281        265        266        283        282        266        267        284        283        267        268        285        284        268        269        286        285        269        270        287        286        270        271        288        287        306        307          1          0        307        308          2          1        308        309          3          2        309        310          4          3        310        311          5          4        311        312          6          5        312        313          7          6        313        314          8          7        314        315          9          8        315        316         10          9        316        317         11         10        317        318         12         11        318        319         13         12        319        320         14         13        320        321         15         14        321        322         16         15        323        324        307        306        324        325        308        307        325        326        309        308        326        327        310        309        327        328        311        310        328        329        312        311        329        330        313        312        330        331        314        313        331        332        315        314        332        333        316        315        333        334        317        316        334        335        318        317        335        336        319        318        336        337        320        319        337        338        321        320        338        339        322        321        340        341        324        323        341        342        325        324        342        343        326        325        343        344        327        326        344        345        328        327        345        346        329        328        346        347        330        329        347        348        331        330        348        349        332        331        349        350        333        332        350        351        334        333        351        352        335        334        352        353        336        335        353        354        337        336        354        355        338        337        355        356        339        338        357        358        341        340        358        359        342        341        359        360        343        342        360        361        344        343        361        362        345        344        362        363        346        345        363        364        347        346        364        365        348        347        365        366        349        348        366        367        350        349        367        368        351        350        368        369        352        351        369        370        353        352        370        371        354        353        371        372        355        354        372        373        356        355        374        375        358        357        375        376        359        358        376        377        360        359        377        378        361        360        378        379        362        361        379        380        363        362        380        381        364        363        381        382        365        364        382        383        366        365        383        384        367        366        384        385        368        367        385        386        369        368        386        387        370        369        387        388        371        370        388        389        372        371        389        390        373        372        391        392        375        374        392        393        376        375        393        394        377        376        394        395        378        377        395        396        379        378        396        397        380        379        397        398        381        380        398        399        382        381        399        400        383        382        400        401        384        383        401        402        385        384        402        403        386        385        403        404        387        386        404        405        388        387        405        406        389        388        406        407        390        389        408        409        392        391        409        410        393        392        410        411        394        393        411        412        395        394        412        413        396        395        413        414        397        396        414        415        398        397        415        416        399        398        416        417        400        399        417        418        401        400        418        419        402        401        419        420        403        402        420        421        404        403        421        422        405        404        422        423        406        405        423        424        407        406        425        426        409        408        426        427        410        409        427        428        411        410        428        429        412        411        429        430        413        412        430        431        414        413        431        432        415        414        432        433        416        415        433        434        417        416        434        435        418        417        435        436        419        418        436        437        420        419        437        438        421        420        438        439        422        421        439        440        423        422        440        441        424        423        442        443        426        425        443        444        427        426        444        445        428        427        445        446        429        428        446        447        430        429        447        448        431        430        448        449        432        431        449        450        433        432        450        451        434        433        451        452        435        434        452        453        436        435        453        454        437        436        454        455        438        437        455        456        439        438        456        457        440        439        457        458        441        440        459        460        443        442        460        461        444        443        461        462        445        444        462        463        446        445        463        464        447        446        464        465        448        447        465        466        449        448        466        467        450        449        467        468        451        450        468        469        452        451        469        470        453        452        470        471        454        453        471        472        455        454        472        473        456        455        473        474        457        456        474        475        458        457        476        477        460        459        477        478        461        460        478        479        462        461        479        480        463        462        480        481        464        463        481        482        465        464        482        483        466        465        483        484        467        466        484        485        468        467        485        486        469        468        486        487        470        469        487        488        471        470        488        489        472        471        489        490        473        472        490        491        474        473        491        492        475        474        493        494        477        476        494        495        478        477        495        496        479        478        496        497        480        479        497        498        481        480        498        499        482        481        499        500        483        482        500        501        484        483        501        502        485        484        502        503        486        485        503        504        487        486        504        505        488        487        505        506        489        488        506        507        490        489        507        508        491        490        508        509        492        491        510        511        494        493        511        512        495        494        512        513        496        495        513        514        497        496        514        515        498        497        515        516        499        498        516        517        500        499        517        518        501        500        518        519        502        501        519        520        503        502        520        521        504        503        521        522        505        504        522        523        506        505        523        524        507        506        524        525        508        507        525        526        509        508        527        528        511        510        528        529        512        511        529        530        513        512        530        531        514        513        531        532        515        514        532        533        516        515        533        534        517        516        534        535        518        517        535        536        519        518        536        537        520        519        537        538        521        520        538        539        522        521        539        540        523        522        540        541        524        523        541        542        525        524        542        543        526        525        544        545        528        527        545        546        529        528        546        547        530        529        547        548        531        530        548        549        532        531        549        550        533        532        550        551        534        533        551        552        535        534        552        553        536        535        553        554        537        536        554        555        538        537        555        556        539        538        556        557        540        539        557        558        541        540        558        559        542        541        559        560        543        542        561        562        545        544        562        563        546        545        563        564        547        546        564        565        548        547        565        566        549        548        566        567        550        549        567        568        551        550        568        569        552        551        569        570        553        552        570        571        554        553        571        572        555        554        572        573        556        555        573        574        557        556        574        575        558        557        575        576        559        558        576        577        560        559        578        579        596        595        579        580        597        596        580        581        598        597        581        582        599        598        582        583        600        599        583        584        601        600        584        585        602        601        585        586        603        602        586        587        604        603        587        588        605        604        588        589        606        605        589        590        607        606        590        591        608        607        591        592        609        608        592        593        610        609        593        594        611        610        595        596        613        612        596        597        614        613        597        598        615        614        598        599        616        615        599        600        617        616        600        601        618        617        601        602        619        618        602        603        620        619        603        604        621        620        604        605        622        621        605        606        623        622        606        607        624        623        607        608        625        624        608        609        626        625        609        610        627        626        610        611        628        627        612        613        630        629        613        614        631        630        614        615        632        631        615        616        633        632        616        617        634        633        617        618        635        634        618        619        636        635        619        620        637        636        620        621        638        637        621        622        639        638        622        623        640        639        623        624        641        640        624        625        642        641        625        626        643        642        626        627        644        643        627        628        645        644        629        630        647        646        630        631        648        647        631        632        649        648        632        633        650        649        633        634        651        650        634        635        652        651        635        636        653        652        636        637        654        653        637        638        655        654        638        639        656        655        639        640        657        656        640        641        658        657        641        642        659        658        642        643        660        659        643        644        661        660        644        645        662        661        646        647        664        663        647        648        665        664        648        649        666        665        649        650        667        666        650        651        668        667        651        652        669        668        652        653        670        669        653        654        671        670        654        655        672        671        655        656        673        672        656        657        674        673        657        658        675        674        658        659        676        675        659        660        677        676        660        661        678        677        661        662        679        678        663        664        681        680        664        665        682        681        665        666        683        682        666        667        684        683        667        668        685        684        668        669        686        685        669        670        687        686        670        671        688        687        671        672        689        688        672        673        690        689        673        674        691        690        674        675        692        691        675        676        693        692        676        677        694        693        677        678        695        694        678        679        696        695        680        681        698        697        681        682        699        698        682        683        700        699        683        684        701        700        684        685        702        701        685        686        703        702        686        687        704        703        687        688        705        704        688        689        706        705        689        690        707        706        690        691        708        707        691        692        709        708        692        693        710        709        693        694        711        710        694        695        712        711        695        696        713        712        697        698        715        714        698        699        716        715        699        700        717        716        700        701        718        717        701        702        719        718        702        703        720        719        703        704        721        720        704        705        722        721        705        706        723        722        706        707        724        723        707        708        725        724        708        709        726        725        709        710        727        726        710        711        728        727        711        712        729        728        712        713        730        729        714        715        732        731        715        716        733        732        716        717        734        733        717        718        735        734        718        719        736        735        719        720        737        736        720        721        738        737        721        722        739        738        722        723        740        739        723        724        741        740        724        725        742        741        725        726        743        742        726        727        744        743        727        728        745        744        728        729        746        745        729        730        747        746        731        732        749        748        732        733        750        749        733        734        751        750        734        735        752        751        735        736        753        752        736        737        754        753        737        738        755        754        738        739        756        755        739        740        757        756        740        741        758        757        741        742        759        758        742        743        760        759        743        744        761        760        744        745        762        761        745        746        763        762        746        747        764        763        748        749        766        765        749        750        767        766        750        751        768        767        751        752        769        768        752        753        770        769        753        754        771        770        754        755        772        771        755        756        773        772        756        757        774        773        757        758        775        774        758        759        776        775        759        760        777        776        760        761        778        777        761        762        779        778        762        763        780        779        763        764        781        780        765        766        783        782        766        767        784        783        767        768        785        784        768        769        786        785        769        770        787        786        770        771        788        787        771        772        789        788        772        773        790        789        773        774        791        790        774        775        792        791        775        776        793        792        776        777        794        793        777        778        795        794        778        779        796        795        779        780        797        796        780        781        798        797        782        783        800        799        783        784        801        800        784        785        802        801        785        786        803        802        786        787        804        803        787        788        805        804        788        789        806        805        789        790        807        806        790        791        808        807        791        792        809        808        792        793        810        809        793        794        811        810        794        795        812        811        795        796        813        812        796        797        814        813        797        798        815        814        799        800        817        816        800        801        818        817        801        802        819        818        802        803        820        819        803        804        821        820        804        805        822        821        805        806        823        822        806        807        824        823        807        808        825        824        808        809        826        825        809        810        827        826        810        811        828        827        811        812        829        828        812        813        830        829        813        814        831        830        814        815        832        831        816        817        834        833        817        818        835        834        818        819        836        835        819        820        837        836        820        821        838        837        821        822        839        838        822        823        840        839        823        824        841        840        824        825        842        841        825        826        843        842        826        827        844        843        827        828        845        844        828        829        846        845        829        830        847        846        830        831        848        847        831        832        849        848        833        834        562        561        834        835        563        562        835        836        564        563        836        837        565        564        837        838        566        565        838        839        567        566        839        840        568        567        840        841        569        568        841        842        570        569        842        843        571        570        843        844        572        571        844        845        573        572        845        846        574        573        846        847        575        574        847        848        576        575        848        849        577        576        884        885        579        578        885        886        580        579        886        887        581        580        887        888        582        581        888        889        583        582        889        890        584        583        890        891        585        584        891        892        586        585        892        893        587        586        893        894        588        587        894        895        589        588        895        896        590        589        896        897        591        590        897        898        592        591        898        899        593        592        899        900        594        593        901        902        885        884        902        903        886        885        903        904        887        886        904        905        888        887        905        906        889        888        906        907        890        889        907        908        891        890        908        909        892        891        909        910        893        892        910        911        894        893        911        912        895        894        912        913        896        895        913        914        897        896        914        915        898        897        915        916        899        898        916        917        900        899        918        919        902        901        919        920        903        902        920        921        904        903        921        922        905        904        922        923        906        905        923        924        907        906        924        925        908        907        925        926        909        908        926        927        910        909        927        928        911        910        928        929        912        911        929        930        913        912        930        931        914        913        931        932        915        914        932        933        916        915        933        934        917        916        935        936        919        918        936        937        920        919        937        938        921        920        938        939        922        921        939        940        923        922        940        941        924        923        941        942        925        924        942        943        926        925        943        944        927        926        944        945        928        927        945        946        929        928        946        947        930        929        947        948        931        930        948        949        932        931        949        950        933        932        950        951        934        933        952        953        936        935        953        954        937        936        954        955        938        937        955        956        939        938        956        957        940        939        957        958        941        940        958        959        942        941        959        960        943        942        960        961        944        943        961        962        945        944        962        963        946        945        963        964        947        946        964        965        948        947        965        966        949        948        966        967        950        949        967        968        951        950        969        970        953        952        970        971        954        953        971        972        955        954        972        973        956        955        973        974        957        956        974        975        958        957        975        976        959        958        976        977        960        959        977        978        961        960        978        979        962        961        979        980        963        962        980        981        964        963        981        982        965        964        982        983        966        965        983        984        967        966        984        985        968        967        986        987        970        969        987        988        971        970        988        989        972        971        989        990        973        972        990        991        974        973        991        992        975        974        992        993        976        975        993        994        977        976        994        995        978        977        995        996        979        978        996        997        980        979        997        998        981        980        998        999        982        981        999       1000        983        982       1000       1001        984        983       1001       1002        985        984       1003       1004        987        986       1004       1005        988        987       1005       1006        989        988       1006       1007        990        989       1007       1008        991        990       1008       1009        992        991       1009       1010        993        992       1010       1011        994        993       1011       1012        995        994       1012       1013        996        995       1013       1014        997        996       1014       1015        998        997       1015       1016        999        998       1016       1017       1000        999       1017       1018       1001       1000       1018       1019       1002       1001       1020       1021       1004       1003       1021       1022       1005       1004       1022       1023       1006       1005       1023       1024       1007       1006       1024       1025       1008       1007       1025       1026       1009       1008       1026       1027       1010       1009       1027       1028       1011       1010       1028       1029       1012       1011       1029       1030       1013       1012       1030       1031       1014       1013       1031       1032       1015       1014       1032       1033       1016       1015       1033       1034       1017       1016       1034       1035       1018       1017       1035       1036       1019       1018       1037       1038       1021       1020       1038       1039       1022       1021       1039       1040       1023       1022       1040       1041       1024       1023       1041       1042       1025       1024       1042       1043       1026       1025       1043       1044       1027       1026       1044       1045       1028       1027       1045       1046       1029       1028       1046       1047       1030       1029       1047       1048       1031       1030       1048       1049       1032       1031       1049       1050       1033       1032       1050       1051       1034       1033       1051       1052       1035       1034       1052       1053       1036       1035       1054       1055       1038       1037       1055       1056       1039       1038       1056       1057       1040       1039       1057       1058       1041       1040       1058       1059       1042       1041       1059       1060       1043       1042       1060       1061       1044       1043       1061       1062       1045       1044       1062       1063       1046       1045       1063       1064       1047       1046       1064       1065       1048       1047       1065       1066       1049       1048       1066       1067       1050       1049       1067       1068       1051       1050       1068       1069       1052       1051       1069       1070       1053       1052       1071       1072       1055       1054       1072       1073       1056       1055       1073       1074       1057       1056       1074       1075       1058       1057       1075       1076       1059       1058       1076       1077       1060       1059       1077       1078       1061       1060       1078       1079       1062       1061       1079       1080       1063       1062       1080       1081       1064       1063       1081       1082       1065       1064       1082       1083       1066       1065       1083       1084       1067       1066       1084       1085       1068       1067       1085       1086       1069       1068       1086       1087       1070       1069       1088       1089       1072       1071       1089       1090       1073       1072       1090       1091       1074       1073       1091       1092       1075       1074       1092       1093       1076       1075       1093       1094       1077       1076       1094       1095       1078       1077       1095       1096       1079       1078       1096       1097       1080       1079       1097       1098       1081       1080       1098       1099       1082       1081       1099       1100       1083       1082       1100       1101       1084       1083       1101       1102       1085       1084       1102       1103       1086       1085       1103       1104       1087       1086       1105       1106       1089       1088       1106       1107       1090       1089       1107       1108       1091       1090       1108       1109       1092       1091       1109       1110       1093       1092       1110       1111       1094       1093       1111       1112       1095       1094       1112       1113       1096       1095       1113       1114       1097       1096       1114       1115       1098       1097       1115       1116       1099       1098       1116       1117       1100       1099       1117       1118       1101       1100       1118       1119       1102       1101       1119       1120       1103       1102       1120       1121       1104       1103       1122       1123       1106       1105       1123       1124       1107       1106       1124       1125       1108       1107       1125       1126       1109       1108       1126       1127       1110       1109       1127       1128       1111       1110       1128       1129       1112       1111       1129       1130       1113       1112       1130       1131       1114       1113       1131       1132       1115       1114       1132       1133       1116       1115       1133       1134       1117       1116       1134       1135       1118       1117       1135       1136       1119       1118       1136       1137       1120       1119       1137       1138       1121       1120        272        273       1123       1122        273        274       1124       1123        274        275       1125       1124        275        276       1126       1125        276        277       1127       1126        277        278       1128       1127        278        279       1129       1128        279        280       1130       1129        280        281       1131       1130        281        282       1132       1131        282        283       1133       1132        283        284       1134       1133        284        285       1135       1134        285        286       1136       1135        286        287       1137       1136        287        288       1138       1137 </DataArray>
<DataArray type="Int32"                                    Name="offsets"                                                      NumberOfComponents=" 1" format="ascii">
         4          8         12         16         20         24         28         32         36         40         44         48         52         56         60         64         68         72         76         80         84         88         92         96        100        104        108        112        116        120        124        128        132        136        140        144        148        152        156        160        164        168        172        176        180        184        188        192        196        200        204        208        212        216        220        224        228        232        236        240        244        248        252        256        260        264        268        272        276        280        284        288        292        296        300        304        308        312        316        320        324        328        332        336        340        344        348        352        356        360        364        368        372        376        380        384        388        392        396        400        404        408        412        416        420        424        428        432        436        440        444        448        452        456        460        464        468        472        476        480        484        488        492        496        500        504        508        512        516        520        524        528        532        536        540        544        548        552        556        560        564        568        572        576        580        584        588        592        596        600        604        608        612        616        620        624        628        632        636        640        644        648        652        656        660        664        668        672        676        680        684        688        692        696        700        704        708        712        716        720        724        728        732        736        740        744        748        752        756        760        764        768        772        776        780        784        788        792        796        800        804        808        812        816        820        824        828        832        836        840        844        848        852        856        860        864        868        872        876        880        884        888        892        896        900        904        908        912        916        920        924        928        932        936        940        944        948        952        956        960        964        968        972        976        980        984        988        992        996       1000       1004       1008       1012       1016       1020       1024       1028       1032       1036       1040       1044       1048       1052       1056       1060       1064       1068       1072       1076       1080       1084       1088       1092       1096       1100       1104       1108       1112       1116       1120       1124       1128       1132       1136       1140       1144       1148       1152       1156       1160       1164       1168       1172       1176       1180       1184       1188       1192       1196       1200       1204       1208       1212       1216       1220       1224       1228       1232       1236       1240       1244       1248       1252       1256       1260       1264       1268       1272       1276       1280       1284       1288       1292       1296       1300       1304       1308       1312       1316       1320       1324       1328       1332       1336       1340       1344       1348       1352       1356       1360       1364       1368       1372       1376       1380       1384       1388       1392       1396       1400       1404       1408       1412       1416       1420       1424       1428       1432       1436       1440       1444       1448       1452       1456       1460       1464       1468       1472       1476       1480       1484       1488       1492       1496       1500       1504       1508       1512       1516       1520       1524       1528       1532       1536       1540       1544       1548       1552       1556       1560       1564       1568       1572       1576       1580       1584       1588       1592       1596       1600       1604       1608       1612       1616       1620       1624       1628       1632       1636       1640       1644       1648       1652       1656       1660       1664       1668       1672       1676       1680       1684       1688       1692       1696       1700       1704       1708       1712       1716       1720       1724       1728       1732       1736       1740       1744       1748       1752       1756       1760       1764       1768       1772       1776       1780       1784       1788       1792       1796       1800       1804       1808       1812       1816       1820       1824       1828       1832       1836       1840       1844       1848       1852       1856       1860       1864       1868       1872       1876       1880       1884       1888       1892       1896       1900       1904       1908       1912       1916       1920       1924       1928       1932       1936       1940       1944       1948       1952       1956       1960       1964       1968       1972       1976       1980       1984       1988       1992       1996       2000       2004       2008       2012       2016       2020       2024       2028       2032       2036       2040       2044       2048       2052       2056       2060       2064       2068       2072       2076       2080       2084       2088       2092       2096       2100       2104       2108       2112       2116       2120       2124       2128       2132       2136       2140       2144       2148       2152       2156       2160       2164       2168       2172       2176       2180       2184       2188       2192       2196       2200       2204       2208       2212       2216       2220       2224       2228       2232       2236       2240       2244       2248       2252       2256       2260       2264       2268       2272       2276       2280       2284       2288       2292       2296       2300       2304       2308       2312       2316       2320       2324       2328       2332       2336       2340       2344       2348       2352       2356       2360       2364       2368       2372       2376       2380       2384       2388       2392       2396       2400       2404       2408       2412       2416       2420       2424       2428       2432       2436       2440       2444       2448       2452       2456       2460       2464       2468       2472       2476       2480       2484       2488       2492       2496       2500       2504       2508       2512       2516       2520       2524       2528       2532       2536       2540       2544       2548       2552       2556       2560       2564       2568       2572       2576       2580       2584       2588       2592       2596       2600       2604       2608       2612       2616       2620       2624       2628       2632       2636       2640       2644       2648       2652       2656       2660       2664       2668       2672       2676       2680       2684       2688       2692       2696       2700       2704       2708       2712       2716       2720       2724       2728       2732       2736       2740       2744       2748       2752       2756       2760       2764       2768       2772       2776       2780       2784       2788       2792       2796       2800       2804       2808       2812       2816       2820       2824       2828       2832       2836       2840       2844       2848       2852       2856       2860       2864       2868       2872       2876       2880       2884       2888       2892       2896       2900       2904       2908       2912       2916       2920       2924       2928       2932       2936       2940       2944       2948       2952       2956       2960       2964       2968       2972       2976       2980       2984       2988       2992       2996       3000       3004       3008       3012       3016       3020       3024       3028       3032       3036       3040       3044       3048       3052       3056       3060       3064       3068       3072       3076       3080       3084       3088       3092       3096       3100       3104       3108       3112       3116       3120       3124       3128       3132       3136       3140       3144       3148       3152       3156       3160       3164       3168       3172       3176       3180       3184       3188       3192       3196       3200       3204       3208       3212       3216       3220       3224       3228       3232       3236       3240       3244       3248       3252       3256       3260       3264       3268       3272       3276       3280       3284       3288       3292       3296       3300       3304       3308       3312       3316       3320       3324       3328       3332       3336       3340       3344       3348       3352       3356       3360       3364       3368       3372       3376       3380       3384       3388       3392       3396       3400       3404       3408       3412       3416       3420       3424       3428       3432       3436       3440       3444       3448       3452       3456       3460       3464       3468       3472       3476       3480       3484       3488       3492       3496       3500       3504       3508       3512       3516       3520       3524       3528       3532       3536       3540       3544       3548       3552       3556       3560       3564       3568       3572       3576       3580       3584       3588       3592       3596       3600       3604       3608       3612       3616       3620       3624       3628       3632       3636       3640       3644       3648       3652       3656       3660       3664       3668       3672       3676       3680       3684       3688       3692       3696       3700       3704       3708       3712       3716       3720       3724       3728       3732       3736       3740       3744       3748       3752       3756       3760       3764       3768       3772       3776       3780       3784       3788       3792       3796       3800       3804       3808       3812       3816       3820       3824       3828       3832       3836       3840       3844       3848       3852       3856       3860       3864       3868       3872       3876       3880       3884       3888       3892       3896       3900       3904       3908       3912       3916       3920       3924       3928       3932       3936       3940       3944       3948       3952       3956       3960       3964       3968       3972       3976       3980       3984       3988       3992       3996       4000       4004       4008       4012       4016       4020       4024       4028       4032       4036       4040       4044       4048       4052       4056       4060       4064       4068       4072       4076       4080       4084       4088       4092       4096 </DataArray>
<DataArray type="UInt8"                                    Name="types"                                                      NumberOfComponents=" 1" format="ascii">
         9          9          9          9          9          9          9          9          9          9          9          9          9          9          9          9          9          9          9          9          9          9          9          9          9          9          9          9          9          9          9          9          9          9          9          9          9          9          9          9          9          9          9          9          9          9          9          9          9          9          9          9          9          9          9          9          9          9          9          9          9          9          9          9          9          9          9          9          9          9          9          9          9          9          9          9          9          9          9          9          9          9          9          9          9          9          9          9          9          9          9          9          9          9          9          9          9          9          9          9          9          9          9          9          9          9          9          9          9          9          9          9          9          9          9          9          9          9          9          9          9          9          9          9          9          9          9          9          9          9          9          9          9          9          9          9          9          9          9          9          9          9          9          9          9          9          9          9          9          9          9          9          9          9          9          9          9          9          9          9          9          9          9          9          9          9          9          9          9          9          9          9          9          9          9          9          9          9          9          9          9          9          9          9          9          9          9          9          9          9          9          9          9          9          9          9          9          9          9          9          9          9          9          9          9          9          9          9          9          9          9          9          9          9          9          9          9          9          9          9          9          9          9          9          9          9          9          9          9          9          9          9          9          9          9          9          9          9          9          9          9          9          9          9          9          9          9          9          9          9          9          9          9          9          9          9          9          9          9          9          9          9          9          9          9          9          9          9          9          9          9          9          9          9          9          9          9          9          9          9          9          9          9          9          9          9          9          9          9          9          9          9          9          9          9          9          9          9          9          9          9          9          9          9          9          9          9          9          9          9          9          9          9          9          9          9          9          9          9          9          9          9          9          9          9          9          9          9          9          9          9          9          9          9          9          9          9          9          9          9          9          9          9          9          9          9          9          9          9          9          9          9          9          9          9          9          9          9          9          9          9          9          9          9          9          9          9          9          9          9          9          9          9          9          9          9          9          9          9          9          9          9          9          9          9          9          9          9          9          9          9          9          9          9          9          9          9          9          9          9          9          9          9          9          9          9          9          9          9          9          9          9          9          9          9          9          9          9          9          9          9          9          9          9          9          9          9          9          9          9          9          9          9          9          9          9          9          9          9          9          9          9          9          9          9          9          9          9          9          9          9          9          9          9          9          9          9          9          9          9          9          9          9          9          9          9          9          9          9          9          9          9          9          9          9          9          9          9          9          9          9          9          9          9          9          9          9          9          9          9          9          9          9          9          9          9          9          9          9          9          9          9          9          9          9          9          9          9          9          9          9          9          9          9          9          9          9          9          9          9          9          9          9          9          9          9          9          9          9          9          9          9          9          9          9          9          9          9          9          9          9          9          9          9          9          9          9          9          9          9          9          9          9          9          9          9          9          9          9          9          9          9          9          9          9          9          9          9          9          9          9          9          9          9          9          9          9          9          9          9          9          9          9          9          9          9          9          9          9          9          9          9          9          9          9          9          9          9          9          9          9          9          9          9          9          9          9          9          9          9          9          9          9          9          9          9          9          9          9          9          9          9          9          9          9          9          9          9          9          9          9          9          9          9          9          9          9          9          9          9          9          9          9          9          9          9          9          9          9          9          9          9          9          9          9          9          9          9          9          9          9          9          9          9          9          9          9          9          9          9          9          9          9          9          9          9          9          9          9          9          9          9          9          9          9          9          9          9          9          9          9          9          9          9          9          9          9          9          9          9          9          9          9          9          9          9          9          9          9          9          9          9          9          9          9          9          9          9          9          9          9          9          9          9          9          9          9          9          9          9          9          9          9          9          9          9          9          9          9          9          9          9          9          9          9          9          9          9          9          9          9          9          9          9          9          9          9          9          9          9          9          9          9          9          9          9          9          9          9          9          9          9          9          9          9          9          9          9          9          9          9          9          9          9          9          9          9          9          9          9          9          9          9          9          9          9          9          9          9          9          9          9          9          9          9          9          9          9          9          9          9          9          9          9          9          9          9          9          9          9          9          9          9          9          9          9          9          9          9          9          9          9          9          9          9          9          9          9          9          9          9          9          9          9          9          9          9          9          9          9          9          9          9          9          9          9          9          9          9          9          9          9          9          9          9          9          9          9          9          9          9          9          9          9          9          9          9          9          9          9          9          9          9          9          9          9          9          9          9          9          9          9          9          9          9          9          9          9          9          9          9          9          9          9          9          9          9          9          9          9          9          9          9          9          9          9          9          9          9          9          9          9          9          9          9          9          9          9          9          9          9          9          9          9          9          9          9          9          9          9          9          9          9          9          9          9          9          9          9          9          9          9          9          9          9          9          9          9          9          9          9          9          9          9          9          9          9          9          9          9          9          9          9          9          9          9          9          9          9          9          9          9          9          9          9          9          9          9          9          9          9          9          9          9          9          9          9          9          9          9          9          9          9          9          9          9          9          9          9          9          9          9          9          9          9          9          9          9          9          9          9          9          9          9 </DataArray>
</Cells>
<CellData>
<DataArray type="Int32"                                    Name="material"                                                      NumberOfComponents=" 1" format="ascii">
         1          1          1          1          1          1          1          1          1          1          1          1          1          1          1          1          1          1          1          1          1          1          1          1          1          1          1          1          1          1          1          1          1          1          1          1          1          1          1          1          1          1          1          1          1          1          1          1          1          1          1          1          1          1          1          1          1          1          1          1          1          1          1          1          1          1          1          1          1          1          1          1          1          1          1          1          1          1          1          1          1          1          1          1          1          1          1          1          1          1          1          1          1          1          1          1          1          1          1          1          1          1          1          1          1          1          1          1          1          1          1          1          1          1          1          1          1          1          1          1          1          1          1          1          1          1          1          1          1          1          1          1          1          1          1          1          1          1          1          1          1          1          1          1          1          1          1          1          1          1          1          1          1          1          1          1          1          1          1          1          1          1          1          1          1          1          1          1          1          1          1          1          1          1          1          1          1          1          1          1          1          1          1          1          1          1          1          1          1          1          1          1          1          1          1          1          1          1          1          1          1          1          1          1          1          1          1          1          1          1          1          1          1          1          1          1          1          1          1          1          1          1          1          1          1          1          1          1          1          1          1          1          1          1          1          1          1          1          1          1          1          1          1          1          1          1          1          1          1          1          1          1          1          1          1          1          1          1          1          1          1          1          1          1          1          1          1          1          1          1          1          1          1          1          1          1          1          1          1          1          1          1          1          1          1          1          1          1          1          1          1          1          1          1          1          1          1          1          1          1          1          1          1          1          1          1          1          1          1          1          1          1          1          1          1          1          1          1          1          1          1          1          1          1          1          1          1          1          1          1          1          1          1          1          1          1          1          1          1          1          1          1          1          1          1          1          1          1          1          1          1          1          1          1          1          1          1          1          1          1          1          1          1          1          1          1          1          1          1          1          1          1          1          1          1          1          1          1          1          1          1          1          1          1          1          1          1          1          1          1          1          1          1          1          1          1          1          1          1          1          1          1          1          1          1          1          1          1          1          1          1          1          1          1          1          1          1          1          1          1          1          1          1          1          1          1          1          1          1          1          1          1          1          1          1          1          1          1          1          1          1          1          1          1          1          1          1          1          1          1          1          1          1          1          1          1          1          1          1          1          1          1          1          1          1          1          1          1          1          1          1          1          1          1          1          1          1          1          1          1          1          1          1          1          1          1          1          1          1          1          1          1          1          1          1          1          1          1          1          1          1          1          1          1          1          1          1          1          1          1          1          1          1          1          1          1          1          1          1          1          1          1          1          1          1          1          1          1          1          1          1          1          1          1          1          1          1          1          1          1          1          1          1          1          1          1          1          1          1          1          1          1          1          1          1          1          1          1          1          1          1          1          1          1          1          1          1          1          1          1          1          1          1          1          1          1          1          1          1          1          1          1          1          1          1          1          1          1          1          1          1          1          1          1          1          1          1          1          1          1          1          1          1          1          1          1          1          1          1          1          1          1          1          1          1          1          1          1          1          1          1          1          1          1          1          1          1          1          1          1          1          1          1          1          1          1          1          1          1          1          1          1          1          1          1          1          1          1          1          1          1          1          1          1          1          1          1          1          1          1          1          1          1          1          1          1          1          1          1          1          1          1          1          1          1          1          1          1          1          1          1          1          1          1          1          1          1          1          1          1          1          1          1          1          1          1          1          1          1          1          1          1          1          1          1          1          1          1          1          1          1          1          1          1          1          1          1          1          1          1          1          1          1          1          1          1          1          1          1          1          1          1          1          1          1          1          1          1          1          1          1          1          1          1          1          1          1          1          1          1          1          1          1          1          1          1          1          1          1          1          1          1          1          1          1          1          1          1          1          1          1          1          1          1          1          1          1          1          1          1          1          1          1          1          1          1          1          1          1          1          1          1          1          1          1          1          1          1          1          1          1          1          1          1          1          1          1          1          1          1          1          1          1          1          1          1          1          1          1          1          1          1          1          1          1          1          1          1          1          1          1          1          1          1          1          1          1          1          1          1          1          1          1          1          1          1          1          1          1          1          1          1          1          1          1          1          1          1          1          1          1          1          1          1          1          1          1          1          1          1          1          1          1          1          1          1          1          1          1          1          1          1          1          1          1          1          1          1          1          1          1          1          1          1          1          1          1          1          1          1          1          1          1          1          1          1          1          1          1          1          1          1          1          1          1          1          1          1          1          1          1          1          1          1          1          1          1          1          1          1          1          1          1          1          1          1          1          1          1          1          1          1          1          1          1          1          1          1          1          1          1          1          1          1          1          1          1          1          1          1          1          1          1          1          1          1          1          1          1          1          1          1          1          1          1          1          1          1          1          1          1          1          1          1          1          1          1          1          1          1          1          1          1          1          1          1          1          1          1          1          1          1          1          1          1          1          1          1          1          1          1          1          1          1          1          1          1          1          1          1          1          1          1          1 </DataArray>
</CellData>
<PointData>
<DataArray type="Float64"                                    Name="u"                                                      NumberOfComponents=" 3" format="ascii">
              0.000000120              -0.000000000               1.000000000               0.000000060              -0.000000000               1.000000000               0.000000052              -0.000000000               1.000000000               0.000000117              -0.000000000               1.000000000               0.000000122               0.000000000               1.000000000               0.000000128              -0.000000000               1.000000000               0.000000129              -0.000000000               1.000000000               0.000000131              -0.000000000               1.000000000               0.000000127               0.000000000               1.000000000               0.000000088               0.000000000               1.000000000              -0.000000002              -0.000000000               1.000000000              -0.000000130              -0.000000000               1.000000000              -0.000000251              -0.000000000               1.000000000              -0.000000307              -0.000000000               1.000000000              -0.000000254               0.000000000               1.000000000              -0.000000090               0.000000000               1.000000000               0.000000136               0.000000000               1.000000000              -0.000000012              -0.000000087               1.000000000              -0.000000036               0.000000020               1.000000000              -0.000000042              -0.000000141               1.000000000              -0.000000056              -0.000000129               1.000000000              -0.000000069              -0.000000218               1.000000000              -0.000000067              -0.000000311               1.000000000              -0.000000073              -0.000000386               1.000000000              -0.000000079              -0.000000470               1.000000000              -0.000000094              -0.000000500               1.000000000              -0.000000124              -0.000000486               1.000000000              -0.000000153              -0.000000453               1.000000000              -0.000000167              -0.000000451               1.000000000              -0.000000149              -0.000000529               1.000000000              -0.000000089              -0.000000702               1.000000000              -0.000000003              -0.000000935               1.000000000               0.000000075              -0.000001143               1.000000000               0.000000099              -0.000001240               1.000000000              -0.000000026              -0.000000156               1.000000000               0.000000008              -0.000000023               1.000000000               0.000000014              -0.000000161               1.000000000              -0.000000012              -0.000000177               1.000000000              -0.000000016              -0.000000234               1.000000000              -0.000000043              -0.000000278               1.000000000              -0.000000063              -0.000000287               1.000000000              -0.000000083              -0.000000245               1.000000000              -0.000000110              -0.000000150               1.000000000              -0.000000109              -0.000000027               1.000000000              -0.000000051               0.000000085               1.000000000               0.000000086               0.000000142               1.000000000               0.000000278               0.000000143               1.000000000               0.000000453               0.000000142               1.000000000               0.000000510               0.000000234               1.000000000               0.000000350               0.000000527               1.000000000              -0.000000114               0.000001118               1.000000000               0.000000040              -0.000000254               1.000000000               0.000000005              -0.000000095               1.000000000              -0.000000003              -0.000000174               1.000000000               0.000000003              -0.000000186               1.000000000              -0.000000022              -0.000000054               1.000000000              -0.000000007               0.000000107               1.000000000               0.000000019               0.000000367               1.000000000               0.000000013               0.000000724               1.000000000               0.000000034               0.000001126               1.000000000               0.000000101               0.000001525               1.000000000               0.000000217               0.000001871               1.000000000               0.000000349               0.000002185               1.000000000               0.000000408               0.000002566               1.000000000               0.000000287               0.000003152               1.000000000              -0.000000119               0.000004086               1.000000000              -0.000000903               0.000005500               1.000000000              -0.000002137               0.000007517               1.000000000              -0.000000013              -0.000000365               1.000000000              -0.000000044              -0.000000162               1.000000000               0.000000001              -0.000000082               1.000000000               0.000000012               0.000000081               1.000000000               0.000000011               0.000000495               1.000000000               0.000000048               0.000000986               1.000000000               0.000000075               0.000001668               1.000000000               0.000000107               0.000002465               1.000000000               0.000000157               0.000003309               1.000000000               0.000000230               0.000004147               1.000000000               0.000000269               0.000004978               1.000000000               0.000000164               0.000005923               1.000000000              -0.000000204               0.000007134               1.000000000              -0.000000950               0.000008779               1.000000000              -0.000002158               0.000011011               1.000000000              -0.000003868               0.000013957               1.000000000              -0.000006084               0.000017706               1.000000000               0.000000015              -0.000000356               1.000000000               0.000000007              -0.000000100               1.000000000              -0.000000012               0.000000301               1.000000000               0.000000037               0.000000774               1.000000000               0.000000058               0.000001592               1.000000000               0.000000058               0.000002595               1.000000000               0.000000090               0.000003836               1.000000000               0.000000098               0.000005212               1.000000000               0.000000094               0.000006664               1.000000000               0.000000032               0.000008167               1.000000000              -0.000000217               0.000009834               1.000000000              -0.000000787               0.000011830               1.000000000              -0.000001806               0.000014330               1.000000000              -0.000003356               0.000017496               1.000000000              -0.000005465               0.000021434               1.000000000              -0.000008116               0.000026195               1.000000000              -0.000011275               0.000031808               1.000000000               0.000000046              -0.000000223               1.000000000              -0.000000014               0.000000099               1.000000000              -0.000000047               0.000000958               1.000000000               0.000000083               0.000001860               1.000000000               0.000000075               0.000003237               1.000000000               0.000000086               0.000004908               1.000000000               0.000000085               0.000006847               1.000000000               0.000000038               0.000009006               1.000000000              -0.000000102               0.000011285               1.000000000              -0.000000424               0.000013787               1.000000000              -0.000001101               0.000016663               1.000000000              -0.000002267               0.000020113               1.000000000              -0.000004012               0.000024303               1.000000000              -0.000006356               0.000029336               1.000000000              -0.000009286               0.000035236               1.000000000              -0.000012763               0.000042003               1.000000000              -0.000016730               0.000049611               1.000000000              -0.000000005               0.000000032               1.000000000              -0.000000029               0.000000472               1.000000000              -0.000000075               0.000001801               1.000000000               0.000000062               0.000003266               1.000000000               0.000000067               0.000005316               1.000000000               0.000000043               0.000007777               1.000000000              -0.000000002               0.000010616               1.000000000              -0.000000141               0.000013729               1.000000000              -0.000000476               0.000017137               1.000000000              -0.000001130               0.000020968               1.000000000              -0.000002299               0.000025447               1.000000000              -0.000004065               0.000030740               1.000000000              -0.000006476               0.000036981               1.000000000              -0.000009512               0.000044186               1.000000000              -0.000013143               0.000052347               1.000000000              -0.000017308               0.000061401               1.000000000              -0.000021935               0.000071224               1.000000000              -0.000000042               0.000000405               1.000000000               0.000000011               0.000000999               1.000000000              -0.000000103               0.000002846               1.000000000               0.000000116               0.000005060               1.000000000               0.000000075               0.000007856               1.000000000               0.000000010               0.000011275               1.000000000              -0.000000091               0.000015148               1.000000000              -0.000000392               0.000019451               1.000000000              -0.000000937               0.000024273               1.000000000              -0.000001962               0.000029799               1.000000000              -0.000003585               0.000036240               1.000000000              -0.000005879               0.000043750               1.000000000              -0.000008812               0.000052380               1.000000000              -0.000012365               0.000062134               1.000000000              -0.000016456               0.000072945               1.000000000              -0.000021001               0.000084682               1.000000000              -0.000025839               0.000097128               1.000000000              -0.000000032               0.000000911               1.000000000               0.000000058               0.000001407               1.000000000              -0.000000142               0.000003361               1.000000000               0.000000046               0.000005771               1.000000000               0.000000096               0.000008691               1.000000000               0.000000004               0.000012180               1.000000000              -0.000000055               0.000016227               1.000000000              -0.000000244               0.000020724               1.000000000              -0.000000573               0.000025655               1.000000000              -0.000001156               0.000031186               1.000000000              -0.000002139               0.000037392               1.000000000              -0.000003576               0.000044441               1.000000000              -0.000005510               0.000052419               1.000000000              -0.000007888               0.000061373               1.000000000              -0.000010709               0.000071335               1.000000000              -0.000013934               0.000082288               1.000000000              -0.000017506               0.000094198               1.000000000              -0.000000015               0.000001470               1.000000000               0.000000118               0.000001899               1.000000000              -0.000000118               0.000003868               1.000000000              -0.000000033               0.000006432               1.000000000               0.000000111               0.000009483               1.000000000               0.000000045               0.000013032               1.000000000              -0.000000024               0.000017137               1.000000000              -0.000000116               0.000021801               1.000000000              -0.000000312               0.000026878               1.000000000              -0.000000616               0.000032467               1.000000000              -0.000001131               0.000038647               1.000000000              -0.000001932               0.000045466               1.000000000              -0.000003056               0.000053061               1.000000000              -0.000004511               0.000061435               1.000000000              -0.000006260               0.000070692               1.000000000              -0.000008306               0.000080786               1.000000000              -0.000010670               0.000091815               1.000000000              -0.000000042               0.000002031               1.000000000               0.000000179               0.000002451               1.000000000              -0.000000081               0.000004316               1.000000000              -0.000000109               0.000006994               1.000000000               0.000000067               0.000010125               1.000000000               0.000000073               0.000013780               1.000000000               0.000000006               0.000017908               1.000000000              -0.000000042               0.000022642               1.000000000              -0.000000135               0.000027885               1.000000000              -0.000000281               0.000033551               1.000000000              -0.000000510               0.000039789               1.000000000              -0.000000882               0.000046560               1.000000000              -0.000001436               0.000053969               1.000000000              -0.000002191               0.000062034               1.000000000              -0.000003139               0.000070824               1.000000000              -0.000004244               0.000080318               1.000000000              -0.000005497               0.000090613               1.000000000              -0.000000050               0.000002618               1.000000000               0.000000218               0.000003034               1.000000000              -0.000000009               0.000004775               1.000000000              -0.000000131               0.000007487               1.000000000               0.000000011               0.000010691               1.000000000               0.000000073               0.000014411               1.000000000               0.000000040               0.000018588               1.000000000               0.000000012               0.000023294               1.000000000              -0.000000023               0.000028607               1.000000000              -0.000000082               0.000034375               1.000000000              -0.000000162               0.000040623               1.000000000              -0.000000281               0.000047433               1.000000000              -0.000000482               0.000054773               1.000000000              -0.000000777               0.000062704               1.000000000              -0.000001178               0.000071257               1.000000000              -0.000001664               0.000080436               1.000000000              -0.000002192               0.000090258               1.000000000              -0.000000031               0.000003139               1.000000000               0.000000208               0.000003567               1.000000000               0.000000043               0.000005210               1.000000000              -0.000000118               0.000007860               1.000000000              -0.000000047               0.000011143               1.000000000               0.000000041               0.000014905               1.000000000               0.000000038               0.000019125               1.000000000               0.000000023               0.000023815               1.000000000               0.000000011               0.000029081               1.000000000              -0.000000002               0.000034927               1.000000000              -0.000000026               0.000041189               1.000000000              -0.000000038               0.000047999               1.000000000              -0.000000063               0.000055325               1.000000000              -0.000000123               0.000063183               1.000000000              -0.000000224               0.000071589               1.000000000              -0.000000373               0.000080581               1.000000000              -0.000000558               0.000090129               1.000000000              -0.000000023               0.000003503               1.000000000               0.000000157               0.000003959               1.000000000               0.000000055               0.000005570               1.000000000              -0.000000068               0.000008146               1.000000000              -0.000000051               0.000011456               1.000000000               0.000000012               0.000015273               1.000000000               0.000000020               0.000019517               1.000000000               0.000000021               0.000024212               1.000000000               0.000000024               0.000029419               1.000000000               0.000000033               0.000035263               1.000000000               0.000000034               0.000041549               1.000000000               0.000000033               0.000048332               1.000000000               0.000000052               0.000055627               1.000000000               0.000000071               0.000063435               1.000000000               0.000000079               0.000071736               1.000000000               0.000000068               0.000080593               1.000000000               0.000000021               0.000089972               1.000000000              -0.000000009               0.000003763               1.000000000               0.000000098               0.000004260               1.000000000               0.000000044               0.000005842               1.000000000              -0.000000028               0.000008337               1.000000000              -0.000000024               0.000011624               1.000000000              -0.000000015               0.000015478               1.000000000              -0.000000001               0.000019760               1.000000000               0.000000006               0.000024478               1.000000000               0.000000015               0.000029657               1.000000000               0.000000023               0.000035452               1.000000000               0.000000026               0.000041733               1.000000000               0.000000024               0.000048488               1.000000000               0.000000031               0.000055762               1.000000000               0.000000055               0.000063560               1.000000000               0.000000087               0.000071827               1.000000000               0.000000118               0.000080627               1.000000000               0.000000137               0.000089920               1.000000000              -0.000000000               0.000003846               1.000000000              -0.000000000               0.000004345               1.000000000               0.000000000               0.000005906               1.000000000               0.000000000               0.000008391               1.000000000              -0.000000000               0.000011679               1.000000000              -0.000000000               0.000015543               1.000000000               0.000000000               0.000019841               1.000000000               0.000000000               0.000024563               1.000000000               0.000000000               0.000029723               1.000000000               0.000000000               0.000035490               1.000000000              -0.000000000               0.000041771               1.000000000               0.000000000               0.000048528               1.000000000               0.000000000               0.000055808               1.000000000               0.000000000               0.000063623               1.000000000              -0.000000000               0.000071899               1.000000000              -0.000000000               0.000080690               1.000000000              -0.000000000               0.000089960               1.000000000               0.000000120              -0.000000000               1.000000000               0.000000060              -0.000000000               1.000000000               0.000000052              -0.000000000               1.000000000               0.000000117              -0.000000000               1.000000000               0.000000122               0.000000000               1.000000000               0.000000128              -0.000000000               1.000000000               0.000000129              -0.000000000               1.000000000               0.000000131              -0.000000000               1.000000000               0.000000127               0.000000000               1.000000000               0.000000088               0.000000000               1.000000000              -0.000000002              -0.000000000               1.000000000              -0.000000130              -0.000000000               1.000000000              -0.000000251              -0.000000000               1.000000000              -0.000000307              -0.000000000               1.000000000              -0.000000254               0.000000000               1.000000000              -0.000000090               0.000000000               1.000000000               0.000000136               0.000000000               1.000000000              -0.000000012               0.000000087               1.000000000              -0.000000036              -0.000000020               1.000000000              -0.000000042               0.000000141               1.000000000              -0.000000056               0.000000129               1.000000000              -0.000000069               0.000000218               1.000000000              -0.000000067               0.000000311               1.000000000              -0.000000073               0.000000386               1.000000000              -0.000000079               0.000000470               1.000000000              -0.000000094               0.000000500               1.000000000              -0.000000124               0.000000486               1.000000000              -0.000000153               0.000000453               1.000000000              -0.000000167               0.000000451               1.000000000              -0.000000149               0.000000529               1.000000000              -0.000000089               0.000000702               1.000000000              -0.000000003               0.000000935               1.000000000               0.000000075               0.000001143               1.000000000               0.000000099               0.000001240               1.000000000              -0.000000026               0.000000156               1.000000000               0.000000008               0.000000023               1.000000000               0.000000014               0.000000161               1.000000000              -0.000000012               0.000000177               1.000000000              -0.000000016               0.000000234               1.000000000              -0.000000043               0.000000278               1.000000000              -0.000000063               0.000000287               1.000000000              -0.000000083               0.000000245               1.000000000              -0.000000110               0.000000150               1.000000000              -0.000000109               0.000000027               1.000000000              -0.000000051              -0.000000085               1.000000000               0.000000086              -0.000000142               1.000000000               0.000000278              -0.000000143               1.000000000               0.000000453              -0.000000142               1.000000000               0.000000510              -0.000000234               1.000000000               0.000000350              -0.000000527               1.000000000              -0.000000114              -0.000001118               1.000000000               0.000000040               0.000000254               1.000000000               0.000000005               0.000000095               1.000000000              -0.000000003               0.000000174               1.000000000               0.000000003               0.000000186               1.000000000              -0.000000022               0.000000054               1.000000000              -0.000000007              -0.000000107               1.000000000               0.000000019              -0.000000367               1.000000000               0.000000013              -0.000000724               1.000000000               0.000000034              -0.000001126               1.000000000               0.000000101              -0.000001525               1.000000000               0.000000217              -0.000001871               1.000000000               0.000000349              -0.000002185               1.000000000               0.000000408              -0.000002566               1.000000000               0.000000287              -0.000003152               1.000000000              -0.000000119              -0.000004086               1.000000000              -0.000000903              -0.000005500               1.000000000              -0.000002137              -0.000007517               1.000000000              -0.000000013               0.000000365               1.000000000              -0.000000044               0.000000162               1.000000000               0.000000001               0.000000082               1.000000000               0.000000012              -0.000000081               1.000000000               0.000000011              -0.000000495               1.000000000               0.000000048              -0.000000986               1.000000000               0.000000075              -0.000001668               1.000000000               0.000000107              -0.000002465               1.000000000               0.000000157              -0.000003309               1.000000000               0.000000230              -0.000004147               1.000000000               0.000000269              -0.000004978               1.000000000               0.000000164              -0.000005923               1.000000000              -0.000000204              -0.000007134               1.000000000              -0.000000950              -0.000008779               1.000000000              -0.000002158              -0.000011011               1.000000000              -0.000003868              -0.000013957               1.000000000              -0.000006084              -0.000017706               1.000000000               0.000000015               0.000000356               1.000000000               0.000000007               0.000000100               1.000000000              -0.000000012              -0.000000301               1.000000000               0.000000037              -0.000000774               1.000000000               0.000000058              -0.000001592               1.000000000               0.000000058              -0.000002595               1.000000000               0.000000090              -0.000003836               1.000000000               0.000000098              -0.000005212               1.000000000               0.000000094              -0.000006664               1.000000000               0.000000032              -0.000008167               1.000000000              -0.000000217              -0.000009834               1.000000000              -0.000000787              -0.000011830               1.000000000              -0.000001806              -0.000014330               1.000000000              -0.000003356              -0.000017496               1.000000000              -0.000005465              -0.000021434               1.000000000              -0.000008116              -0.000026195               1.000000000              -0.000011275              -0.000031808               1.000000000               0.000000046               0.000000223               1.000000000              -0.000000014              -0.000000099               1.000000000              -0.000000047              -0.000000958               1.000000000               0.000000083              -0.000001860               1.000000000               0.000000075              -0.000003237               1.000000000               0.000000086              -0.000004908               1.000000000               0.000000085              -0.000006847               1.000000000               0.000000038              -0.000009006               1.000000000              -0.000000102              -0.000011285               1.000000000              -0.000000424              -0.000013787               1.000000000              -0.000001101              -0.000016663               1.000000000              -0.000002267              -0.000020113               1.000000000              -0.000004012              -0.000024303               1.000000000              -0.000006356              -0.000029336               1.000000000              -0.000009286              -0.000035236               1.000000000              -0.000012763              -0.000042003               1.000000000              -0.000016730              -0.000049611               1.000000000              -0.000000005              -0.000000032               1.000000000              -0.000000029              -0.000000472               1.000000000              -0.000000075              -0.000001801               1.000000000               0.000000062              -0.000003266               1.000000000               0.000000067              -0.000005316               1.000000000               0.000000043              -0.000007777               1.000000000              -0.000000002              -0.000010616               1.000000000              -0.000000141              -0.000013729               1.000000000              -0.000000476              -0.000017137               1.000000000              -0.000001130              -0.000020968               1.000000000              -0.000002299              -0.000025447               1.000000000              -0.000004065              -0.000030740               1.000000000              -0.000006476              -0.000036981               1.000000000              -0.000009512              -0.000044186               1.000000000              -0.000013143              -0.000052347               1.000000000              -0.000017308              -0.000061401               1.000000000              -0.000021935              -0.000071224               1.000000000              -0.000000042              -0.000000405               1.000000000               0.000000011              -0.000000999               1.000000000              -0.000000103              -0.000002846               1.000000000               0.000000116              -0.000005060               1.000000000               0.000000075              -0.000007856               1.000000000               0.000000010              -0.000011275               1.000000000              -0.000000091              -0.000015148               1.000000000              -0.000000392              -0.000019451               1.000000000              -0.000000937              -0.000024273               1.000000000              -0.000001962              -0.000029799               1.000000000              -0.000003585              -0.000036240               1.000000000              -0.000005879              -0.000043750               1.000000000              -0.000008812              -0.000052380               1.000000000              -0.000012365              -0.000062134               1.000000000              -0.000016456              -0.000072945               1.000000000              -0.000021001              -0.000084682               1.000000000              -0.000025839              -0.000097128               1.000000000              -0.000000032              -0.000000911               1.000000000               0.000000058              -0.000001407               1.000000000              -0.000000142              -0.000003361               1.000000000               0.000000046              -0.000005771               1.000000000               0.000000096              -0.000008691               1.000000000               0.000000004              -0.000012180               1.000000000              -0.000000055              -0.000016227               1.000000000              -0.000000244              -0.000020724               1.000000000              -0.000000573              -0.000025655               1.000000000              -0.000001156              -0.000031186               1.000000000              -0.000002139              -0.000037392               1.000000000              -0.000003576              -0.000044441               1.000000000              -0.000005510              -0.000052419               1.000000000              -0.000007888              -0.000061373               1.000000000              -0.000010709              -0.000071335               1.000000000              -0.000013934              -0.000082288               1.000000000              -0.000017506              -0.000094198               1.000000000              -0.000000015              -0.000001470               1.000000000               0.000000118              -0.000001899               1.000000000              -0.000000118              -0.000003868               1.000000000              -0.000000033              -0.000006432               1.000000000               0.000000111              -0.000009483               1.000000000               0.000000045              -0.000013032               1.000000000              -0.000000024              -0.000017137               1.000000000              -0.000000116              -0.000021801               1.000000000              -0.000000312              -0.000026878               1.000000000              -0.000000616              -0.000032467               1.000000000              -0.000001131              -0.000038647               1.000000000              -0.000001932              -0.000045466               1.000000000              -0.000003056              -0.000053061               1.000000000              -0.000004511              -0.000061435               1.000000000              -0.000006260              -0.000070692               1.000000000              -0.000008306              -0.000080786               1.000000000              -0.000010670              -0.000091815               1.000000000              -0.000000042              -0.000002031               1.000000000               0.000000179              -0.000002451               1.000000000              -0.000000081              -0.000004316               1.000000000              -0.000000109              -0.000006994               1.000000000               0.000000067              -0.000010125               1.000000000               0.000000073              -0.000013780               1.000000000               0.000000006              -0.000017908               1.000000000              -0.000000042              -0.000022642               1.000000000              -0.000000135              -0.000027885               1.000000000              -0.000000281              -0.000033551               1.000000000              -0.000000510              -0.000039789               1.000000000              -0.000000882              -0.000046560               1.000000000              -0.000001436              -0.000053969               1.000000000              -0.000002191              -0.000062034               1.000000000              -0.000003139              -0.000070824               1.000000000              -0.000004244              -0.000080318               1.000000000              -0.000005497              -0.000090613               1.000000000              -0.000000050              -0.000002618               1.000000000               0.000000218              -0.000003034               1.000000000              -0.000000009              -0.000004775               1.000000000              -0.000000131              -0.000007487               1.000000000               0.000000011              -0.000010691               1.000000000               0.000000073              -0.000014411               1.000000000               0.000000040              -0.000018588               1.000000000               0.000000012              -0.000023294               1.000000000              -0.000000023              -0.000028607               1.000000000              -0.000000082              -0.000034375               1.000000000              -0.000000162              -0.000040623               1.000000000              -0.000000281              -0.000047433               1.000000000              -0.000000482              -0.000054773               1.000000000              -0.000000777              -0.000062704               1.000000000              -0.000001178              -0.000071257               1.000000000              -0.000001664              -0.000080436               1.000000000              -0.000002192              -0.000090258               1.000000000              -0.000000031              -0.000003139               1.000000000               0.000000208              -0.000003567               1.000000000               0.000000043              -0.000005210               1.000000000              -0.000000118              -0.000007860               1.000000000              -0.000000047              -0.000011143               1.000000000               0.000000041              -0.000014905               1.000000000               0.000000038              -0.000019125               1.000000000               0.000000023              -0.000023815               1.000000000               0.000000011              -0.000029081               1.000000000              -0.000000002              -0.000034927               1.000000000              -0.000000026              -0.000041189               1.000000000              -0.000000038              -0.000047999               1.000000000              -0.000000063              -0.000055325               1.000000000              -0.000000123              -0.000063183               1.000000000              -0.000000224              -0.000071589               1.000000000              -0.000000373              -0.000080581               1.000000000              -0.000000558              -0.000090129               1.000000000              -0.000000023              -0.000003503               1.000000000               0.000000157              -0.000003959               1.000000000               0.000000055              -0.000005570               1.000000000              -0.000000068              -0.000008146               1.000000000              -0.000000051              -0.000011456               1.000000000               0.000000012              -0.000015273               1.000000000               0.000000020              -0.000019517               1.000000000               0.000000021              -0.000024212               1.000000000               0.000000024              -0.000029419               1.000000000               0.000000033              -0.000035263               1.000000000               0.000000034              -0.000041549               1.000000000               0.000000033              -0.000048332               1.000000000               0.000000052              -0.000055627               1.000000000               0.000000071              -0.000063435               1.000000000               0.000000079              -0.000071736               1.000000000               0.000000068              -0.000080593               1.000000000               0.000000021              -0.000089972               1.000000000              -0.000000009              -0.000003763               1.000000000               0.000000098              -0.000004260               1.000000000               0.000000044              -0.000005842               1.000000000              -0.000000028              -0.000008337               1.000000000              -0.000000024              -0.000011624               1.000000000              -0.000000015              -0.000015478               1.000000000              -0.000000001              -0.000019760               1.000000000               0.000000006              -0.000024478               1.000000000               0.000000015              -0.000029657               1.000000000               0.000000023              -0.000035452               1.000000000               0.000000026              -0.000041733               1.000000000               0.000000024              -0.000048488               1.000000000               0.000000031              -0.000055762               1.000000000               0.000000055              -0.000063560               1.000000000               0.000000087              -0.000071827               1.000000000               0.000000118              -0.000080627               1.000000000               0.000000137              -0.000089920               1.000000000              -0.000000000              -0.000003846               1.000000000              -0.000000000              -0.000004345               1.000000000              -0.000000000              -0.000005906               1.000000000               0.000000000              -0.000008391               1.000000000              -0.000000000              -0.000011679               1.000000000              -0.000000000              -0.000015543               1.000000000              -0.000000000              -0.000019841               1.000000000              -0.000000000              -0.000024563               1.000000000              -0.000000000              -0.000029723               1.000000000              -0.000000000              -0.000035490               1.000000000               0.000000000              -0.000041771               1.000000000              -0.000000000              -0.000048528               1.000000000              -0.000000000              -0.000055808               1.000000000              -0.000000000              -0.000063623               1.000000000              -0.000000000              -0.000071899               1.000000000               0.000000000              -0.000080690               1.000000000               0.000000000              -0.000089960               1.000000000              -0.000000120              -0.000000000               1.000000000              -0.000000060               0.000000000               1.000000000              -0.000000052              -0.000000000               1.000000000              -0.000000117              -0.000000000               1.000000000              -0.000000122               0.000000000               1.000000000              -0.000000128               0.000000000               1.000000000              -0.000000129               0.000000000               1.000000000              -0.000000131               0.000000000               1.000000000              -0.000000127               0.000000000               1.000000000              -0.000000088              -0.000000000               1.000000000               0.000000002               0.000000000               1.000000000               0.000000130               0.000000000               1.000000000               0.000000251               0.000000000               1.000000000               0.000000307               0.000000000               1.000000000               0.000000254               0.000000000               1.000000000               0.000000090              -0.000000000               1.000000000              -0.000000136              -0.000000000               1.000000000               0.000000012               0.000000087               1.000000000               0.000000036              -0.000000020               1.000000000               0.000000042               0.000000141               1.000000000               0.000000056               0.000000129               1.000000000               0.000000069               0.000000218               1.000000000               0.000000067               0.000000311               1.000000000               0.000000073               0.000000386               1.000000000               0.000000079               0.000000470               1.000000000               0.000000094               0.000000500               1.000000000               0.000000124               0.000000486               1.000000000               0.000000153               0.000000453               1.000000000               0.000000167               0.000000451               1.000000000               0.000000149               0.000000529               1.000000000               0.000000089               0.000000702               1.000000000               0.000000003               0.000000935               1.000000000              -0.000000075               0.000001143               1.000000000              -0.000000099               0.000001240               1.000000000               0.000000026               0.000000156               1.000000000              -0.000000008               0.000000023               1.000000000              -0.000000014               0.000000161               1.000000000               0.000000012               0.000000177               1.000000000               0.000000016               0.000000234               1.000000000               0.000000043               0.000000278               1.000000000               0.000000063               0.000000287               1.000000000               0.000000083               0.000000245               1.000000000               0.000000110               0.000000150               1.000000000               0.000000109               0.000000027               1.000000000               0.000000051              -0.000000085               1.000000000              -0.000000086              -0.000000142               1.000000000              -0.000000278              -0.000000143               1.000000000              -0.000000453              -0.000000142               1.000000000              -0.000000510              -0.000000234               1.000000000              -0.000000350              -0.000000527               1.000000000               0.000000114              -0.000001118               1.000000000              -0.000000040               0.000000254               1.000000000              -0.000000005               0.000000095               1.000000000               0.000000003               0.000000174               1.000000000              -0.000000003               0.000000186               1.000000000               0.000000022               0.000000054               1.000000000               0.000000007              -0.000000107               1.000000000              -0.000000019              -0.000000367               1.000000000              -0.000000013              -0.000000724               1.000000000              -0.000000034              -0.000001126               1.000000000              -0.000000101              -0.000001525               1.000000000              -0.000000217              -0.000001871               1.000000000              -0.000000349              -0.000002185               1.000000000              -0.000000408              -0.000002566               1.000000000              -0.000000287              -0.000003152               1.000000000               0.000000119              -0.000004086               1.000000000               0.000000903              -0.000005500               1.000000000               0.000002137              -0.000007517               1.000000000               0.000000013               0.000000365               1.000000000               0.000000044               0.000000162               1.000000000              -0.000000001               0.000000082               1.000000000              -0.000000012              -0.000000081               1.000000000              -0.000000011              -0.000000495               1.000000000              -0.000000048              -0.000000986               1.000000000              -0.000000075              -0.000001668               1.000000000              -0.000000107              -0.000002465               1.000000000              -0.000000157              -0.000003309               1.000000000              -0.000000230              -0.000004147               1.000000000              -0.000000269              -0.000004978               1.000000000              -0.000000164              -0.000005923               1.000000000               0.000000204              -0.000007134               1.000000000               0.000000950              -0.000008779               1.000000000               0.000002158              -0.000011011               1.000000000               0.000003868              -0.000013957               1.000000000               0.000006084              -0.000017706               1.000000000              -0.000000015               0.000000356               1.000000000              -0.000000007               0.000000100               1.000000000               0.000000012              -0.000000301               1.000000000              -0.000000037              -0.000000774               1.000000000              -0.000000058              -0.000001592               1.000000000              -0.000000058              -0.000002595               1.000000000              -0.000000090              -0.000003836               1.000000000              -0.000000098              -0.000005212               1.000000000              -0.000000094              -0.000006664               1.000000000              -0.000000032              -0.000008167               1.000000000               0.000000217              -0.000009834               1.000000000               0.000000787              -0.000011830               1.000000000               0.000001806              -0.000014330               1.000000000               0.000003356              -0.000017496               1.000000000               0.000005465              -0.000021434               1.000000000               0.000008116              -0.000026195               1.000000000               0.000011275              -0.000031808               1.000000000              -0.000000046               0.000000223               1.000000000               0.000000014              -0.000000099               1.000000000               0.000000047              -0.000000958               1.000000000              -0.000000083              -0.000001860               1.000000000              -0.000000075              -0.000003237               1.000000000              -0.000000086              -0.000004908               1.000000000              -0.000000085              -0.000006847               1.000000000              -0.000000038              -0.000009006               1.000000000               0.000000102              -0.000011285               1.000000000               0.000000424              -0.000013787               1.000000000               0.000001101              -0.000016663               1.000000000               0.000002267              -0.000020113               1.000000000               0.000004012              -0.000024303               1.000000000               0.000006356              -0.000029336               1.000000000               0.000009286              -0.000035236               1.000000000               0.000012763              -0.000042003               1.000000000               0.000016730              -0.000049611               1.000000000               0.000000005              -0.000000032               1.000000000               0.000000029              -0.000000472               1.000000000               0.000000075              -0.000001801               1.000000000              -0.000000062              -0.000003266               1.000000000              -0.000000067              -0.000005316               1.000000000              -0.000000043              -0.000007777               1.000000000               0.000000002              -0.000010616               1.000000000               0.000000141              -0.000013729               1.000000000               0.000000476              -0.000017137               1.000000000               0.000001130              -0.000020968               1.000000000               0.000002299              -0.000025447               1.000000000               0.000004065              -0.000030740               1.000000000               0.000006476              -0.000036981               1.000000000               0.000009512              -0.000044186               1.000000000               0.000013143              -0.000052347               1.000000000               0.000017308              -0.000061401               1.000000000               0.000021935              -0.000071224               1.000000000               0.000000042              -0.000000405               1.000000000              -0.000000011              -0.000000999               1.000000000               0.000000103              -0.000002846               1.000000000              -0.000000116              -0.000005060               1.000000000              -0.000000075              -0.000007856               1.000000000              -0.000000010              -0.000011275               1.000000000               0.000000091              -0.000015148               1.000000000               0.000000392              -0.000019451               1.000000000               0.000000937              -0.000024273               1.000000000               0.000001962              -0.000029799               1.000000000               0.000003585              -0.000036240               1.000000000               0.000005879              -0.000043750               1.000000000               0.000008812              -0.000052380               1.000000000               0.000012365              -0.000062134               1.000000000               0.000016456              -0.000072945               1.000000000               0.000021001              -0.000084682               1.000000000               0.000025839              -0.000097128               1.000000000               0.000000032              -0.000000911               1.000000000              -0.000000058              -0.000001407               1.000000000               0.000000142              -0.000003361               1.000000000              -0.000000046              -0.000005771               1.000000000              -0.000000096              -0.000008691               1.000000000              -0.000000004              -0.000012180               1.000000000               0.000000055              -0.000016227               1.000000000               0.000000244              -0.000020724               1.000000000               0.000000573              -0.000025655               1.000000000               0.000001156              -0.000031186               1.000000000               0.000002139              -0.000037392               1.000000000               0.000003576              -0.000044441               1.000000000               0.000005510              -0.000052419               1.000000000               0.000007888              -0.000061373               1.000000000               0.000010709              -0.000071335               1.000000000               0.000013934              -0.000082288               1.000000000               0.000017506              -0.000094198               1.000000000               0.000000015              -0.000001470               1.000000000              -0.000000118              -0.000001899               1.000000000               0.000000118              -0.000003868               1.000000000               0.000000033              -0.000006432               1.000000000              -0.000000111              -0.000009483               1.000000000              -0.000000045              -0.000013032               1.000000000               0.000000024              -0.000017137               1.000000000               0.000000116              -0.000021801               1.000000000               0.000000312              -0.000026878               1.000000000               0.000000616              -0.000032467               1.000000000               0.000001131              -0.000038647               1.000000000               0.000001932              -0.000045466               1.000000000               0.000003056              -0.000053061               1.000000000               0.000004511              -0.000061435               1.000000000               0.000006260              -0.000070692               1.000000000               0.000008306              -0.000080786               1.000000000               0.000010670              -0.000091815               1.000000000               0.000000042              -0.000002031               1.000000000              -0.000000179              -0.000002451               1.000000000               0.000000081              -0.000004316               1.000000000               0.000000109              -0.000006994               1.000000000              -0.000000067              -0.000010125               1.000000000              -0.000000073              -0.000013780               1.000000000              -0.000000006              -0.000017908               1.000000000               0.000000042              -0.000022642               1.000000000               0.000000135              -0.000027885               1.000000000               0.000000281              -0.000033551               1.000000000               0.000000510              -0.000039789               1.000000000               0.000000882              -0.000046560               1.000000000               0.000001436              -0.000053969               1.000000000               0.000002191              -0.000062034               1.000000000               0.000003139              -0.000070824               1.000000000               0.000004244              -0.000080318               1.000000000               0.000005497              -0.000090613               1.000000000               0.000000050              -0.000002618               1.000000000              -0.000000218              -0.000003034               1.000000000               0.000000009              -0.000004775               1.000000000               0.000000131              -0.000007487               1.000000000              -0.000000011              -0.000010691               1.000000000              -0.000000073              -0.000014411               1.000000000              -0.000000040              -0.000018588               1.000000000              -0.000000012              -0.000023294               1.000000000               0.000000023              -0.000028607               1.000000000               0.000000082              -0.000034375               1.000000000               0.000000162              -0.000040623               1.000000000               0.000000281              -0.000047433               1.000000000               0.000000482              -0.000054773               1.000000000               0.000000777              -0.000062704               1.000000000               0.000001178              -0.000071257               1.000000000               0.000001664              -0.000080436               1.000000000               0.000002192              -0.000090258               1.000000000               0.000000031              -0.000003139               1.000000000              -0.000000208              -0.000003567               1.000000000              -0.000000043              -0.000005210               1.000000000               0.000000118              -0.000007860               1.000000000               0.000000047              -0.000011143               1.000000000              -0.000000041              -0.000014905               1.000000000              -0.000000038              -0.000019125               1.000000000              -0.000000023              -0.000023815               1.000000000              -0.000000011              -0.000029081               1.000000000               0.000000002              -0.000034927               1.000000000               0.000000026              -0.000041189               1.000000000               0.000000038              -0.000047999               1.000000000               0.000000063              -0.000055325               1.000000000               0.000000123              -0.000063183               1.000000000               0.000000224              -0.000071589               1.000000000               0.000000373              -0.000080581               1.000000000               0.000000558              -0.000090129               1.000000000               0.000000023              -0.000003503               1.000000000              -0.000000157              -0.000003959               1.000000000              -0.000000055              -0.000005570               1.000000000               0.000000068              -0.000008146               1.000000000               0.000000051              -0.000011456               1.000000000              -0.000000012              -0.000015273               1.000000000              -0.000000020              -0.000019517               1.000000000              -0.000000021              -0.000024212               1.000000000              -0.000000024              -0.000029419               1.000000000              -0.000000033              -0.000035263               1.000000000              -0.000000034              -0.000041549               1.000000000              -0.000000033              -0.000048332               1.000000000              -0.000000052              -0.000055627               1.000000000              -0.000000071              -0.000063435               1.000000000              -0.000000079              -0.000071736               1.000000000              -0.000000068              -0.000080593               1.000000000              -0.000000021              -0.000089972               1.000000000               0.000000009              -0.000003763               1.000000000              -0.000000098              -0.000004260               1.000000000              -0.000000044              -0.000005842               1.000000000               0.000000028              -0.000008337               1.000000000               0.000000024              -0.000011624               1.000000000               0.000000015              -0.000015478               1.000000000               0.000000001              -0.000019760               1.000000000              -0.000000006              -0.000024478               1.000000000              -0.000000015              -0.000029657               1.000000000              -0.000000023              -0.000035452               1.000000000              -0.000000026              -0.000041733               1.000000000              -0.000000024              -0.000048488               1.000000000              -0.000000031              -0.000055762               1.000000000              -0.000000055              -0.000063560               1.000000000              -0.000000087              -0.000071827               1.000000000              -0.000000118              -0.000080627               1.000000000              -0.000000137              -0.000089920               1.000000000              -0.000000000              -0.000003846               1.000000000              -0.000000000              -0.000004345               1.000000000              -0.000000000              -0.000005906               1.000000000               0.000000000              -0.000008391               1.000000000              -0.000000000              -0.000011679               1.000000000              -0.000000000              -0.000015543               1.000000000              -0.000000000              -0.000019841               1.000000000              -0.000000000              -0.000024563               1.000000000              -0.000000000              -0.000029723               1.000000000              -0.000000000              -0.000035490               1.000000000               0.000000000              -0.000041771               1.000000000              -0.000000000              -0.000048528               1.000000000              -0.000000000              -0.000055808               1.000000000              -0.000000000              -0.000063623               1.000000000              -0.000000000              -0.000071899               1.000000000               0.000000000              -0.000080690               1.000000000               0.000000000              -0.000089960               1.000000000              -0.000000120              -0.000000000               1.000000000              -0.000000060               0.000000000               1.000000000              -0.000000052              -0.000000000               1.000000000              -0.000000117              -0.000000000               1.000000000              -0.000000122               0.000000000               1.000000000              -0.000000128               0.000000000               1.000000000              -0.000000129               0.000000000               1.000000000              -0.000000131               0.000000000               1.000000000              -0.000000127               0.000000000               1.000000000              -0.000000088              -0.000000000               1.000000000               0.000000002               0.000000000               1.000000000               0.000000130               0.000000000               1.000000000               0.000000251               0.000000000               1.000000000               0.000000307               0.000000000               1.000000000               0.000000254               0.000000000               1.000000000               0.000000090              -0.000000000               1.000000000              -0.000000136              -0.000000000               1.000000000               0.000000012              -0.000000087               1.000000000               0.000000036               0.000000020               1.000000000               0.000000042              -0.000000141               1.000000000               0.000000056              -0.000000129               1.000000000               0.000000069              -0.000000218               1.000000000               0.000000067              -0.000000311               1.000000000               0.000000073              -0.000000386               1.000000000               0.000000079              -0.000000470               1.000000000               0.000000094              -0.000000500               1.000000000               0.000000124              -0.000000486               1.000000000               0.000000153              -0.000000453               1.000000000               0.000000167              -0.000000451               1.000000000               0.000000149              -0.000000529               1.000000000               0.000000089              -0.000000702               1.000000000               0.000000003              -0.000000935               1.000000000              -0.000000075              -0.000001143               1.000000000              -0.000000099              -0.000001240               1.000000000               0.000000026              -0.000000156               1.000000000              -0.000000008              -0.000000023               1.000000000              -0.000000014              -0.000000161               1.000000000               0.000000012              -0.000000177               1.000000000               0.000000016              -0.000000234               1.000000000               0.000000043              -0.000000278               1.000000000               0.000000063              -0.000000287               1.000000000               0.000000083              -0.000000245               1.000000000               0.000000110              -0.000000150               1.000000000               0.000000109              -0.000000027               1.000000000               0.000000051               0.000000085               1.000000000              -0.000000086               0.000000142               1.000000000              -0.000000278               0.000000143               1.000000000              -0.000000453               0.000000142               1.000000000              -0.000000510               0.000000234               1.000000000              -0.000000350               0.000000527               1.000000000               0.000000114               0.000001118               1.000000000              -0.000000040              -0.000000254               1.000000000              -0.000000005              -0.000000095               1.000000000               0.000000003              -0.000000174               1.000000000              -0.000000003              -0.000000186               1.000000000               0.000000022              -0.000000054               1.000000000               0.000000007               0.000000107               1.000000000              -0.000000019               0.000000367               1.000000000              -0.000000013               0.000000724               1.000000000              -0.000000034               0.000001126               1.000000000              -0.000000101               0.000001525               1.000000000              -0.000000217               0.000001871               1.000000000              -0.000000349               0.000002185               1.000000000              -0.000000408               0.000002566               1.000000000              -0.000000287               0.000003152               1.000000000               0.000000119               0.000004086               1.000000000               0.000000903               0.000005500               1.000000000               0.000002137               0.000007517               1.000000000               0.000000013              -0.000000365               1.000000000               0.000000044              -0.000000162               1.000000000              -0.000000001              -0.000000082               1.000000000              -0.000000012               0.000000081               1.000000000              -0.000000011               0.000000495               1.000000000              -0.000000048               0.000000986               1.000000000              -0.000000075               0.000001668               1.000000000              -0.000000107               0.000002465               1.000000000              -0.000000157               0.000003309               1.000000000              -0.000000230               0.000004147               1.000000000              -0.000000269               0.000004978               1.000000000              -0.000000164               0.000005923               1.000000000               0.000000204               0.000007134               1.000000000               0.000000950               0.000008779               1.000000000               0.000002158               0.000011011               1.000000000               0.000003868               0.000013957               1.000000000               0.000006084               0.000017706               1.000000000              -0.000000015              -0.000000356               1.000000000              -0.000000007              -0.000000100               1.000000000               0.000000012               0.000000301               1.000000000              -0.000000037               0.000000774               1.000000000              -0.000000058               0.000001592               1.000000000              -0.000000058               0.000002595               1.000000000              -0.000000090               0.000003836               1.000000000              -0.000000098               0.000005212               1.000000000              -0.000000094               0.000006664               1.000000000              -0.000000032               0.000008167               1.000000000               0.000000217               0.000009834               1.000000000               0.000000787               0.000011830               1.000000000               0.000001806               0.000014330               1.000000000               0.000003356               0.000017496               1.000000000               0.000005465               0.000021434               1.000000000               0.000008116               0.000026195               1.000000000               0.000011275               0.000031808               1.000000000              -0.000000046              -0.000000223               1.000000000               0.000000014               0.000000099               1.000000000               0.000000047               0.000000958               1.000000000              -0.000000083               0.000001860               1.000000000              -0.000000075               0.000003237               1.000000000              -0.000000086               0.000004908               1.000000000              -0.000000085               0.000006847               1.000000000              -0.000000038               0.000009006               1.000000000               0.000000102               0.000011285               1.000000000               0.000000424               0.000013787               1.000000000               0.000001101               0.000016663               1.000000000               0.000002267               0.000020113               1.000000000               0.000004012               0.000024303               1.000000000               0.000006356               0.000029336               1.000000000               0.000009286               0.000035236               1.000000000               0.000012763               0.000042003               1.000000000               0.000016730               0.000049611               1.000000000               0.000000005               0.000000032               1.000000000               0.000000029               0.000000472               1.000000000               0.000000075               0.000001801               1.000000000              -0.000000062               0.000003266               1.000000000              -0.000000067               0.000005316               1.000000000              -0.000000043               0.000007777               1.000000000               0.000000002               0.000010616               1.000000000               0.000000141               0.000013729               1.000000000               0.000000476               0.000017137               1.000000000               0.000001130               0.000020968               1.000000000               0.000002299               0.000025447               1.000000000               0.000004065               0.000030740               1.000000000               0.000006476               0.000036981               1.000000000               0.000009512               0.000044186               1.000000000               0.000013143               0.000052347               1.000000000               0.000017308               0.000061401               1.000000000               0.000021935               0.000071224               1.000000000               0.000000042               0.000000405               1.000000000              -0.000000011               0.000000999               1.000000000               0.000000103               0.000002846               1.000000000              -0.000000116               0.000005060               1.000000000              -0.000000075               0.000007856               1.000000000              -0.000000010               0.000011275               1.000000000               0.000000091               0.000015148               1.000000000               0.000000392               0.000019451               1.000000000               0.000000937               0.000024273               1.000000000               0.000001962               0.000029799               1.000000000               0.000003585               0.000036240               1.000000000               0.000005879               0.000043750               1.000000000               0.000008812               0.000052380               1.000000000               0.000012365               0.000062134               1.000000000               0.000016456               0.000072945               1.000000000               0.000021001               0.000084682               1.000000000               0.000025839               0.000097128               1.000000000               0.000000032               0.000000911               1.000000000              -0.000000058               0.000001407               1.000000000               0.000000142               0.000003361               1.000000000              -0.000000046               0.000005771               1.000000000              -0.000000096               0.000008691               1.000000000              -0.000000004               0.000012180               1.000000000               0.000000055               0.000016227               1.000000000               0.000000244               0.000020724               1.000000000               0.000000573               0.000025655               1.000000000               0.000001156               0.000031186               1.000000000               0.000002139               0.000037392               1.000000000               0.000003576               0.000044441               1.000000000               0.000005510               0.000052419               1.000000000               0.000007888               0.000061373               1.000000000               0.000010709               0.000071335               1.000000000               0.000013934               0.000082288               1.000000000               0.000017506               0.000094198               1.000000000               0.000000015               0.000001470               1.000000000              -0.000000118               0.000001899               1.000000000               0.000000118               0.000003868               1.000000000               0.000000033               0.000006432               1.000000000              -0.000000111               0.000009483               1.000000000              -0.000000045               0.000013032               1.000000000               0.000000024               0.000017137               1.000000000               0.000000116               0.000021801               1.000000000               0.000000312               0.000026878               1.000000000               0.000000616               0.000032467               1.000000000               0.000001131               0.000038647               1.000000000               0.000001932               0.000045466               1.000000000               0.000003056               0.000053061               1.000000000               0.000004511               0.000061435               1.000000000               0.000006260               0.000070692               1.000000000               0.000008306               0.000080786               1.000000000               0.000010670               0.000091815               1.000000000               0.000000042               0.000002031               1.000000000              -0.000000179               0.000002451               1.000000000               0.000000081               0.000004316               1.000000000               0.000000109               0.000006994               1.000000000              -0.000000067               0.000010125               1.000000000              -0.000000073               0.000013780               1.000000000              -0.000000006               0.000017908               1.000000000               0.000000042               0.000022642               1.000000000               0.000000135               0.000027885               1.000000000               0.000000281               0.000033551               1.000000000               0.000000510               0.000039789               1.000000000               0.000000882               0.000046560               1.000000000               0.000001436               0.000053969               1.000000000               0.000002191               0.000062034               1.000000000               0.000003139               0.000070824               1.000000000               0.000004244               0.000080318               1.000000000               0.000005497               0.000090613               1.000000000               0.000000050               0.000002618               1.000000000              -0.000000218               0.000003034               1.000000000               0.000000009               0.000004775               1.000000000               0.000000131               0.000007487               1.000000000              -0.000000011               0.000010691               1.000000000              -0.000000073               0.000014411               1.000000000              -0.000000040               0.000018588               1.000000000              -0.000000012               0.000023294               1.000000000               0.000000023               0.000028607               1.000000000               0.000000082               0.000034375               1.000000000               0.000000162               0.000040623               1.000000000               0.000000281               0.000047433               1.000000000               0.000000482               0.000054773               1.000000000               0.000000777               0.000062704               1.000000000               0.000001178               0.000071257               1.000000000               0.000001664               0.000080436               1.000000000               0.000002192               0.000090258               1.000000000               0.000000031               0.000003139               1.000000000              -0.000000208               0.000003567               1.000000000              -0.000000043               0.000005210               1.000000000               0.000000118               0.000007860               1.000000000               0.000000047               0.000011143               1.000000000              -0.000000041               0.000014905               1.000000000              -0.000000038               0.000019125               1.000000000              -0.000000023               0.000023815               1.000000000              -0.000000011               0.000029081               1.000000000               0.000000002               0.000034927               1.000000000               0.000000026               0.000041189               1.000000000               0.000000038               0.000047999               1.000000000               0.000000063               0.000055325               1.000000000               0.000000123               0.000063183               1.000000000               0.000000224               0.000071589               1.000000000               0.000000373               0.000080581               1.000000000               0.000000558               0.000090129               1.000000000               0.000000023               0.000003503               1.000000000              -0.000000157               0.000003959               1.000000000              -0.000000055               0.000005570               1.000000000               0.000000068               0.000008146               1.000000000               0.000000051               0.000011456               1.000000000              -0.000000012               0.000015273               1.000000000              -0.000000020               0.000019517               1.000000000              -0.000000021               0.000024212               1.000000000              -0.000000024               0.000029419               1.000000000              -0.000000033               0.000035263               1.000000000              -0.000000034               0.000041549               1.000000000              -0.000000033               0.000048332               1.000000000              -0.000000052               0.000055627               1.000000000              -0.000000071               0.000063435               1.000000000              -0.000000079               0.000071736               1.000000000              -0.000000068               0.000080593               1.000000000              -0.000000021               0.000089972               1.000000000               0.000000009               0.000003763               1.000000000              -0.000000098               0.000004260               1.000000000              -0.000000044               0.000005842               1.000000000               0.000000028               0.000008337               1.000000000               0.000000024               0.000011624               1.000000000               0.000000015               0.000015478               1.000000000               0.000000001               0.000019760               1.000000000              -0.000000006               0.000024478               1.000000000              -0.000000015               0.000029657               1.000000000              -0.000000023               0.000035452               1.000000000              -0.000000026               0.000041733               1.000000000              -0.000000024               0.000048488               1.000000000              -0.000000031               0.000055762               1.000000000              -0.000000055               0.000063560               1.000000000              -0.000000087               0.000071827               1.000000000              -0.000000118               0.000080627               1.000000000              -0.000000137               0.000089920               1.000000000              -0.000000000               0.000003846               1.000000000              -0.000000000               0.000004345               1.000000000               0.000000000               0.000005906               1.000000000               0.000000000               0.000008391               1.000000000              -0.000000000               0.000011679               1.000000000              -0.000000000               0.000015543               1.000000000               0.000000000               0.000019841               1.000000000               0.000000000               0.000024563               1.000000000               0.000000000               0.000029723               1.000000000               0.000000000               0.000035490               1.000000000              -0.000000000               0.000041771               1.000000000               0.000000000               0.000048528               1.000000000               0.000000000               0.000055808               1.000000000               0.000000000               0.000063623               1.000000000              -0.000000000               0.000071899               1.000000000              -0.000000000               0.000080690               1.000000000              -0.000000000               0.000089960               1.000000000 </DataArray>
<DataArray type="Float64"                                    Name="defo"                                                      NumberOfComponents=" 3" format="ascii">
              0.000000120              -0.000000000               1.000000000               0.000000060              -0.000000000               1.000000000               0.000000052              -0.000000000               1.000000000               0.000000117              -0.000000000               1.000000000               0.000000122               0.000000000               1.000000000               0.000000128              -0.000000000               1.000000000               0.000000129              -0.000000000               1.000000000               0.000000131              -0.000000000               1.000000000               0.000000127               0.000000000               1.000000000               0.000000088               0.000000000               1.000000000              -0.000000002              -0.000000000               1.000000000              -0.000000130              -0.000000000               1.000000000              -0.000000251              -0.000000000               1.000000000              -0.000000307              -0.000000000               1.000000000              -0.000000254               0.000000000               1.000000000              -0.000000090               0.000000000               1.000000000               0.000000136               0.000000000               1.000000000              -0.000000012              -0.000000087               1.000000000              -0.000000036               0.000000020               1.000000000              -0.000000042              -0.000000141               1.000000000              -0.000000056              -0.000000129               1.000000000              -0.000000069              -0.000000218               1.000000000              -0.000000067              -0.000000311               1.000000000              -0.000000073              -0.000000386               1.000000000              -0.000000079              -0.000000470               1.000000000              -0.000000094              -0.000000500               1.000000000              -0.000000124              -0.000000486               1.000000000              -0.000000153              -0.000000453               1.000000000              -0.000000167              -0.000000451               1.000000000              -0.000000149              -0.000000529               1.000000000              -0.000000089              -0.000000702               1.000000000              -0.000000003              -0.000000935               1.000000000               0.000000075              -0.000001143               1.000000000               0.000000099              -0.000001240               1.000000000              -0.000000026              -0.000000156               1.000000000               0.000000008              -0.000000023               1.000000000               0.000000014              -0.000000161               1.000000000              -0.000000012              -0.000000177               1.000000000              -0.000000016              -0.000000234               1.000000000              -0.000000043              -0.000000278               1.000000000              -0.000000063              -0.000000287               1.000000000              -0.000000083              -0.000000245               1.000000000              -0.000000110              -0.000000150               1.000000000              -0.000000109              -0.000000027               1.000000000              -0.000000051               0.000000085               1.000000000               0.000000086               0.000000142               1.000000000               0.000000278               0.000000143               1.000000000               0.000000453               0.000000142               1.000000000               0.000000510               0.000000234               1.000000000               0.000000350               0.000000527               1.000000000              -0.000000114               0.000001118               1.000000000               0.000000040              -0.000000254               1.000000000               0.000000005              -0.000000095               1.000000000              -0.000000003              -0.000000174               1.000000000               0.000000003              -0.000000186               1.000000000              -0.000000022              -0.000000054               1.000000000              -0.000000007               0.000000107               1.000000000               0.000000019               0.000000367               1.000000000               0.000000013               0.000000724               1.000000000               0.000000034               0.000001126               1.000000000               0.000000101               0.000001525               1.000000000               0.000000217               0.000001871               1.000000000               0.000000349               0.000002185               1.000000000               0.000000408               0.000002566               1.000000000               0.000000287               0.000003152               1.000000000              -0.000000119               0.000004086               1.000000000              -0.000000903               0.000005500               1.000000000              -0.000002137               0.000007517               1.000000000              -0.000000013              -0.000000365               1.000000000              -0.000000044              -0.000000162               1.000000000               0.000000001              -0.000000082               1.000000000               0.000000012               0.000000081               1.000000000               0.000000011               0.000000495               1.000000000               0.000000048               0.000000986               1.000000000               0.000000075               0.000001668               1.000000000               0.000000107               0.000002465               1.000000000               0.000000157               0.000003309               1.000000000               0.000000230               0.000004147               1.000000000               0.000000269               0.000004978               1.000000000               0.000000164               0.000005923               1.000000000              -0.000000204               0.000007134               1.000000000              -0.000000950               0.000008779               1.000000000              -0.000002158               0.000011011               1.000000000              -0.000003868               0.000013957               1.000000000              -0.000006084               0.000017706               1.000000000               0.000000015              -0.000000356               1.000000000               0.000000007              -0.000000100               1.000000000              -0.000000012               0.000000301               1.000000000               0.000000037               0.000000774               1.000000000               0.000000058               0.000001592               1.000000000               0.000000058               0.000002595               1.000000000               0.000000090               0.000003836               1.000000000               0.000000098               0.000005212               1.000000000               0.000000094               0.000006664               1.000000000               0.000000032               0.000008167               1.000000000              -0.000000217               0.000009834               1.000000000              -0.000000787               0.000011830               1.000000000              -0.000001806               0.000014330               1.000000000              -0.000003356               0.000017496               1.000000000              -0.000005465               0.000021434               1.000000000              -0.000008116               0.000026195               1.000000000              -0.000011275               0.000031808               1.000000000               0.000000046              -0.000000223               1.000000000              -0.000000014               0.000000099               1.000000000              -0.000000047               0.000000958               1.000000000               0.000000083               0.000001860               1.000000000               0.000000075               0.000003237               1.000000000               0.000000086               0.000004908               1.000000000               0.000000085               0.000006847               1.000000000               0.000000038               0.000009006               1.000000000              -0.000000102               0.000011285               1.000000000              -0.000000424               0.000013787               1.000000000              -0.000001101               0.000016663               1.000000000              -0.000002267               0.000020113               1.000000000              -0.000004012               0.000024303               1.000000000              -0.000006356               0.000029336               1.000000000              -0.000009286               0.000035236               1.000000000              -0.000012763               0.000042003               1.000000000              -0.000016730               0.000049611               1.000000000              -0.000000005               0.000000032               1.000000000              -0.000000029               0.000000472               1.000000000              -0.000000075               0.000001801               1.000000000               0.000000062               0.000003266               1.000000000               0.000000067               0.000005316               1.000000000               0.000000043               0.000007777               1.000000000              -0.000000002               0.000010616               1.000000000              -0.000000141               0.000013729               1.000000000              -0.000000476               0.000017137               1.000000000              -0.000001130               0.000020968               1.000000000              -0.000002299               0.000025447               1.000000000              -0.000004065               0.000030740               1.000000000              -0.000006476               0.000036981               1.000000000              -0.000009512               0.000044186               1.000000000              -0.000013143               0.000052347               1.000000000              -0.000017308               0.000061401               1.000000000              -0.000021935               0.000071224               1.000000000              -0.000000042               0.000000405               1.000000000               0.000000011               0.000000999               1.000000000              -0.000000103               0.000002846               1.000000000               0.000000116               0.000005060               1.000000000               0.000000075               0.000007856               1.000000000               0.000000010               0.000011275               1.000000000              -0.000000091               0.000015148               1.000000000              -0.000000392               0.000019451               1.000000000              -0.000000937               0.000024273               1.000000000              -0.000001962               0.000029799               1.000000000              -0.000003585               0.000036240               1.000000000              -0.000005879               0.000043750               1.000000000              -0.000008812               0.000052380               1.000000000              -0.000012365               0.000062134               1.000000000              -0.000016456               0.000072945               1.000000000              -0.000021001               0.000084682               1.000000000              -0.000025839               0.000097128               1.000000000              -0.000000032               0.000000911               1.000000000               0.000000058               0.000001407               1.000000000              -0.000000142               0.000003361               1.000000000               0.000000046               0.000005771               1.000000000               0.000000096               0.000008691               1.000000000               0.000000004               0.000012180               1.000000000              -0.000000055               0.000016227               1.000000000              -0.000000244               0.000020724               1.000000000              -0.000000573               0.000025655               1.000000000              -0.000001156               0.000031186               1.000000000              -0.000002139               0.000037392               1.000000000              -0.000003576               0.000044441               1.000000000              -0.000005510               0.000052419               1.000000000              -0.000007888               0.000061373               1.000000000              -0.000010709               0.000071335               1.000000000              -0.000013934               0.000082288               1.000000000              -0.000017506               0.000094198               1.000000000              -0.000000015               0.000001470               1.000000000               0.000000118               0.000001899               1.000000000              -0.000000118               0.000003868               1.000000000              -0.000000033               0.000006432               1.000000000               0.000000111               0.000009483               1.000000000               0.000000045               0.000013032               1.000000000              -0.000000024               0.000017137               1.000000000              -0.000000116               0.000021801               1.000000000              -0.000000312               0.000026878               1.000000000              -0.000000616               0.000032467               1.000000000              -0.000001131               0.000038647               1.000000000              -0.000001932               0.000045466               1.000000000              -0.000003056               0.000053061               1.000000000              -0.000004511               0.000061435               1.000000000              -0.000006260               0.000070692               1.000000000              -0.000008306               0.000080786               1.000000000              -0.000010670               0.000091815               1.000000000              -0.000000042               0.000002031               1.000000000               0.000000179               0.000002451               1.000000000              -0.000000081               0.000004316               1.000000000              -0.000000109               0.000006994               1.000000000               0.000000067               0.000010125               1.000000000               0.000000073               0.000013780               1.000000000               0.000000006               0.000017908               1.000000000              -0.000000042               0.000022642               1.000000000              -0.000000135               0.000027885               1.000000000              -0.000000281               0.000033551               1.000000000              -0.000000510               0.000039789               1.000000000              -0.000000882               0.000046560               1.000000000              -0.000001436               0.000053969               1.000000000              -0.000002191               0.000062034               1.000000000              -0.000003139               0.000070824               1.000000000              -0.000004244               0.000080318               1.000000000              -0.000005497               0.000090613               1.000000000              -0.000000050               0.000002618               1.000000000               0.000000218               0.000003034               1.000000000              -0.000000009               0.000004775               1.000000000              -0.000000131               0.000007487               1.000000000               0.000000011               0.000010691               1.000000000               0.000000073               0.000014411               1.000000000               0.000000040               0.000018588               1.000000000               0.000000012               0.000023294               1.000000000              -0.000000023               0.000028607               1.000000000              -0.000000082               0.000034375               1.000000000              -0.000000162               0.000040623               1.000000000              -0.000000281               0.000047433               1.000000000              -0.000000482               0.000054773               1.000000000              -0.000000777               0.000062704               1.000000000              -0.000001178               0.000071257               1.000000000              -0.000001664               0.000080436               1.000000000              -0.000002192               0.000090258               1.000000000              -0.000000031               0.000003139               1.000000000               0.000000208               0.000003567               1.000000000               0.000000043               0.000005210               1.000000000              -0.000000118               0.000007860               1.000000000              -0.000000047               0.000011143               1.000000000               0.000000041               0.000014905               1.000000000               0.000000038               0.000019125               1.000000000               0.000000023               0.000023815               1.000000000               0.000000011               0.000029081               1.000000000              -0.000000002               0.000034927               1.000000000              -0.000000026               0.000041189               1.000000000              -0.000000038               0.000047999               1.000000000              -0.000000063               0.000055325               1.000000000              -0.000000123               0.000063183               1.000000000              -0.000000224               0.000071589               1.000000000              -0.000000373               0.000080581               1.000000000              -0.000000558               0.000090129               1.000000000              -0.000000023               0.000003503               1.000000000               0.000000157               0.000003959               1.000000000               0.000000055               0.000005570               1.000000000              -0.000000068               0.000008146               1.000000000              -0.000000051               0.000011456               1.000000000               0.000000012               0.000015273               1.000000000               0.000000020               0.000019517               1.000000000               0.000000021               0.000024212               1.000000000               0.000000024               0.000029419               1.000000000               0.000000033               0.000035263               1.000000000               0.000000034               0.000041549               1.000000000               0.000000033               0.000048332               1.000000000               0.000000052               0.000055627               1.000000000               0.000000071               0.000063435               1.000000000               0.000000079               0.000071736               1.000000000               0.000000068               0.000080593               1.000000000               0.000000021               0.000089972               1.000000000              -0.000000009               0.000003763               1.000000000               0.000000098               0.000004260               1.000000000               0.000000044               0.000005842               1.000000000              -0.000000028               0.000008337               1.000000000              -0.000000024               0.000011624               1.000000000              -0.000000015               0.000015478               1.000000000              -0.000000001               0.000019760               1.000000000               0.000000006               0.000024478               1.000000000               0.000000015               0.000029657               1.000000000               0.000000023               0.000035452               1.000000000               0.000000026               0.000041733               1.000000000               0.000000024               0.000048488               1.000000000               0.000000031               0.000055762               1.000000000               0.000000055               0.000063560               1.000000000               0.000000087               0.000071827               1.000000000               0.000000118               0.000080627               1.000000000               0.000000137               0.000089920               1.000000000              -0.000000000               0.000003846               1.000000000              -0.000000000               0.000004345               1.000000000               0.000000000               0.000005906               1.000000000               0.000000000               0.000008391               1.000000000              -0.000000000               0.000011679               1.000000000              -0.000000000               0.000015543               1.000000000               0.000000000               0.000019841               1.000000000               0.000000000               0.000024563               1.000000000               0.000000000               0.000029723               1.000000000               0.000000000               0.000035490               1.000000000              -0.000000000               0.000041771               1.000000000               0.000000000               0.000048528               1.000000000               0.000000000               0.000055808               1.000000000               0.000000000               0.000063623               1.000000000              -0.000000000               0.000071899               1.000000000              -0.000000000               0.000080690               1.000000000              -0.000000000               0.000089960               1.000000000               0.000000120              -0.000000000               1.000000000               0.000000060              -0.000000000               1.000000000               0.000000052              -0.000000000               1.000000000               0.000000117              -0.000000000               1.000000000               0.000000122               0.000000000               1.000000000               0.000000128              -0.000000000               1.000000000               0.000000129              -0.000000000               1.000000000               0.000000131              -0.000000000               1.000000000               0.000000127               0.000000000               1.000000000               0.000000088               0.000000000               1.000000000              -0.000000002              -0.000000000               1.000000000              -0.000000130              -0.000000000               1.000000000              -0.000000251              -0.000000000               1.000000000              -0.000000307              -0.000000000               1.000000000              -0.000000254               0.000000000               1.000000000              -0.000000090               0.000000000               1.000000000               0.000000136               0.000000000               1.000000000              -0.000000012               0.000000087               1.000000000              -0.000000036              -0.000000020               1.000000000              -0.000000042               0.000000141               1.000000000              -0.000000056               0.000000129               1.000000000              -0.000000069               0.000000218               1.000000000              -0.000000067               0.000000311               1.000000000              -0.000000073               0.000000386               1.000000000              -0.000000079               0.000000470               1.000000000              -0.000000094               0.000000500               1.000000000              -0.000000124               0.000000486               1.000000000              -0.000000153               0.000000453               1.000000000              -0.000000167               0.000000451               1.000000000              -0.000000149               0.000000529               1.000000000              -0.000000089               0.000000702               1.000000000              -0.000000003               0.000000935               1.000000000               0.000000075               0.000001143               1.000000000               0.000000099               0.000001240               1.000000000              -0.000000026               0.000000156               1.000000000               0.000000008               0.000000023               1.000000000               0.000000014               0.000000161               1.000000000              -0.000000012               0.000000177               1.000000000              -0.000000016               0.000000234               1.000000000              -0.000000043               0.000000278               1.000000000              -0.000000063               0.000000287               1.000000000              -0.000000083               0.000000245               1.000000000              -0.000000110               0.000000150               1.000000000              -0.000000109               0.000000027               1.000000000              -0.000000051              -0.000000085               1.000000000               0.000000086              -0.000000142               1.000000000               0.000000278              -0.000000143               1.000000000               0.000000453              -0.000000142               1.000000000               0.000000510              -0.000000234               1.000000000               0.000000350              -0.000000527               1.000000000              -0.000000114              -0.000001118               1.000000000               0.000000040               0.000000254               1.000000000               0.000000005               0.000000095               1.000000000              -0.000000003               0.000000174               1.000000000               0.000000003               0.000000186               1.000000000              -0.000000022               0.000000054               1.000000000              -0.000000007              -0.000000107               1.000000000               0.000000019              -0.000000367               1.000000000               0.000000013              -0.000000724               1.000000000               0.000000034              -0.000001126               1.000000000               0.000000101              -0.000001525               1.000000000               0.000000217              -0.000001871               1.000000000               0.000000349              -0.000002185               1.000000000               0.000000408              -0.000002566               1.000000000               0.000000287              -0.000003152               1.000000000              -0.000000119              -0.000004086               1.000000000              -0.000000903              -0.000005500               1.000000000              -0.000002137              -0.000007517               1.000000000              -0.000000013               0.000000365               1.000000000              -0.000000044               0.000000162               1.000000000               0.000000001               0.000000082               1.000000000               0.000000012              -0.000000081               1.000000000               0.000000011              -0.000000495               1.000000000               0.000000048              -0.000000986               1.000000000               0.000000075              -0.000001668               1.000000000               0.000000107              -0.000002465               1.000000000               0.000000157              -0.000003309               1.000000000               0.000000230              -0.000004147               1.000000000               0.000000269              -0.000004978               1.000000000               0.000000164              -0.000005923               1.000000000              -0.000000204              -0.000007134               1.000000000              -0.000000950              -0.000008779               1.000000000              -0.000002158              -0.000011011               1.000000000              -0.000003868              -0.000013957               1.000000000              -0.000006084              -0.000017706               1.000000000               0.000000015               0.000000356               1.000000000               0.000000007               0.000000100               1.000000000              -0.000000012              -0.000000301               1.000000000               0.000000037              -0.000000774               1.000000000               0.000000058              -0.000001592               1.000000000               0.000000058              -0.000002595               1.000000000               0.000000090              -0.000003836               1.000000000               0.000000098              -0.000005212               1.000000000               0.000000094              -0.000006664               1.000000000               0.000000032              -0.000008167               1.000000000              -0.000000217              -0.000009834               1.000000000              -0.000000787              -0.000011830               1.000000000              -0.000001806              -0.000014330               1.000000000              -0.000003356              -0.000017496               1.000000000              -0.000005465              -0.000021434               1.000000000              -0.000008116              -0.000026195               1.000000000              -0.000011275              -0.000031808               1.000000000               0.000000046               0.000000223               1.000000000              -0.000000014              -0.000000099               1.000000000              -0.000000047              -0.000000958               1.000000000               0.000000083              -0.000001860               1.000000000               0.000000075              -0.000003237               1.000000000               0.000000086              -0.000004908               1.000000000               0.000000085              -0.000006847               1.000000000               0.000000038              -0.000009006               1.000000000              -0.000000102              -0.000011285               1.000000000              -0.000000424              -0.000013787               1.000000000              -0.000001101              -0.000016663               1.000000000              -0.000002267              -0.000020113               1.000000000              -0.000004012              -0.000024303               1.000000000              -0.000006356              -0.000029336               1.000000000              -0.000009286              -0.000035236               1.000000000              -0.000012763              -0.000042003               1.000000000              -0.000016730              -0.000049611               1.000000000              -0.000000005              -0.000000032               1.000000000              -0.000000029              -0.000000472               1.000000000              -0.000000075              -0.000001801               1.000000000               0.000000062              -0.000003266               1.000000000               0.000000067              -0.000005316               1.000000000               0.000000043              -0.000007777               1.000000000              -0.000000002              -0.000010616               1.000000000              -0.000000141              -0.000013729               1.000000000              -0.000000476              -0.000017137               1.000000000              -0.000001130              -0.000020968               1.000000000              -0.000002299              -0.000025447               1.000000000              -0.000004065              -0.000030740               1.000000000              -0.000006476              -0.000036981               1.000000000              -0.000009512              -0.000044186               1.000000000              -0.000013143              -0.000052347               1.000000000              -0.000017308              -0.000061401               1.000000000              -0.000021935              -0.000071224               1.000000000              -0.000000042              -0.000000405               1.000000000               0.000000011              -0.000000999               1.000000000              -0.000000103              -0.000002846               1.000000000               0.000000116              -0.000005060               1.000000000               0.000000075              -0.000007856               1.000000000               0.000000010              -0.000011275               1.000000000              -0.000000091              -0.000015148               1.000000000              -0.000000392              -0.000019451               1.000000000              -0.000000937              -0.000024273               1.000000000              -0.000001962              -0.000029799               1.000000000              -0.000003585              -0.000036240               1.000000000              -0.000005879              -0.000043750               1.000000000              -0.000008812              -0.000052380               1.000000000              -0.000012365              -0.000062134               1.000000000              -0.000016456              -0.000072945               1.000000000              -0.000021001              -0.000084682               1.000000000              -0.000025839              -0.000097128               1.000000000              -0.000000032              -0.000000911               1.000000000               0.000000058              -0.000001407               1.000000000              -0.000000142              -0.000003361               1.000000000               0.000000046              -0.000005771               1.000000000               0.000000096              -0.000008691               1.000000000               0.000000004              -0.000012180               1.000000000              -0.000000055              -0.000016227               1.000000000              -0.000000244              -0.000020724               1.000000000              -0.000000573              -0.000025655               1.000000000              -0.000001156              -0.000031186               1.000000000              -0.000002139              -0.000037392               1.000000000              -0.000003576              -0.000044441               1.000000000              -0.000005510              -0.000052419               1.000000000              -0.000007888              -0.000061373               1.000000000              -0.000010709              -0.000071335               1.000000000              -0.000013934              -0.000082288               1.000000000              -0.000017506              -0.000094198               1.000000000              -0.000000015              -0.000001470               1.000000000               0.000000118              -0.000001899               1.000000000              -0.000000118              -0.000003868               1.000000000              -0.000000033              -0.000006432               1.000000000               0.000000111              -0.000009483               1.000000000               0.000000045              -0.000013032               1.000000000              -0.000000024              -0.000017137               1.000000000              -0.000000116              -0.000021801               1.000000000              -0.000000312              -0.000026878               1.000000000              -0.000000616              -0.000032467               1.000000000              -0.000001131              -0.000038647               1.000000000              -0.000001932              -0.000045466               1.000000000              -0.000003056              -0.000053061               1.000000000              -0.000004511              -0.000061435               1.000000000              -0.000006260              -0.000070692               1.000000000              -0.000008306              -0.000080786               1.000000000              -0.000010670              -0.000091815               1.000000000              -0.000000042              -0.000002031               1.000000000               0.000000179              -0.000002451               1.000000000              -0.000000081              -0.000004316               1.000000000              -0.000000109              -0.000006994               1.000000000               0.000000067              -0.000010125               1.000000000               0.000000073              -0.000013780               1.000000000               0.000000006              -0.000017908               1.000000000              -0.000000042              -0.000022642               1.000000000              -0.000000135              -0.000027885               1.000000000              -0.000000281              -0.000033551               1.000000000              -0.000000510              -0.000039789               1.000000000              -0.000000882              -0.000046560               1.000000000              -0.000001436              -0.000053969               1.000000000              -0.000002191              -0.000062034               1.000000000              -0.000003139              -0.000070824               1.000000000              -0.000004244              -0.000080318               1.000000000              -0.000005497              -0.000090613               1.000000000              -0.000000050              -0.000002618               1.000000000               0.000000218              -0.000003034               1.000000000              -0.000000009              -0.000004775               1.000000000              -0.000000131              -0.000007487               1.000000000               0.000000011              -0.000010691               1.000000000               0.000000073              -0.000014411               1.000000000               0.000000040              -0.000018588               1.000000000               0.000000012              -0.000023294               1.000000000              -0.000000023              -0.000028607               1.000000000              -0.000000082              -0.000034375               1.000000000              -0.000000162              -0.000040623               1.000000000              -0.000000281              -0.000047433               1.000000000              -0.000000482              -0.000054773               1.000000000              -0.000000777              -0.000062704               1.000000000              -0.000001178              -0.000071257               1.000000000              -0.000001664              -0.000080436               1.000000000              -0.000002192              -0.000090258               1.000000000              -0.000000031              -0.000003139               1.000000000               0.000000208              -0.000003567               1.000000000               0.000000043              -0.000005210               1.000000000              -0.000000118              -0.000007860               1.000000000              -0.000000047              -0.000011143               1.000000000               0.000000041              -0.000014905               1.000000000               0.000000038              -0.000019125               1.000000000               0.000000023              -0.000023815               1.000000000               0.000000011              -0.000029081               1.000000000              -0.000000002              -0.000034927               1.000000000              -0.000000026              -0.000041189               1.000000000              -0.000000038              -0.000047999               1.000000000              -0.000000063              -0.000055325               1.000000000              -0.000000123              -0.000063183               1.000000000              -0.000000224              -0.000071589               1.000000000              -0.000000373              -0.000080581               1.000000000              -0.000000558              -0.000090129               1.000000000              -0.000000023              -0.000003503               1.000000000               0.000000157              -0.000003959               1.000000000               0.000000055              -0.000005570               1.000000000              -0.000000068              -0.000008146               1.000000000              -0.000000051              -0.000011456               1.000000000               0.000000012              -0.000015273               1.000000000               0.000000020              -0.000019517               1.000000000               0.000000021              -0.000024212               1.000000000               0.000000024              -0.000029419               1.000000000               0.000000033              -0.000035263               1.000000000               0.000000034              -0.000041549               1.000000000               0.000000033              -0.000048332               1.000000000               0.000000052              -0.000055627               1.000000000               0.000000071              -0.000063435               1.000000000               0.000000079              -0.000071736               1.000000000               0.000000068              -0.000080593               1.000000000               0.000000021              -0.000089972               1.000000000              -0.000000009              -0.000003763               1.000000000               0.000000098              -0.000004260               1.000000000               0.000000044              -0.000005842               1.000000000              -0.000000028              -0.000008337               1.000000000              -0.000000024              -0.000011624               1.000000000              -0.000000015              -0.000015478               1.000000000              -0.000000001              -0.000019760               1.000000000               0.000000006              -0.000024478               1.000000000               0.000000015              -0.000029657               1.000000000               0.000000023              -0.000035452               1.000000000               0.000000026              -0.000041733               1.000000000               0.000000024              -0.000048488               1.000000000               0.000000031              -0.000055762               1.000000000               0.000000055              -0.000063560               1.000000000               0.000000087              -0.000071827               1.000000000               0.000000118              -0.000080627               1.000000000               0.000000137              -0.000089920               1.000000000              -0.000000000              -0.000003846               1.000000000              -0.000000000              -0.000004345               1.000000000              -0.000000000              -0.000005906               1.000000000               0.000000000              -0.000008391               1.000000000              -0.000000000              -0.000011679               1.000000000              -0.000000000              -0.000015543               1.000000000              -0.000000000              -0.000019841               1.000000000              -0.000000000              -0.000024563               1.000000000              -0.000000000              -0.000029723               1.000000000              -0.000000000              -0.000035490               1.000000000               0.000000000              -0.000041771               1.000000000              -0.000000000              -0.000048528               1.000000000              -0.000000000              -0.000055808               1.000000000              -0.000000000              -0.000063623               1.000000000              -0.000000000              -0.000071899               1.000000000               0.000000000              -0.000080690               1.000000000               0.000000000              -0.000089960               1.000000000              -0.000000120              -0.000000000               1.000000000              -0.000000060               0.000000000               1.000000000              -0.000000052              -0.000000000               1.000000000              -0.000000117              -0.000000000               1.000000000              -0.000000122               0.000000000               1.000000000              -0.000000128               0.000000000               1.000000000              -0.000000129               0.000000000               1.000000000              -0.000000131               0.000000000               1.000000000              -0.000000127               0.000000000               1.000000000              -0.000000088              -0.000000000               1.000000000               0.000000002               0.000000000               1.000000000               0.000000130               0.000000000               1.000000000               0.000000251               0.000000000               1.000000000               0.000000307               0.000000000               1.000000000               0.000000254               0.000000000               1.000000000               0.000000090              -0.000000000               1.000000000              -0.000000136              -0.000000000               1.000000000               0.000000012               0.000000087               1.000000000               0.000000036              -0.000000020               1.000000000               0.000000042               0.000000141               1.000000000               0.000000056               0.000000129               1.000000000               0.000000069               0.000000218               1.000000000               0.000000067               0.000000311               1.000000000               0.000000073               0.000000386               1.000000000               0.000000079               0.000000470               1.000000000               0.000000094               0.000000500               1.000000000               0.000000124               0.000000486               1.000000000               0.000000153               0.000000453               1.000000000               0.000000167               0.000000451               1.000000000               0.000000149               0.000000529               1.000000000               0.000000089               0.000000702               1.000000000               0.000000003               0.000000935               1.000000000              -0.000000075               0.000001143               1.000000000              -0.000000099               0.000001240               1.000000000               0.000000026               0.000000156               1.000000000              -0.000000008               0.000000023               1.000000000              -0.000000014               0.000000161               1.000000000               0.000000012               0.000000177               1.000000000               0.000000016               0.000000234               1.000000000               0.000000043               0.000000278               1.000000000               0.000000063               0.000000287               1.000000000               0.000000083               0.000000245               1.000000000               0.000000110               0.000000150               1.000000000               0.000000109               0.000000027               1.000000000               0.000000051              -0.000000085               1.000000000              -0.000000086              -0.000000142               1.000000000              -0.000000278              -0.000000143               1.000000000              -0.000000453              -0.000000142               1.000000000              -0.000000510              -0.000000234               1.000000000              -0.000000350              -0.000000527               1.000000000               0.000000114              -0.000001118               1.000000000              -0.000000040               0.000000254               1.000000000              -0.000000005               0.000000095               1.000000000               0.000000003               0.000000174               1.000000000              -0.000000003               0.000000186               1.000000000               0.000000022               0.000000054               1.000000000               0.000000007              -0.000000107               1.000000000              -0.000000019              -0.000000367               1.000000000              -0.000000013              -0.000000724               1.000000000              -0.000000034              -0.000001126               1.000000000              -0.000000101              -0.000001525               1.000000000              -0.000000217              -0.000001871               1.000000000              -0.000000349              -0.000002185               1.000000000              -0.000000408              -0.000002566               1.000000000              -0.000000287              -0.000003152               1.000000000               0.000000119              -0.000004086               1.000000000               0.000000903              -0.000005500               1.000000000               0.000002137              -0.000007517               1.000000000               0.000000013               0.000000365               1.000000000               0.000000044               0.000000162               1.000000000              -0.000000001               0.000000082               1.000000000              -0.000000012              -0.000000081               1.000000000              -0.000000011              -0.000000495               1.000000000              -0.000000048              -0.000000986               1.000000000              -0.000000075              -0.000001668               1.000000000              -0.000000107              -0.000002465               1.000000000              -0.000000157              -0.000003309               1.000000000              -0.000000230              -0.000004147               1.000000000              -0.000000269              -0.000004978               1.000000000              -0.000000164              -0.000005923               1.000000000               0.000000204              -0.000007134               1.000000000               0.000000950              -0.000008779               1.000000000               0.000002158              -0.000011011               1.000000000               0.000003868              -0.000013957               1.000000000               0.000006084              -0.000017706               1.000000000              -0.000000015               0.000000356               1.000000000              -0.000000007               0.000000100               1.000000000               0.000000012              -0.000000301               1.000000000              -0.000000037              -0.000000774               1.000000000              -0.000000058              -0.000001592               1.000000000              -0.000000058              -0.000002595               1.000000000              -0.000000090              -0.000003836               1.000000000              -0.000000098              -0.000005212               1.000000000              -0.000000094              -0.000006664               1.000000000              -0.000000032              -0.000008167               1.000000000               0.000000217              -0.000009834               1.000000000               0.000000787              -0.000011830               1.000000000               0.000001806              -0.000014330               1.000000000               0.000003356              -0.000017496               1.000000000               0.000005465              -0.000021434               1.000000000               0.000008116              -0.000026195               1.000000000               0.000011275              -0.000031808               1.000000000              -0.000000046               0.000000223               1.000000000               0.000000014              -0.000000099               1.000000000               0.000000047              -0.000000958               1.000000000              -0.000000083              -0.000001860               1.000000000              -0.000000075              -0.000003237               1.000000000              -0.000000086              -0.000004908               1.000000000              -0.000000085              -0.000006847               1.000000000              -0.000000038              -0.000009006               1.000000000               0.000000102              -0.000011285               1.000000000               0.000000424              -0.000013787               1.000000000               0.000001101              -0.000016663               1.000000000               0.000002267              -0.000020113               1.000000000               0.000004012              -0.000024303               1.000000000               0.000006356              -0.000029336               1.000000000               0.000009286              -0.000035236               1.000000000               0.000012763              -0.000042003               1.000000000               0.000016730              -0.000049611               1.000000000               0.000000005              -0.000000032               1.000000000               0.000000029              -0.000000472               1.000000000               0.000000075              -0.000001801               1.000000000              -0.000000062              -0.000003266               1.000000000              -0.000000067              -0.000005316               1.000000000              -0.000000043              -0.000007777               1.000000000               0.000000002              -0.000010616               1.000000000               0.000000141              -0.000013729               1.000000000               0.000000476              -0.000017137               1.000000000               0.000001130              -0.000020968               1.000000000               0.000002299              -0.000025447               1.000000000               0.000004065              -0.000030740               1.000000000               0.000006476              -0.000036981               1.000000000               0.000009512              -0.000044186               1.000000000               0.000013143              -0.000052347               1.000000000               0.000017308              -0.000061401               1.000000000               0.000021935              -0.000071224               1.000000000               0.000000042              -0.000000405               1.000000000              -0.000000011              -0.000000999               1.000000000               0.000000103              -0.000002846               1.000000000              -0.000000116              -0.000005060               1.000000000              -0.000000075              -0.000007856               1.000000000              -0.000000010              -0.000011275               1.000000000               0.000000091              -0.000015148               1.000000000               0.000000392              -0.000019451               1.000000000               0.000000937              -0.000024273               1.000000000               0.000001962              -0.000029799               1.000000000               0.000003585              -0.000036240               1.000000000               0.000005879              -0.000043750               1.000000000               0.000008812              -0.000052380               1.000000000               0.000012365              -0.000062134               1.000000000               0.000016456              -0.000072945               1.000000000               0.000021001              -0.000084682               1.000000000               0.000025839              -0.000097128               1.000000000               0.000000032              -0.000000911               1.000000000              -0.000000058              -0.000001407               1.000000000               0.000000142              -0.000003361               1.000000000              -0.000000046              -0.000005771               1.000000000              -0.000000096              -0.000008691               1.000000000              -0.000000004              -0.000012180               1.000000000               0.000000055              -0.000016227               1.000000000               0.000000244              -0.000020724               1.000000000               0.000000573              -0.000025655               1.000000000               0.000001156              -0.000031186               1.000000000               0.000002139              -0.000037392               1.000000000               0.000003576              -0.000044441               1.000000000               0.000005510              -0.000052419               1.000000000               0.000007888              -0.000061373               1.000000000               0.000010709              -0.000071335               1.000000000               0.000013934              -0.000082288               1.000000000               0.000017506              -0.000094198               1.000000000               0.000000015              -0.000001470               1.000000000              -0.000000118              -0.000001899               1.000000000               0.000000118              -0.000003868               1.000000000               0.000000033              -0.000006432               1.000000000              -0.000000111              -0.000009483               1.000000000              -0.000000045              -0.000013032               1.000000000               0.000000024              -0.000017137               1.000000000               0.000000116              -0.000021801               1.000000000               0.000000312              -0.000026878               1.000000000               0.000000616              -0.000032467               1.000000000               0.000001131              -0.000038647               1.000000000               0.000001932              -0.000045466               1.000000000               0.000003056              -0.000053061               1.000000000               0.000004511              -0.000061435               1.000000000               0.000006260              -0.000070692               1.000000000               0.000008306              -0.000080786               1.000000000               0.000010670              -0.000091815               1.000000000               0.000000042              -0.000002031               1.000000000              -0.000000179              -0.000002451               1.000000000               0.000000081              -0.000004316               1.000000000               0.000000109              -0.000006994               1.000000000              -0.000000067              -0.000010125               1.000000000              -0.000000073              -0.000013780               1.000000000              -0.000000006              -0.000017908               1.000000000               0.000000042              -0.000022642               1.000000000               0.000000135              -0.000027885               1.000000000               0.000000281              -0.000033551               1.000000000               0.000000510              -0.000039789               1.000000000               0.000000882              -0.000046560               1.000000000               0.000001436              -0.000053969               1.000000000               0.000002191              -0.000062034               1.000000000               0.000003139              -0.000070824               1.000000000               0.000004244              -0.000080318               1.000000000               0.000005497              -0.000090613               1.000000000               0.000000050              -0.000002618               1.000000000              -0.000000218              -0.000003034               1.000000000               0.000000009              -0.000004775               1.000000000               0.000000131              -0.000007487               1.000000000              -0.000000011              -0.000010691               1.000000000              -0.000000073              -0.000014411               1.000000000              -0.000000040              -0.000018588               1.000000000              -0.000000012              -0.000023294               1.000000000               0.000000023              -0.000028607               1.000000000               0.000000082              -0.000034375               1.000000000               0.000000162              -0.000040623               1.000000000               0.000000281              -0.000047433               1.000000000               0.000000482              -0.000054773               1.000000000               0.000000777              -0.000062704               1.000000000               0.000001178              -0.000071257               1.000000000               0.000001664              -0.000080436               1.000000000               0.000002192              -0.000090258               1.000000000               0.000000031              -0.000003139               1.000000000              -0.000000208              -0.000003567               1.000000000              -0.000000043              -0.000005210               1.000000000               0.000000118              -0.000007860               1.000000000               0.000000047              -0.000011143               1.000000000              -0.000000041              -0.000014905               1.000000000              -0.000000038              -0.000019125               1.000000000              -0.000000023              -0.000023815               1.000000000              -0.000000011              -0.000029081               1.000000000               0.000000002              -0.000034927               1.000000000               0.000000026              -0.000041189               1.000000000               0.000000038              -0.000047999               1.000000000               0.000000063              -0.000055325               1.000000000               0.000000123              -0.000063183               1.000000000               0.000000224              -0.000071589               1.000000000               0.000000373              -0.000080581               1.000000000               0.000000558              -0.000090129               1.000000000               0.000000023              -0.000003503               1.000000000              -0.000000157              -0.000003959               1.000000000              -0.000000055              -0.000005570               1.000000000               0.000000068              -0.000008146               1.000000000               0.000000051              -0.000011456               1.000000000              -0.000000012              -0.000015273               1.000000000              -0.000000020              -0.000019517               1.000000000              -0.000000021              -0.000024212               1.000000000              -0.000000024              -0.000029419               1.000000000              -0.000000033              -0.000035263               1.000000000              -0.000000034              -0.000041549               1.000000000              -0.000000033              -0.000048332               1.000000000              -0.000000052              -0.000055627               1.000000000              -0.000000071              -0.000063435               1.000000000              -0.000000079              -0.000071736               1.000000000              -0.000000068              -0.000080593               1.000000000              -0.000000021              -0.000089972               1.000000000               0.000000009              -0.000003763               1.000000000              -0.000000098              -0.000004260               1.000000000              -0.000000044              -0.000005842               1.000000000               0.000000028              -0.000008337               1.000000000               0.000000024              -0.000011624               1.000000000               0.000000015              -0.000015478               1.000000000               0.000000001              -0.000019760               1.000000000              -0.000000006              -0.000024478               1.000000000              -0.000000015              -0.000029657               1.000000000              -0.000000023              -0.000035452               1.000000000              -0.000000026              -0.000041733               1.000000000              -0.000000024              -0.000048488               1.000000000              -0.000000031              -0.000055762               1.000000000              -0.000000055              -0.000063560               1.000000000              -0.000000087              -0.000071827               1.000000000              -0.000000118              -0.000080627               1.000000000              -0.000000137              -0.000089920               1.000000000              -0.000000000              -0.000003846               1.000000000              -0.000000000              -0.000004345               1.000000000              -0.000000000              -0.000005906               1.000000000               0.000000000              -0.000008391               1.000000000              -0.000000000              -0.000011679               1.000000000              -0.000000000              -0.000015543               1.000000000              -0.000000000              -0.000019841               1.000000000              -0.000000000              -0.000024563               1.000000000              -0.000000000              -0.000029723               1.000000000              -0.000000000              -0.000035490               1.000000000               0.000000000              -0.000041771               1.000000000              -0.000000000              -0.000048528               1.000000000              -0.000000000              -0.000055808               1.000000000              -0.000000000              -0.000063623               1.000000000              -0.000000000              -0.000071899               1.000000000               0.000000000              -0.000080690               1.000000000               0.000000000              -0.000089960               1.000000000              -0.000000120              -0.000000000               1.000000000              -0.000000060               0.000000000               1.000000000              -0.000000052              -0.000000000               1.000000000              -0.000000117              -0.000000000               1.000000000              -0.000000122               0.000000000               1.000000000              -0.000000128               0.000000000               1.000000000              -0.000000129               0.000000000               1.000000000              -0.000000131               0.000000000               1.000000000              -0.000000127               0.000000000               1.000000000              -0.000000088              -0.000000000               1.000000000               0.000000002               0.000000000               1.000000000               0.000000130               0.000000000               1.000000000               0.000000251               0.000000000               1.000000000               0.000000307               0.000000000               1.000000000               0.000000254               0.000000000               1.000000000               0.000000090              -0.000000000               1.000000000              -0.000000136              -0.000000000               1.000000000               0.000000012              -0.000000087               1.000000000               0.000000036               0.000000020               1.000000000               0.000000042              -0.000000141               1.000000000               0.000000056              -0.000000129               1.000000000               0.000000069              -0.000000218               1.000000000               0.000000067              -0.000000311               1.000000000               0.000000073              -0.000000386               1.000000000               0.000000079              -0.000000470               1.000000000               0.000000094              -0.000000500               1.000000000               0.000000124              -0.000000486               1.000000000               0.000000153              -0.000000453               1.000000000               0.000000167              -0.000000451               1.000000000               0.000000149              -0.000000529               1.000000000               0.000000089              -0.000000702               1.000000000               0.000000003              -0.000000935               1.000000000              -0.000000075              -0.000001143               1.000000000              -0.000000099              -0.000001240               1.000000000               0.000000026              -0.000000156               1.000000000              -0.000000008              -0.000000023               1.000000000              -0.000000014              -0.000000161               1.000000000               0.000000012              -0.000000177               1.000000000               0.000000016              -0.000000234               1.000000000               0.000000043              -0.000000278               1.000000000               0.000000063              -0.000000287               1.000000000               0.000000083              -0.000000245               1.000000000               0.000000110              -0.000000150               1.000000000               0.000000109              -0.000000027               1.000000000               0.000000051               0.000000085               1.000000000              -0.000000086               0.000000142               1.000000000              -0.000000278               0.000000143               1.000000000              -0.000000453               0.000000142               1.000000000              -0.000000510               0.000000234               1.000000000              -0.000000350               0.000000527               1.000000000               0.000000114               0.000001118               1.000000000              -0.000000040              -0.000000254               1.000000000              -0.000000005              -0.000000095               1.000000000               0.000000003              -0.000000174               1.000000000              -0.000000003              -0.000000186               1.000000000               0.000000022              -0.000000054               1.000000000               0.000000007               0.000000107               1.000000000              -0.000000019               0.000000367               1.000000000              -0.000000013               0.000000724               1.000000000              -0.000000034               0.000001126               1.000000000              -0.000000101               0.000001525               1.000000000              -0.000000217               0.000001871               1.000000000              -0.000000349               0.000002185               1.000000000              -0.000000408               0.000002566               1.000000000              -0.000000287               0.000003152               1.000000000               0.000000119               0.000004086               1.000000000               0.000000903               0.000005500               1.000000000               0.000002137               0.000007517               1.000000000               0.000000013              -0.000000365               1.000000000               0.000000044              -0.000000162               1.000000000              -0.000000001              -0.000000082               1.000000000              -0.000000012               0.000000081               1.000000000              -0.000000011               0.000000495               1.000000000              -0.000000048               0.000000986               1.000000000              -0.000000075               0.000001668               1.000000000              -0.000000107               0.000002465               1.000000000              -0.000000157               0.000003309               1.000000000              -0.000000230               0.000004147               1.000000000              -0.000000269               0.000004978               1.000000000              -0.000000164               0.000005923               1.000000000               0.000000204               0.000007134               1.000000000               0.000000950               0.000008779               1.000000000               0.000002158               0.000011011               1.000000000               0.000003868               0.000013957               1.000000000               0.000006084               0.000017706               1.000000000              -0.000000015              -0.000000356               1.000000000              -0.000000007              -0.000000100               1.000000000               0.000000012               0.000000301               1.000000000              -0.000000037               0.000000774               1.000000000              -0.000000058               0.000001592               1.000000000              -0.000000058               0.000002595               1.000000000              -0.000000090               0.000003836               1.000000000              -0.000000098               0.000005212               1.000000000              -0.000000094               0.000006664               1.000000000              -0.000000032               0.000008167               1.000000000               0.000000217               0.000009834               1.000000000               0.000000787               0.000011830               1.000000000               0.000001806               0.000014330               1.000000000               0.000003356               0.000017496               1.000000000               0.000005465               0.000021434               1.000000000               0.000008116               0.000026195               1.000000000               0.000011275               0.000031808               1.000000000              -0.000000046              -0.000000223               1.000000000               0.000000014               0.000000099               1.000000000               0.000000047               0.000000958               1.000000000              -0.000000083               0.000001860               1.000000000              -0.000000075               0.000003237               1.000000000              -0.000000086               0.000004908               1.000000000              -0.000000085               0.000006847               1.000000000              -0.000000038               0.000009006               1.000000000               0.000000102               0.000011285               1.000000000               0.000000424               0.000013787               1.000000000               0.000001101               0.000016663               1.000000000               0.000002267               0.000020113               1.000000000               0.000004012               0.000024303               1.000000000               0.000006356               0.000029336               1.000000000               0.000009286               0.000035236               1.000000000               0.000012763               0.000042003               1.000000000               0.000016730               0.000049611               1.000000000               0.000000005               0.000000032               1.000000000               0.000000029               0.000000472               1.000000000               0.000000075               0.000001801               1.000000000              -0.000000062               0.000003266               1.000000000              -0.000000067               0.000005316               1.000000000              -0.000000043               0.000007777               1.000000000               0.000000002               0.000010616               1.000000000               0.000000141               0.000013729               1.000000000               0.000000476               0.000017137               1.000000000               0.000001130               0.000020968               1.000000000               0.000002299               0.000025447               1.000000000               0.000004065               0.000030740               1.000000000               0.000006476               0.000036981               1.000000000               0.000009512               0.000044186               1.000000000               0.000013143               0.000052347               1.000000000               0.000017308               0.000061401               1.000000000               0.000021935               0.000071224               1.000000000               0.000000042               0.000000405               1.000000000              -0.000000011               0.000000999               1.000000000               0.000000103               0.000002846               1.000000000              -0.000000116               0.000005060               1.000000000              -0.000000075               0.000007856               1.000000000              -0.000000010               0.000011275               1.000000000               0.000000091               0.000015148               1.000000000               0.000000392               0.000019451               1.000000000               0.000000937               0.000024273               1.000000000               0.000001962               0.000029799               1.000000000               0.000003585               0.000036240               1.000000000               0.000005879               0.000043750               1.000000000               0.000008812               0.000052380               1.000000000               0.000012365               0.000062134               1.000000000               0.000016456               0.000072945               1.000000000               0.000021001               0.000084682               1.000000000               0.000025839               0.000097128               1.000000000               0.000000032               0.000000911               1.000000000              -0.000000058               0.000001407               1.000000000               0.000000142               0.000003361               1.000000000              -0.000000046               0.000005771               1.000000000              -0.000000096               0.000008691               1.000000000              -0.000000004               0.000012180               1.000000000               0.000000055               0.000016227               1.000000000               0.000000244               0.000020724               1.000000000               0.000000573               0.000025655               1.000000000               0.000001156               0.000031186               1.000000000               0.000002139               0.000037392               1.000000000               0.000003576               0.000044441               1.000000000               0.000005510               0.000052419               1.000000000               0.000007888               0.000061373               1.000000000               0.000010709               0.000071335               1.000000000               0.000013934               0.000082288               1.000000000               0.000017506               0.000094198               1.000000000               0.000000015               0.000001470               1.000000000              -0.000000118               0.000001899               1.000000000               0.000000118               0.000003868               1.000000000               0.000000033               0.000006432               1.000000000              -0.000000111               0.000009483               1.000000000              -0.000000045               0.000013032               1.000000000               0.000000024               0.000017137               1.000000000               0.000000116               0.000021801               1.000000000               0.000000312               0.000026878               1.000000000               0.000000616               0.000032467               1.000000000               0.000001131               0.000038647               1.000000000               0.000001932               0.000045466               1.000000000               0.000003056               0.000053061               1.000000000               0.000004511               0.000061435               1.000000000               0.000006260               0.000070692               1.000000000               0.000008306               0.000080786               1.000000000               0.000010670               0.000091815               1.000000000               0.000000042               0.000002031               1.000000000              -0.000000179               0.000002451               1.000000000               0.000000081               0.000004316               1.000000000               0.000000109               0.000006994               1.000000000              -0.000000067               0.000010125               1.000000000              -0.000000073               0.000013780               1.000000000              -0.000000006               0.000017908               1.000000000               0.000000042               0.000022642               1.000000000               0.000000135               0.000027885               1.000000000               0.000000281               0.000033551               1.000000000               0.000000510               0.000039789               1.000000000               0.000000882               0.000046560               1.000000000               0.000001436               0.000053969               1.000000000               0.000002191               0.000062034               1.000000000               0.000003139               0.000070824               1.000000000               0.000004244               0.000080318               1.000000000               0.000005497               0.000090613               1.000000000               0.000000050               0.000002618               1.000000000              -0.000000218               0.000003034               1.000000000               0.000000009               0.000004775               1.000000000               0.000000131               0.000007487               1.000000000              -0.000000011               0.000010691               1.000000000              -0.000000073               0.000014411               1.000000000              -0.000000040               0.000018588               1.000000000              -0.000000012               0.000023294               1.000000000               0.000000023               0.000028607               1.000000000               0.000000082               0.000034375               1.000000000               0.000000162               0.000040623               1.000000000               0.000000281               0.000047433               1.000000000               0.000000482               0.000054773               1.000000000               0.000000777               0.000062704               1.000000000               0.000001178               0.000071257               1.000000000               0.000001664               0.000080436               1.000000000               0.000002192               0.000090258               1.000000000               0.000000031               0.000003139               1.000000000              -0.000000208               0.000003567               1.000000000              -0.000000043               0.000005210               1.000000000               0.000000118               0.000007860               1.000000000               0.000000047               0.000011143               1.000000000              -0.000000041               0.000014905               1.000000000              -0.000000038               0.000019125               1.000000000              -0.000000023               0.000023815               1.000000000              -0.000000011               0.000029081               1.000000000               0.000000002               0.000034927               1.000000000               0.000000026               0.000041189               1.000000000               0.000000038               0.000047999               1.000000000               0.000000063               0.000055325               1.000000000               0.000000123               0.000063183               1.000000000               0.000000224               0.000071589               1.000000000               0.000000373               0.000080581               1.000000000               0.000000558               0.000090129               1.000000000               0.000000023               0.000003503               1.000000000              -0.000000157               0.000003959               1.000000000              -0.000000055               0.000005570               1.000000000               0.000000068               0.000008146               1.000000000               0.000000051               0.000011456               1.000000000              -0.000000012               0.000015273               1.000000000              -0.000000020               0.000019517               1.000000000              -0.000000021               0.000024212               1.000000000              -0.000000024               0.000029419               1.000000000              -0.000000033               0.000035263               1.000000000              -0.000000034               0.000041549               1.000000000              -0.000000033               0.000048332               1.000000000              -0.000000052               0.000055627               1.000000000              -0.000000071               0.000063435               1.000000000              -0.000000079               0.000071736               1.000000000              -0.000000068               0.000080593               1.000000000              -0.000000021               0.000089972               1.000000000               0.000000009               0.000003763               1.000000000              -0.000000098               0.000004260               1.000000000              -0.000000044               0.000005842               1.000000000               0.000000028               0.000008337               1.000000000               0.000000024               0.000011624               1.000000000               0.000000015               0.000015478               1.000000000               0.000000001               0.000019760               1.000000000              -0.000000006               0.000024478               1.000000000              -0.000000015               0.000029657               1.000000000              -0.000000023               0.000035452               1.000000000              -0.000000026               0.000041733               1.000000000              -0.000000024               0.000048488               1.000000000              -0.000000031               0.000055762               1.000000000              -0.000000055               0.000063560               1.000000000              -0.000000087               0.000071827               1.000000000              -0.000000118               0.000080627               1.000000000              -0.000000137               0.000089920               1.000000000              -0.000000000               0.000003846               1.000000000              -0.000000000               0.000004345               1.000000000               0.000000000               0.000005906               1.000000000               0.000000000               0.000008391               1.000000000              -0.000000000               0.000011679               1.000000000              -0.000000000               0.000015543               1.000000000               0.000000000               0.000019841               1.000000000               0.000000000               0.000024563               1.000000000               0.000000000               0.000029723               1.000000000               0.000000000               0.000035490               1.000000000              -0.000000000               0.000041771               1.000000000               0.000000000               0.000048528               1.000000000               0.000000000               0.000055808               1.000000000               0.000000000               0.000063623               1.000000000              -0.000000000               0.000071899               1.000000000              -0.000000000               0.000080690               1.000000000              -0.000000000               0.000089960               1.000000000 </DataArray>
<DataArray type="Float64"                                    Name="stress"                                                      NumberOfComponents="10" format="ascii">
             -0.000008800              -0.000012490               0.000000000              -0.000001739              -0.000003584              -0.000005323               0.000000000               0.000000000               0.000000000               0.000000000              -0.000004141              -0.000005506               0.000000000              -0.000000865              -0.000001547              -0.000002412               0.000000000               0.000000000               0.000000000               0.000000000              -0.000002875              -0.000016577              -0.000000000               0.000000994              -0.000005857              -0.000004863               0.000000000               0.000000000               0.000000000               0.000000000              -0.000003261              -0.000018560              -0.000000000               0.000001097              -0.000006553              -0.000005455               0.000000000               0.000000000               0.000000000               0.000000000              -0.000007372              -0.000025478               0.000000000               0.000000420              -0.000008633              -0.000008213               0.000000000               0.000000000               0.000000000               0.000000000              -0.000009662              -0.000032094               0.000000000               0.000000388              -0.000010827              -0.000010439               0.000000000               0.000000000               0.000000000               0.000000000              -0.000011563              -0.000036598              -0.000000000               0.000000239              -0.000012279              -0.000012040               0.000000000               0.000000000               0.000000000               0.000000000              -0.000013061              -0.000039815              -0.000000000               0.000000079              -0.000013298              -0.000013219               0.000000000               0.000000000               0.000000000               0.000000000              -0.000015142              -0.000039805               0.000000000              -0.000000702              -0.000013034              -0.000013737               0.000000000               0.000000000               0.000000000               0.000000000              -0.000018101              -0.000037520               0.000000000              -0.000002098              -0.000011807              -0.000013905               0.000000000               0.000000000               0.000000000               0.000000000              -0.000020446              -0.000034611               0.000000000              -0.000003341              -0.000010423              -0.000013764               0.000000000               0.000000000               0.000000000               0.000000000              -0.000020494              -0.000033165               0.000000000              -0.000003540              -0.000009875              -0.000013415               0.000000000               0.000000000               0.000000000               0.000000000              -0.000017103              -0.000034711               0.000000000              -0.000002075              -0.000010879              -0.000012954               0.000000000               0.000000000               0.000000000               0.000000000              -0.000010800              -0.000039298               0.000000000               0.000000862              -0.000013387              -0.000012524               0.000000000               0.000000000               0.000000000               0.000000000              -0.000003972              -0.000045401              -0.000000000               0.000004185              -0.000016529              -0.000012343               0.000000000               0.000000000               0.000000000               0.000000000               0.000000007              -0.000050476              -0.000000000               0.000006312              -0.000018929              -0.000012617               0.000000000               0.000000000               0.000000000               0.000000000               0.000001056              -0.000052032              -0.000000000               0.000006900              -0.000019644              -0.000012744               0.000000000               0.000000000               0.000000000               0.000000000              -0.000005178              -0.000011131               0.000000457              -0.000000550              -0.000003527              -0.000004077               0.000000000               0.000000000               0.000000000               0.000000000              -0.000003426              -0.000006873              -0.000002809              -0.000000425              -0.000002149              -0.000002575               0.000000000               0.000000000               0.000000000               0.000000000              -0.000004210              -0.000011577              -0.000003585              -0.000000132              -0.000003815              -0.000003947               0.000000000               0.000000000               0.000000000               0.000000000              -0.000004542              -0.000012618              -0.000003583              -0.000000126              -0.000004164              -0.000004290               0.000000000               0.000000000               0.000000000               0.000000000              -0.000004867              -0.000014042              -0.000005336              -0.000000070              -0.000004657              -0.000004727               0.000000000               0.000000000               0.000000000               0.000000000              -0.000004749              -0.000014466              -0.000005192               0.000000027              -0.000004831              -0.000004804               0.000000000               0.000000000               0.000000000               0.000000000              -0.000004574              -0.000013359              -0.000004981              -0.000000045              -0.000004438              -0.000004483               0.000000000               0.000000000               0.000000000               0.000000000              -0.000004041              -0.000010426              -0.000004195              -0.000000212              -0.000003405              -0.000003617               0.000000000               0.000000000               0.000000000               0.000000000              -0.000003763              -0.000006295              -0.000002662              -0.000000624              -0.000001890              -0.000002515               0.000000000               0.000000000               0.000000000               0.000000000              -0.000003135              -0.000001876              -0.000001137              -0.000000941              -0.000000312              -0.000001253               0.000000000               0.000000000               0.000000000               0.000000000              -0.000001475               0.000001883               0.000000138              -0.000000789               0.000000890               0.000000102               0.000000000               0.000000000               0.000000000               0.000000000               0.000001168               0.000004160               0.000000769              -0.000000082               0.000001414               0.000001332               0.000000000               0.000000000               0.000000000               0.000000000               0.000004407               0.000005237               0.000000745               0.000000998               0.000001413               0.000002411               0.000000000               0.000000000               0.000000000               0.000000000               0.000007150               0.000006303               0.000000386               0.000001894               0.000001470               0.000003363               0.000000000               0.000000000               0.000000000               0.000000000               0.000007905               0.000008993               0.000000171               0.000001840               0.000002384               0.000004224               0.000000000               0.000000000               0.000000000               0.000000000               0.000005296               0.000014774               0.000000303               0.000000139               0.000004878               0.000005017               0.000000000               0.000000000               0.000000000               0.000000000               0.000004553               0.000021582              -0.000000898              -0.000000990               0.000007524               0.000006533               0.000000000               0.000000000               0.000000000               0.000000000              -0.000004071              -0.000012449               0.000008641               0.000000030              -0.000004160              -0.000004130               0.000000000               0.000000000               0.000000000               0.000000000              -0.000003322              -0.000009892               0.000001901              -0.000000009              -0.000003294              -0.000003304               0.000000000               0.000000000               0.000000000               0.000000000              -0.000003423              -0.000005541              -0.000001469              -0.000000591              -0.000001650              -0.000002241               0.000000000               0.000000000               0.000000000               0.000000000              -0.000002951              -0.000002073               0.000000266              -0.000000847              -0.000000408              -0.000001256               0.000000000               0.000000000               0.000000000               0.000000000               0.000000991               0.000009028              -0.000001120              -0.000000757               0.000003262               0.000002505               0.000000000               0.000000000               0.000000000               0.000000000               0.000005030               0.000021799              -0.000001051              -0.000000839               0.000007546               0.000006707               0.000000000               0.000000000               0.000000000               0.000000000               0.000009370               0.000035773              -0.000000183              -0.000000958               0.000012244               0.000011286               0.000000000               0.000000000               0.000000000               0.000000000               0.000013907               0.000050755               0.000000607              -0.000001129               0.000017294               0.000016165               0.000000000               0.000000000               0.000000000               0.000000000               0.000019202               0.000063850               0.000001497              -0.000000781               0.000021543               0.000020763               0.000000000               0.000000000               0.000000000               0.000000000               0.000025885               0.000074112               0.000001940               0.000000443               0.000024556               0.000024999               0.000000000               0.000000000               0.000000000               0.000000000               0.000033562               0.000081816               0.000001464               0.000002359               0.000026485               0.000028844               0.000000000               0.000000000               0.000000000               0.000000000               0.000040406               0.000088917               0.000000155               0.000004038               0.000028293               0.000032330               0.000000000               0.000000000               0.000000000               0.000000000               0.000043605               0.000098224              -0.000001373               0.000004074               0.000031383               0.000035457               0.000000000               0.000000000               0.000000000               0.000000000               0.000041101               0.000112081              -0.000002371               0.000001403               0.000036892               0.000038295               0.000000000               0.000000000               0.000000000               0.000000000               0.000032215               0.000131638              -0.000002322              -0.000004374               0.000045337               0.000040963               0.000000000               0.000000000               0.000000000               0.000000000               0.000017452               0.000157024              -0.000001148              -0.000013083               0.000056702               0.000043618               0.000000000               0.000000000               0.000000000               0.000000000               0.000012990               0.000179231              -0.000002856              -0.000017533               0.000065587               0.000048055               0.000000000               0.000000000               0.000000000               0.000000000              -0.000006296              -0.000013976               0.000008162              -0.000000614              -0.000004454              -0.000005068               0.000000000               0.000000000               0.000000000               0.000000000              -0.000002482              -0.000008421               0.000001846               0.000000122              -0.000002848              -0.000002726               0.000000000               0.000000000               0.000000000               0.000000000               0.000002361               0.000005273              -0.000001987               0.000000226               0.000001682               0.000001908               0.000000000               0.000000000               0.000000000               0.000000000               0.000005642               0.000020964               0.000000905              -0.000000505               0.000007156               0.000006651               0.000000000               0.000000000               0.000000000               0.000000000               0.000013756               0.000044575               0.000001486              -0.000000413               0.000014996               0.000014582               0.000000000               0.000000000               0.000000000               0.000000000               0.000023091               0.000069259               0.000002074               0.000000002               0.000023085               0.000023087               0.000000000               0.000000000               0.000000000               0.000000000               0.000030070               0.000094436               0.000003394              -0.000000528               0.000031654               0.000031126               0.000000000               0.000000000               0.000000000               0.000000000               0.000037332               0.000117992               0.000003746              -0.000000750               0.000039580               0.000038830               0.000000000               0.000000000               0.000000000               0.000000000               0.000046790               0.000138578               0.000002867               0.000000224               0.000046118               0.000046342               0.000000000               0.000000000               0.000000000               0.000000000               0.000056360               0.000155680               0.000000406               0.000001675               0.000051334               0.000053009               0.000000000               0.000000000               0.000000000               0.000000000               0.000064533               0.000171199              -0.000003380               0.000002800               0.000056132               0.000058932               0.000000000               0.000000000               0.000000000               0.000000000               0.000068972               0.000188738              -0.000007419               0.000002272               0.000062155               0.000064427               0.000000000               0.000000000               0.000000000               0.000000000               0.000067273               0.000210840              -0.000010503              -0.000001128               0.000070655               0.000069528               0.000000000               0.000000000               0.000000000               0.000000000               0.000058735               0.000238806              -0.000011730              -0.000007825               0.000082210               0.000074385               0.000000000               0.000000000               0.000000000               0.000000000               0.000043698               0.000272645              -0.000010520              -0.000017694               0.000096779               0.000079085               0.000000000               0.000000000               0.000000000               0.000000000               0.000023131               0.000311775              -0.000006398              -0.000030298               0.000114023               0.000083726               0.000000000               0.000000000               0.000000000               0.000000000               0.000017739               0.000343371              -0.000007035              -0.000036269               0.000126546               0.000090277               0.000000000               0.000000000               0.000000000               0.000000000              -0.000001996               0.000000741               0.000007385              -0.000000841               0.000000527              -0.000000314               0.000000000               0.000000000               0.000000000               0.000000000               0.000003476               0.000010507               0.000004326              -0.000000010               0.000003506               0.000003496               0.000000000               0.000000000               0.000000000               0.000000000               0.000015263               0.000039554              -0.000000644               0.000000779               0.000012925               0.000013704               0.000000000               0.000000000               0.000000000               0.000000000               0.000022976               0.000069900               0.000001451              -0.000000122               0.000023340               0.000023219               0.000000000               0.000000000               0.000000000               0.000000000               0.000033836               0.000102840               0.000003141              -0.000000167               0.000034335               0.000034168               0.000000000               0.000000000               0.000000000               0.000000000               0.000047022               0.000137007               0.000002877               0.000000508               0.000045499               0.000046007               0.000000000               0.000000000               0.000000000               0.000000000               0.000057775               0.000169900               0.000003229               0.000000428               0.000056490               0.000056918               0.000000000               0.000000000               0.000000000               0.000000000               0.000068044               0.000198787               0.000001635               0.000000668               0.000066039               0.000066707               0.000000000               0.000000000               0.000000000               0.000000000               0.000079117               0.000224680              -0.000002203               0.000001584               0.000074365               0.000075948               0.000000000               0.000000000               0.000000000               0.000000000               0.000088210               0.000249084              -0.000008038               0.000001943               0.000082379               0.000084323               0.000000000               0.000000000               0.000000000               0.000000000               0.000092501               0.000275700              -0.000014514               0.000000225               0.000091824               0.000092049               0.000000000               0.000000000               0.000000000               0.000000000               0.000090305               0.000307161              -0.000019903              -0.000004531               0.000103896               0.000099365               0.000000000               0.000000000               0.000000000               0.000000000               0.000081095               0.000343943              -0.000022990              -0.000012582               0.000118840               0.000106258               0.000000000               0.000000000               0.000000000               0.000000000               0.000065689               0.000385255              -0.000022892              -0.000023523               0.000136258               0.000112735               0.000000000               0.000000000               0.000000000               0.000000000               0.000045857               0.000429516              -0.000019080              -0.000036493               0.000155335               0.000118842               0.000000000               0.000000000               0.000000000               0.000000000               0.000023319               0.000474696              -0.000011225              -0.000050592               0.000175095               0.000124502               0.000000000               0.000000000               0.000000000               0.000000000               0.000018068               0.000507742              -0.000010024              -0.000056692               0.000188143               0.000131451               0.000000000               0.000000000               0.000000000               0.000000000               0.000004731               0.000026828               0.000005594              -0.000001579               0.000009469               0.000007890               0.000000000               0.000000000               0.000000000               0.000000000               0.000012117               0.000042886               0.000005103              -0.000000817               0.000014567               0.000013751               0.000000000               0.000000000               0.000000000               0.000000000               0.000032469               0.000088461              -0.000000165               0.000001118               0.000029114               0.000030232               0.000000000               0.000000000               0.000000000               0.000000000               0.000044746               0.000130038               0.000001027               0.000000525               0.000043171               0.000043695               0.000000000               0.000000000               0.000000000               0.000000000               0.000056670               0.000172749               0.000002380              -0.000000342               0.000057697               0.000057354               0.000000000               0.000000000               0.000000000               0.000000000               0.000072719               0.000216200               0.000001326               0.000000245               0.000071985               0.000072229               0.000000000               0.000000000               0.000000000               0.000000000               0.000086621               0.000255613               0.000000007               0.000000531               0.000085026               0.000085558               0.000000000               0.000000000               0.000000000               0.000000000               0.000098383               0.000290859              -0.000004424               0.000000536               0.000096773               0.000097310               0.000000000               0.000000000               0.000000000               0.000000000               0.000109436               0.000324156              -0.000011335               0.000000519               0.000107878               0.000108397               0.000000000               0.000000000               0.000000000               0.000000000               0.000115557               0.000359117              -0.000019410              -0.000001556               0.000120223               0.000118667               0.000000000               0.000000000               0.000000000               0.000000000               0.000114219               0.000398743              -0.000026654              -0.000007011               0.000135250               0.000128239               0.000000000               0.000000000               0.000000000               0.000000000               0.000105183               0.000443714              -0.000031452              -0.000016021               0.000153244               0.000137223               0.000000000               0.000000000               0.000000000               0.000000000               0.000089399               0.000492815              -0.000032722              -0.000028077               0.000173629               0.000145552               0.000000000               0.000000000               0.000000000               0.000000000               0.000069067               0.000543714              -0.000030011              -0.000042064               0.000195258               0.000153194               0.000000000               0.000000000               0.000000000               0.000000000               0.000046425               0.000593502              -0.000023455              -0.000056778               0.000216758               0.000159980               0.000000000               0.000000000               0.000000000               0.000000000               0.000023056               0.000639749              -0.000013185              -0.000071322               0.000237022               0.000165699               0.000000000               0.000000000               0.000000000               0.000000000               0.000017353               0.000671126              -0.000010658              -0.000077383               0.000249501               0.000172118               0.000000000               0.000000000               0.000000000               0.000000000               0.000016593               0.000054874              -0.000002400              -0.000000637               0.000018503               0.000017866               0.000000000               0.000000000               0.000000000               0.000000000               0.000025519               0.000079567               0.000002686              -0.000000376               0.000026647               0.000026271               0.000000000               0.000000000               0.000000000               0.000000000               0.000051448               0.000136168               0.000001510               0.000002272               0.000044632               0.000046904               0.000000000               0.000000000               0.000000000               0.000000000               0.000067083               0.000187001               0.000000727               0.000001781               0.000061739               0.000063520               0.000000000               0.000000000               0.000000000               0.000000000               0.000079615               0.000239081               0.000001799              -0.000000029               0.000079703               0.000079673               0.000000000               0.000000000               0.000000000               0.000000000               0.000097676               0.000290342              -0.000000091               0.000000336               0.000096668               0.000097004               0.000000000               0.000000000               0.000000000               0.000000000               0.000113017               0.000337623              -0.000003580               0.000000179               0.000112480               0.000112659               0.000000000               0.000000000               0.000000000               0.000000000               0.000124531               0.000381066              -0.000010326              -0.000000934               0.000127332               0.000126398               0.000000000               0.000000000               0.000000000               0.000000000               0.000133194               0.000425205              -0.000019296              -0.000003203               0.000142801               0.000139598               0.000000000               0.000000000               0.000000000               0.000000000               0.000134624               0.000473382              -0.000027846              -0.000008689               0.000160689               0.000152000               0.000000000               0.000000000               0.000000000               0.000000000               0.000127082               0.000526684              -0.000034292              -0.000018180               0.000181619               0.000163440               0.000000000               0.000000000               0.000000000               0.000000000               0.000112270               0.000584026              -0.000036931              -0.000030902               0.000204974               0.000174072               0.000000000               0.000000000               0.000000000               0.000000000               0.000092449               0.000643046              -0.000035490              -0.000045712               0.000229584               0.000183872               0.000000000               0.000000000               0.000000000               0.000000000               0.000069772               0.000700349              -0.000030440              -0.000061379               0.000253907               0.000192528               0.000000000               0.000000000               0.000000000               0.000000000               0.000045968               0.000753560              -0.000022520              -0.000076957               0.000276837               0.000199880               0.000000000               0.000000000               0.000000000               0.000000000               0.000022577               0.000800971              -0.000012211              -0.000091655               0.000297539               0.000205884               0.000000000               0.000000000               0.000000000               0.000000000               0.000016449               0.000831635              -0.000009797              -0.000097786               0.000309804               0.000212018               0.000000000               0.000000000               0.000000000               0.000000000               0.000029760               0.000083335              -0.000008292               0.000000743               0.000027530               0.000028273               0.000000000               0.000000000               0.000000000               0.000000000               0.000036188               0.000115701               0.000001305              -0.000000892               0.000038864               0.000037972               0.000000000               0.000000000               0.000000000               0.000000000               0.000066315               0.000182392               0.000003490               0.000002069               0.000060107               0.000062176               0.000000000               0.000000000               0.000000000               0.000000000               0.000086356               0.000244349               0.000000915               0.000001840               0.000080835               0.000082675               0.000000000               0.000000000               0.000000000               0.000000000               0.000100147               0.000303624               0.000001212              -0.000000398               0.000101339               0.000100942               0.000000000               0.000000000               0.000000000               0.000000000               0.000120726               0.000363060              -0.000001622              -0.000000110               0.000121056               0.000120945               0.000000000               0.000000000               0.000000000               0.000000000               0.000137052               0.000418374              -0.000007020              -0.000000902               0.000139757               0.000138855               0.000000000               0.000000000               0.000000000               0.000000000               0.000148244               0.000471495              -0.000015430              -0.000003345               0.000158279               0.000154933               0.000000000               0.000000000               0.000000000               0.000000000               0.000153445               0.000528349              -0.000024736              -0.000008502               0.000178948               0.000170447               0.000000000               0.000000000               0.000000000               0.000000000               0.000149529               0.000590374              -0.000032463              -0.000017723               0.000202697               0.000184974               0.000000000               0.000000000               0.000000000               0.000000000               0.000136640               0.000656968              -0.000036703              -0.000030881               0.000229281               0.000198400               0.000000000               0.000000000               0.000000000               0.000000000               0.000118178               0.000725912              -0.000036691              -0.000046422               0.000257442               0.000211020               0.000000000               0.000000000               0.000000000               0.000000000               0.000095718               0.000793684              -0.000032748              -0.000063316               0.000285664               0.000222348               0.000000000               0.000000000               0.000000000               0.000000000               0.000071515               0.000858046              -0.000026223              -0.000080437               0.000312825               0.000232388               0.000000000               0.000000000               0.000000000               0.000000000               0.000046911               0.000917447              -0.000017968              -0.000097089               0.000338175               0.000241087               0.000000000               0.000000000               0.000000000               0.000000000               0.000023401               0.000970122              -0.000009239              -0.000112490               0.000360867               0.000248378               0.000000000               0.000000000               0.000000000               0.000000000               0.000015441               0.001002989              -0.000007742              -0.000119583               0.000374187               0.000254604               0.000000000               0.000000000               0.000000000               0.000000000               0.000036024               0.000103394              -0.000010774               0.000000585               0.000034269               0.000034854               0.000000000               0.000000000               0.000000000               0.000000000               0.000043342               0.000143958              -0.000000267              -0.000001742               0.000048566               0.000046824               0.000000000               0.000000000               0.000000000               0.000000000               0.000079014               0.000223533               0.000005327               0.000001688               0.000073947               0.000075636               0.000000000               0.000000000               0.000000000               0.000000000               0.000102566               0.000291519               0.000002680               0.000002023               0.000096498               0.000098520               0.000000000               0.000000000               0.000000000               0.000000000               0.000116448               0.000356982               0.000000797              -0.000000955               0.000119311               0.000118356               0.000000000               0.000000000               0.000000000               0.000000000               0.000138369               0.000422659              -0.000001592              -0.000000944               0.000141200               0.000140256               0.000000000               0.000000000               0.000000000               0.000000000               0.000154447               0.000483945              -0.000007486              -0.000002575               0.000162172               0.000159596               0.000000000               0.000000000               0.000000000               0.000000000               0.000165271               0.000545089              -0.000015693              -0.000006160               0.000183748               0.000177588               0.000000000               0.000000000               0.000000000               0.000000000               0.000169103               0.000610751              -0.000023528              -0.000012930               0.000207892               0.000194962               0.000000000               0.000000000               0.000000000               0.000000000               0.000163782               0.000682956              -0.000030073              -0.000023951               0.000235634               0.000211682               0.000000000               0.000000000               0.000000000               0.000000000               0.000150989               0.000758967              -0.000032846              -0.000038250               0.000265737               0.000227487               0.000000000               0.000000000               0.000000000               0.000000000               0.000133643               0.000836452              -0.000031548              -0.000054440               0.000296961               0.000242521               0.000000000               0.000000000               0.000000000               0.000000000               0.000113315               0.000911951              -0.000026671              -0.000071501               0.000327814               0.000256314               0.000000000               0.000000000               0.000000000               0.000000000               0.000091149               0.000984106              -0.000019390              -0.000088832               0.000357643               0.000268811               0.000000000               0.000000000               0.000000000               0.000000000               0.000069098               0.001051862              -0.000011248              -0.000105571               0.000385807               0.000280237               0.000000000               0.000000000               0.000000000               0.000000000               0.000049417               0.001113979              -0.000003718              -0.000120716               0.000411561               0.000290845               0.000000000               0.000000000               0.000000000               0.000000000               0.000038588               0.001146748              -0.000000665              -0.000128873               0.000425203               0.000296330               0.000000000               0.000000000               0.000000000               0.000000000               0.000036984               0.000109866              -0.000015018               0.000000136               0.000036576               0.000036712               0.000000000               0.000000000               0.000000000               0.000000000               0.000047057               0.000161429              -0.000004875              -0.000002532               0.000054653               0.000052121               0.000000000               0.000000000               0.000000000               0.000000000               0.000084580               0.000251841               0.000004077               0.000000237               0.000083867               0.000084105               0.000000000               0.000000000               0.000000000               0.000000000               0.000115318               0.000321573               0.000003267               0.000003048               0.000106174               0.000109222               0.000000000               0.000000000               0.000000000               0.000000000               0.000128865               0.000388370              -0.000000729              -0.000000222               0.000129529               0.000129308               0.000000000               0.000000000               0.000000000               0.000000000               0.000148852               0.000456096              -0.000002906              -0.000001192               0.000152428               0.000151236               0.000000000               0.000000000               0.000000000               0.000000000               0.000168397               0.000522694              -0.000006870              -0.000002188               0.000174959               0.000172771               0.000000000               0.000000000               0.000000000               0.000000000               0.000180796               0.000585465              -0.000013711              -0.000005385               0.000196948               0.000191563               0.000000000               0.000000000               0.000000000               0.000000000               0.000188753               0.000650971              -0.000020277              -0.000010589               0.000220518               0.000209929               0.000000000               0.000000000               0.000000000               0.000000000               0.000189084               0.000721338              -0.000026139              -0.000019261               0.000246864               0.000227603               0.000000000               0.000000000               0.000000000               0.000000000               0.000182066               0.000794524              -0.000029848              -0.000031041               0.000275186               0.000244145               0.000000000               0.000000000               0.000000000               0.000000000               0.000170107               0.000870664              -0.000030050              -0.000045043               0.000305233               0.000260190               0.000000000               0.000000000               0.000000000               0.000000000               0.000154993               0.000947080              -0.000026839              -0.000060263               0.000335778               0.000275515               0.000000000               0.000000000               0.000000000               0.000000000               0.000137943               0.001022952              -0.000020555              -0.000076140               0.000366361               0.000290220               0.000000000               0.000000000               0.000000000               0.000000000               0.000120215               0.001098097              -0.000012999              -0.000092181               0.000396756               0.000304574               0.000000000               0.000000000               0.000000000               0.000000000               0.000103902               0.001172334              -0.000005235              -0.000107578               0.000426634               0.000319055               0.000000000               0.000000000               0.000000000               0.000000000               0.000089879               0.001205605               0.000000935              -0.000116996               0.000440863               0.000323867               0.000000000               0.000000000               0.000000000               0.000000000               0.000040629               0.000111067              -0.000019323               0.000001353               0.000036571               0.000037924               0.000000000               0.000000000               0.000000000               0.000000000               0.000049414               0.000171629              -0.000009977              -0.000002923               0.000058184               0.000055260               0.000000000               0.000000000               0.000000000               0.000000000               0.000085282               0.000269397               0.000001968              -0.000001694               0.000090363               0.000088669               0.000000000               0.000000000               0.000000000               0.000000000               0.000122285               0.000342881               0.000004865               0.000002997               0.000113294               0.000116290               0.000000000               0.000000000               0.000000000               0.000000000               0.000138055               0.000406901               0.000001452               0.000000908               0.000135330               0.000136238               0.000000000               0.000000000               0.000000000               0.000000000               0.000154120               0.000472360              -0.000002015              -0.000001250               0.000157868               0.000156618               0.000000000               0.000000000               0.000000000               0.000000000               0.000175717               0.000541071              -0.000003388              -0.000001740               0.000180935               0.000179195               0.000000000               0.000000000               0.000000000               0.000000000               0.000192275               0.000606214              -0.000007586              -0.000003673               0.000203294               0.000199620               0.000000000               0.000000000               0.000000000               0.000000000               0.000204597               0.000669567              -0.000013240              -0.000006972               0.000225511               0.000218539               0.000000000               0.000000000               0.000000000               0.000000000               0.000212899               0.000737124              -0.000018017              -0.000012303               0.000249806               0.000237503               0.000000000               0.000000000               0.000000000               0.000000000               0.000214841               0.000806998              -0.000022494              -0.000020309               0.000275766               0.000255457               0.000000000               0.000000000               0.000000000               0.000000000               0.000211844               0.000879641              -0.000024923              -0.000030514               0.000303382               0.000272868               0.000000000               0.000000000               0.000000000               0.000000000               0.000204991               0.000953658              -0.000024610              -0.000042336               0.000331995               0.000289659               0.000000000               0.000000000               0.000000000               0.000000000               0.000196095               0.001028553              -0.000021168              -0.000055033               0.000361192               0.000306159               0.000000000               0.000000000               0.000000000               0.000000000               0.000185107               0.001102591              -0.000015118              -0.000068409               0.000390329               0.000321921               0.000000000               0.000000000               0.000000000               0.000000000               0.000172667               0.001176490              -0.000007600              -0.000082311               0.000419597               0.000337286               0.000000000               0.000000000               0.000000000               0.000000000               0.000158685               0.001208994              -0.000000458              -0.000091617               0.000433533               0.000341916               0.000000000               0.000000000               0.000000000               0.000000000               0.000044734               0.000110774              -0.000021216               0.000002928               0.000035948               0.000038877               0.000000000               0.000000000               0.000000000               0.000000000               0.000052092               0.000174804              -0.000014833              -0.000002316               0.000059039               0.000056723               0.000000000               0.000000000               0.000000000               0.000000000               0.000085135               0.000280605              -0.000002483              -0.000003150               0.000094584               0.000091434               0.000000000               0.000000000               0.000000000               0.000000000               0.000125173               0.000360160               0.000004876               0.000001920               0.000119412               0.000121332               0.000000000               0.000000000               0.000000000               0.000000000               0.000147048               0.000424746               0.000003716               0.000002050               0.000140897               0.000142947               0.000000000               0.000000000               0.000000000               0.000000000               0.000161676               0.000488030              -0.000000888              -0.000000375               0.000162800               0.000162425               0.000000000               0.000000000               0.000000000               0.000000000               0.000181623               0.000555329              -0.000001957              -0.000001308               0.000185544               0.000184236               0.000000000               0.000000000               0.000000000               0.000000000               0.000202032               0.000624508              -0.000002990              -0.000002302               0.000208935               0.000206633               0.000000000               0.000000000               0.000000000               0.000000000               0.000217751               0.000687794              -0.000006753              -0.000004318               0.000230702               0.000226384               0.000000000               0.000000000               0.000000000               0.000000000               0.000231412               0.000752657              -0.000010427              -0.000007303               0.000253317               0.000246015               0.000000000               0.000000000               0.000000000               0.000000000               0.000241546               0.000820439              -0.000013730              -0.000011975               0.000277469               0.000265494               0.000000000               0.000000000               0.000000000               0.000000000               0.000247067               0.000889559              -0.000016747              -0.000018545               0.000302698               0.000284154               0.000000000               0.000000000               0.000000000               0.000000000               0.000249020               0.000960376              -0.000018117              -0.000026664               0.000329010               0.000302346               0.000000000               0.000000000               0.000000000               0.000000000               0.000248557               0.001032989              -0.000017431              -0.000035914               0.000356298               0.000320383               0.000000000               0.000000000               0.000000000               0.000000000               0.000246069               0.001104978              -0.000014101              -0.000045846               0.000383604               0.000337758               0.000000000               0.000000000               0.000000000               0.000000000               0.000241883               0.001177971              -0.000008344              -0.000056540               0.000411500               0.000354960               0.000000000               0.000000000               0.000000000               0.000000000               0.000232664               0.001210971              -0.000002282              -0.000064122               0.000425027               0.000360905               0.000000000               0.000000000               0.000000000               0.000000000               0.000042080               0.000103623              -0.000020554               0.000002827               0.000033598               0.000036425               0.000000000               0.000000000               0.000000000               0.000000000               0.000054339               0.000170708              -0.000017817              -0.000000961               0.000057223               0.000056261               0.000000000               0.000000000               0.000000000               0.000000000               0.000085699               0.000285784              -0.000007682              -0.000003586               0.000096456               0.000092870               0.000000000               0.000000000               0.000000000               0.000000000               0.000124782               0.000372984               0.000003046               0.000000170               0.000124270               0.000124440               0.000000000               0.000000000               0.000000000               0.000000000               0.000152717               0.000441046               0.000004486               0.000002138               0.000146301               0.000148439               0.000000000               0.000000000               0.000000000               0.000000000               0.000169392               0.000503034               0.000000486               0.000000643               0.000167462               0.000168105               0.000000000               0.000000000               0.000000000               0.000000000               0.000187238               0.000566085              -0.000001365              -0.000000546               0.000188875               0.000188329               0.000000000               0.000000000               0.000000000               0.000000000               0.000208950               0.000636008              -0.000000817              -0.000001145               0.000212382               0.000211237               0.000000000               0.000000000               0.000000000               0.000000000               0.000228686               0.000703291              -0.000001835              -0.000002154               0.000235146               0.000232992               0.000000000               0.000000000               0.000000000               0.000000000               0.000245459               0.000765932              -0.000004339              -0.000003694               0.000256539               0.000252845               0.000000000               0.000000000               0.000000000               0.000000000               0.000261390               0.000831823              -0.000006004              -0.000005957               0.000279257               0.000273300               0.000000000               0.000000000               0.000000000               0.000000000               0.000274728               0.000899834              -0.000007930              -0.000009456               0.000303094               0.000293638               0.000000000               0.000000000               0.000000000               0.000000000               0.000284718               0.000967628              -0.000009503              -0.000014184               0.000327268               0.000313083               0.000000000               0.000000000               0.000000000               0.000000000               0.000293003               0.001038019              -0.000010045              -0.000019876               0.000352628               0.000332752               0.000000000               0.000000000               0.000000000               0.000000000               0.000299618               0.001108609              -0.000008952              -0.000026219               0.000378272               0.000352053               0.000000000               0.000000000               0.000000000               0.000000000               0.000305538               0.001179442              -0.000005823              -0.000032853               0.000404094               0.000371241               0.000000000               0.000000000               0.000000000               0.000000000               0.000304408               0.001212046              -0.000002204              -0.000037353               0.000416462               0.000379110               0.000000000               0.000000000               0.000000000               0.000000000               0.000036536               0.000088998              -0.000016337               0.000002576               0.000028807               0.000031383               0.000000000               0.000000000               0.000000000               0.000000000               0.000056449               0.000160709              -0.000016539               0.000001080               0.000053209               0.000054289               0.000000000               0.000000000               0.000000000               0.000000000               0.000088579               0.000283369              -0.000010413              -0.000002204               0.000095190               0.000092986               0.000000000               0.000000000               0.000000000               0.000000000               0.000123515               0.000379613               0.000000760              -0.000001134               0.000126914               0.000125781               0.000000000               0.000000000               0.000000000               0.000000000               0.000154148               0.000453241               0.000004538               0.000001151               0.000150695               0.000151846               0.000000000               0.000000000               0.000000000               0.000000000               0.000174533               0.000515044               0.000001630               0.000001069               0.000171323               0.000172393               0.000000000               0.000000000               0.000000000               0.000000000               0.000192431               0.000574907              -0.000000771               0.000000298               0.000191534               0.000191833               0.000000000               0.000000000               0.000000000               0.000000000               0.000213352               0.000641576              -0.000000451              -0.000000190               0.000213920               0.000213730               0.000000000               0.000000000               0.000000000               0.000000000               0.000235931               0.000713505               0.000000376              -0.000000714               0.000238071               0.000237357               0.000000000               0.000000000               0.000000000               0.000000000               0.000255461               0.000778118              -0.000000674              -0.000001467               0.000259859               0.000258392               0.000000000               0.000000000               0.000000000               0.000000000               0.000274233               0.000841327              -0.000001633              -0.000002328               0.000281216               0.000278887               0.000000000               0.000000000               0.000000000               0.000000000               0.000293491               0.000908878              -0.000002035              -0.000003551               0.000304140               0.000300589               0.000000000               0.000000000               0.000000000               0.000000000               0.000310358               0.000975288              -0.000002782              -0.000005527               0.000326935               0.000321408               0.000000000               0.000000000               0.000000000               0.000000000               0.000325702               0.001042470              -0.000003287              -0.000008171               0.000350210               0.000342039               0.000000000               0.000000000               0.000000000               0.000000000               0.000340287               0.001111405              -0.000003033              -0.000011318               0.000374237               0.000362919               0.000000000               0.000000000               0.000000000               0.000000000               0.000354458               0.001180431              -0.000002069              -0.000014632               0.000398350               0.000383718               0.000000000               0.000000000               0.000000000               0.000000000               0.000359566               0.001212529              -0.000000735              -0.000016729               0.000409749               0.000393020               0.000000000               0.000000000               0.000000000               0.000000000               0.000031377               0.000077149              -0.000011774               0.000002123               0.000025008               0.000027131               0.000000000               0.000000000               0.000000000               0.000000000               0.000057138               0.000152628              -0.000013318               0.000002348               0.000050093               0.000052441               0.000000000               0.000000000               0.000000000               0.000000000               0.000091584               0.000278845              -0.000010221              -0.000000512               0.000093118               0.000092606               0.000000000               0.000000000               0.000000000               0.000000000               0.000122848               0.000381506              -0.000001063              -0.000001620               0.000127707               0.000126087               0.000000000               0.000000000               0.000000000               0.000000000               0.000153078               0.000461454               0.000003607              -0.000000277               0.000153909               0.000153632               0.000000000               0.000000000               0.000000000               0.000000000               0.000176885               0.000524379               0.000001866               0.000000784               0.000174530               0.000175314               0.000000000               0.000000000               0.000000000               0.000000000               0.000195715               0.000582286              -0.000000269               0.000000607               0.000193891               0.000194498               0.000000000               0.000000000               0.000000000               0.000000000               0.000215585               0.000644796              -0.000000498               0.000000245               0.000214848               0.000215093               0.000000000               0.000000000               0.000000000               0.000000000               0.000239131               0.000717818               0.000000499              -0.000000053               0.000239288               0.000239235               0.000000000               0.000000000               0.000000000               0.000000000               0.000261299               0.000786436               0.000000705              -0.000000317               0.000262249               0.000261931               0.000000000               0.000000000               0.000000000               0.000000000               0.000281219               0.000848133               0.000000127              -0.000000559               0.000282895               0.000282335               0.000000000               0.000000000               0.000000000               0.000000000               0.000302808               0.000914016               0.000000318              -0.000000699               0.000304902               0.000304203               0.000000000               0.000000000               0.000000000               0.000000000               0.000324189               0.000980747               0.000000474              -0.000001022               0.000327253               0.000326231               0.000000000               0.000000000               0.000000000               0.000000000               0.000343973               0.001045922               0.000000268              -0.000001750               0.000349221               0.000347470               0.000000000               0.000000000               0.000000000               0.000000000               0.000363462               0.001113069               0.000000208              -0.000002835               0.000371965               0.000369129               0.000000000               0.000000000               0.000000000               0.000000000               0.000382572               0.001181141               0.000000128              -0.000004178               0.000395103               0.000390924               0.000000000               0.000000000               0.000000000               0.000000000               0.000390697               0.001212986               0.000000317              -0.000005112               0.000406029               0.000400917               0.000000000               0.000000000               0.000000000               0.000000000               0.000028288               0.000070846              -0.000006488               0.000001752               0.000023031               0.000024783               0.000000000               0.000000000               0.000000000               0.000000000               0.000058358               0.000147223              -0.000007684               0.000003481               0.000047913               0.000051395               0.000000000               0.000000000               0.000000000               0.000000000               0.000094054               0.000272924              -0.000006163               0.000001155               0.000090589               0.000091744               0.000000000               0.000000000               0.000000000               0.000000000               0.000123655               0.000379548              -0.000001017              -0.000001073               0.000126873               0.000125799               0.000000000               0.000000000               0.000000000               0.000000000               0.000153113               0.000465943               0.000001823              -0.000000825               0.000155588               0.000154763               0.000000000               0.000000000               0.000000000               0.000000000               0.000177219               0.000531039               0.000001217               0.000000077               0.000176985               0.000177063               0.000000000               0.000000000               0.000000000               0.000000000               0.000196848               0.000588062               0.000000144               0.000000310               0.000195915               0.000196226               0.000000000               0.000000000               0.000000000               0.000000000               0.000216523               0.000647079              -0.000000238               0.000000311               0.000215587               0.000215898               0.000000000               0.000000000               0.000000000               0.000000000               0.000240143               0.000717758               0.000000314               0.000000334               0.000239139               0.000239473               0.000000000               0.000000000               0.000000000               0.000000000               0.000264064               0.000789079               0.000000803               0.000000389               0.000262894               0.000263283               0.000000000               0.000000000               0.000000000               0.000000000               0.000284937               0.000851776               0.000000567               0.000000380               0.000283796               0.000284176               0.000000000               0.000000000               0.000000000               0.000000000               0.000306645               0.000916838               0.000000587               0.000000387               0.000305481               0.000305868               0.000000000               0.000000000               0.000000000               0.000000000               0.000329732               0.000985025               0.000000767               0.000000522               0.000328164               0.000328686               0.000000000               0.000000000               0.000000000               0.000000000               0.000351808               0.001050203               0.000000688               0.000000653               0.000349846               0.000350499               0.000000000               0.000000000               0.000000000               0.000000000               0.000373782               0.001115930               0.000000514               0.000000677               0.000371747               0.000372424               0.000000000               0.000000000               0.000000000               0.000000000               0.000395654               0.001182790               0.000000269               0.000000521               0.000394085               0.000394607               0.000000000               0.000000000               0.000000000               0.000000000               0.000405540               0.001214265               0.000000211               0.000000295               0.000404653               0.000404947               0.000000000               0.000000000               0.000000000               0.000000000               0.000027810               0.000067773               0.000000000               0.000001957               0.000021938               0.000023895               0.000000000               0.000000000               0.000000000               0.000000000               0.000059966               0.000144420               0.000000000               0.000004435               0.000046661               0.000051096               0.000000000               0.000000000               0.000000000               0.000000000               0.000095808               0.000270560              -0.000000000               0.000002108               0.000089483               0.000091591               0.000000000               0.000000000               0.000000000               0.000000000               0.000124550               0.000379174              -0.000000000              -0.000000690               0.000126620               0.000125930               0.000000000               0.000000000               0.000000000               0.000000000               0.000153508               0.000467720              -0.000000000              -0.000000900               0.000156205               0.000155305               0.000000000               0.000000000               0.000000000               0.000000000               0.000176476               0.000533347              -0.000000000              -0.000000490               0.000177944               0.000177454               0.000000000               0.000000000               0.000000000               0.000000000               0.000196482               0.000589962               0.000000000              -0.000000064               0.000196674               0.000196609               0.000000000               0.000000000               0.000000000               0.000000000               0.000216266               0.000647294               0.000000000               0.000000188               0.000215700               0.000215888               0.000000000               0.000000000               0.000000000               0.000000000               0.000239928               0.000716626               0.000000000               0.000000395               0.000238741               0.000239136               0.000000000               0.000000000               0.000000000               0.000000000               0.000264544               0.000789292               0.000000000               0.000000543               0.000262914               0.000263456               0.000000000               0.000000000               0.000000000               0.000000000               0.000285949               0.000853280               0.000000000               0.000000571               0.000284234               0.000284804               0.000000000               0.000000000               0.000000000               0.000000000               0.000307606               0.000918460               0.000000000               0.000000545               0.000305969               0.000306514               0.000000000               0.000000000               0.000000000               0.000000000               0.000330961               0.000987438               0.000000000               0.000000681               0.000328916               0.000329596               0.000000000               0.000000000               0.000000000               0.000000000               0.000353761               0.001052829               0.000000000               0.000001057               0.000350587               0.000351644               0.000000000               0.000000000               0.000000000               0.000000000               0.000376686               0.001117754               0.000000000               0.000001538               0.000372068               0.000373606               0.000000000               0.000000000               0.000000000               0.000000000               0.000399788               0.001183743               0.000000000               0.000001953               0.000393926               0.000395879               0.000000000               0.000000000               0.000000000               0.000000000               0.000410656               0.001214983               0.000000000               0.000002123               0.000404283               0.000406406               0.000000000               0.000000000               0.000000000               0.000000000               0.000000000               0.000000000               0.000000000               0.000000000               0.000000000               0.000000000               0.000000000               0.000000000               0.000000000               0.000000000               0.000000000               0.000000000               0.000000000               0.000000000               0.000000000               0.000000000               0.000000000               0.000000000               0.000000000               0.000000000               0.000000000               0.000000000               0.000000000               0.000000000               0.000000000               0.000000000               0.000000000               0.000000000               0.000000000               0.000000000               0.000000000               0.000000000               0.000000000               0.000000000               0.000000000               0.000000000               0.000000000               0.000000000               0.000000000               0.000000000               0.000000000               0.000000000               0.000000000               0.000000000               0.000000000               0.000000000               0.000000000               0.000000000               0.000000000               0.000000000               0.000000000               0.000000000               0.000000000               0.000000000               0.000000000               0.000000000               0.000000000               0.000000000               0.000000000               0.000000000               0.000000000               0.000000000               0.000000000               0.000000000               0.000000000               0.000000000               0.000000000               0.000000000               0.000000000               0.000000000               0.000000000               0.000000000               0.000000000               0.000000000               0.000000000               0.000000000               0.000000000               0.000000000               0.000000000               0.000000000               0.000000000               0.000000000               0.000000000               0.000000000               0.000000000               0.000000000               0.000000000               0.000000000               0.000000000               0.000000000               0.000000000               0.000000000               0.000000000               0.000000000               0.000000000               0.000000000               0.000000000               0.000000000               0.000000000               0.000000000               0.000000000               0.000000000               0.000000000               0.000000000               0.000000000               0.000000000               0.000000000               0.000000000               0.000000000               0.000000000               0.000000000               0.000000000               0.000000000               0.000000000               0.000000000               0.000000000               0.000000000               0.000000000               0.000000000               0.000000000               0.000000000               0.000000000               0.000000000               0.000000000               0.000000000               0.000000000               0.000000000               0.000000000               0.000000000               0.000000000               0.000000000               0.000000000               0.000000000               0.000000000               0.000000000               0.000000000               0.000000000               0.000000000               0.000000000               0.000000000               0.000000000               0.000000000               0.000000000               0.000000000               0.000000000               0.000000000               0.000000000               0.000000000               0.000000000               0.000000000               0.000000000               0.000000000               0.000000000               0.000000000               0.000000000               0.000000000               0.000000000               0.000000000               0.000000000               0.000000000               0.000000000               0.000000000               0.000000000               0.000000000               0.000000000               0.000000000               0.000000000               0.000000000               0.000000000               0.000000000              -0.000005178              -0.000011131              -0.000000457              -0.000000550              -0.000003527              -0.000004077               0.000000000               0.000000000               0.000000000               0.000000000              -0.000003426              -0.000006873               0.000002809              -0.000000425              -0.000002149              -0.000002575               0.000000000               0.000000000               0.000000000               0.000000000              -0.000004210              -0.000011577               0.000003585              -0.000000132              -0.000003815              -0.000003947               0.000000000               0.000000000               0.000000000               0.000000000              -0.000004542              -0.000012618               0.000003583              -0.000000126              -0.000004164              -0.000004290               0.000000000               0.000000000               0.000000000               0.000000000              -0.000004867              -0.000014042               0.000005336              -0.000000070              -0.000004657              -0.000004727               0.000000000               0.000000000               0.000000000               0.000000000              -0.000004749              -0.000014466               0.000005192               0.000000027              -0.000004831              -0.000004804               0.000000000               0.000000000               0.000000000               0.000000000              -0.000004574              -0.000013359               0.000004981              -0.000000045              -0.000004438              -0.000004483               0.000000000               0.000000000               0.000000000               0.000000000              -0.000004041              -0.000010426               0.000004195              -0.000000212              -0.000003405              -0.000003617               0.000000000               0.000000000               0.000000000               0.000000000              -0.000003763              -0.000006295               0.000002662              -0.000000624              -0.000001890              -0.000002515               0.000000000               0.000000000               0.000000000               0.000000000              -0.000003135              -0.000001876               0.000001137              -0.000000941              -0.000000312              -0.000001253               0.000000000               0.000000000               0.000000000               0.000000000              -0.000001475               0.000001883              -0.000000138              -0.000000789               0.000000890               0.000000102               0.000000000               0.000000000               0.000000000               0.000000000               0.000001168               0.000004160              -0.000000769              -0.000000082               0.000001414               0.000001332               0.000000000               0.000000000               0.000000000               0.000000000               0.000004407               0.000005237              -0.000000745               0.000000998               0.000001413               0.000002411               0.000000000               0.000000000               0.000000000               0.000000000               0.000007150               0.000006303              -0.000000386               0.000001894               0.000001470               0.000003363               0.000000000               0.000000000               0.000000000               0.000000000               0.000007905               0.000008993              -0.000000171               0.000001840               0.000002384               0.000004224               0.000000000               0.000000000               0.000000000               0.000000000               0.000005296               0.000014774              -0.000000303               0.000000139               0.000004878               0.000005017               0.000000000               0.000000000               0.000000000               0.000000000               0.000004553               0.000021582               0.000000898              -0.000000990               0.000007524               0.000006533               0.000000000               0.000000000               0.000000000               0.000000000              -0.000004071              -0.000012449              -0.000008641               0.000000030              -0.000004160              -0.000004130               0.000000000               0.000000000               0.000000000               0.000000000              -0.000003322              -0.000009892              -0.000001901              -0.000000009              -0.000003294              -0.000003304               0.000000000               0.000000000               0.000000000               0.000000000              -0.000003423              -0.000005541               0.000001469              -0.000000591              -0.000001650              -0.000002241               0.000000000               0.000000000               0.000000000               0.000000000              -0.000002951              -0.000002073              -0.000000266              -0.000000847              -0.000000408              -0.000001256               0.000000000               0.000000000               0.000000000               0.000000000               0.000000991               0.000009028               0.000001120              -0.000000757               0.000003262               0.000002505               0.000000000               0.000000000               0.000000000               0.000000000               0.000005030               0.000021799               0.000001051              -0.000000839               0.000007546               0.000006707               0.000000000               0.000000000               0.000000000               0.000000000               0.000009370               0.000035773               0.000000183              -0.000000958               0.000012244               0.000011286               0.000000000               0.000000000               0.000000000               0.000000000               0.000013907               0.000050755              -0.000000607              -0.000001129               0.000017294               0.000016165               0.000000000               0.000000000               0.000000000               0.000000000               0.000019202               0.000063850              -0.000001497              -0.000000781               0.000021543               0.000020763               0.000000000               0.000000000               0.000000000               0.000000000               0.000025885               0.000074112              -0.000001940               0.000000443               0.000024556               0.000024999               0.000000000               0.000000000               0.000000000               0.000000000               0.000033562               0.000081816              -0.000001464               0.000002359               0.000026485               0.000028844               0.000000000               0.000000000               0.000000000               0.000000000               0.000040406               0.000088917              -0.000000155               0.000004038               0.000028293               0.000032330               0.000000000               0.000000000               0.000000000               0.000000000               0.000043605               0.000098224               0.000001373               0.000004074               0.000031383               0.000035457               0.000000000               0.000000000               0.000000000               0.000000000               0.000041101               0.000112081               0.000002371               0.000001403               0.000036892               0.000038295               0.000000000               0.000000000               0.000000000               0.000000000               0.000032215               0.000131638               0.000002322              -0.000004374               0.000045337               0.000040963               0.000000000               0.000000000               0.000000000               0.000000000               0.000017452               0.000157024               0.000001148              -0.000013083               0.000056702               0.000043618               0.000000000               0.000000000               0.000000000               0.000000000               0.000012990               0.000179231               0.000002856              -0.000017533               0.000065587               0.000048055               0.000000000               0.000000000               0.000000000               0.000000000              -0.000006296              -0.000013976              -0.000008162              -0.000000614              -0.000004454              -0.000005068               0.000000000               0.000000000               0.000000000               0.000000000              -0.000002482              -0.000008421              -0.000001846               0.000000122              -0.000002848              -0.000002726               0.000000000               0.000000000               0.000000000               0.000000000               0.000002361               0.000005273               0.000001987               0.000000226               0.000001682               0.000001908               0.000000000               0.000000000               0.000000000               0.000000000               0.000005642               0.000020964              -0.000000905              -0.000000505               0.000007156               0.000006651               0.000000000               0.000000000               0.000000000               0.000000000               0.000013756               0.000044575              -0.000001486              -0.000000413               0.000014996               0.000014582               0.000000000               0.000000000               0.000000000               0.000000000               0.000023091               0.000069259              -0.000002074               0.000000002               0.000023085               0.000023087               0.000000000               0.000000000               0.000000000               0.000000000               0.000030070               0.000094436              -0.000003394              -0.000000528               0.000031654               0.000031126               0.000000000               0.000000000               0.000000000               0.000000000               0.000037332               0.000117992              -0.000003746              -0.000000750               0.000039580               0.000038830               0.000000000               0.000000000               0.000000000               0.000000000               0.000046790               0.000138578              -0.000002867               0.000000224               0.000046118               0.000046342               0.000000000               0.000000000               0.000000000               0.000000000               0.000056360               0.000155680              -0.000000406               0.000001675               0.000051334               0.000053009               0.000000000               0.000000000               0.000000000               0.000000000               0.000064533               0.000171199               0.000003380               0.000002800               0.000056132               0.000058932               0.000000000               0.000000000               0.000000000               0.000000000               0.000068972               0.000188738               0.000007419               0.000002272               0.000062155               0.000064427               0.000000000               0.000000000               0.000000000               0.000000000               0.000067273               0.000210840               0.000010503              -0.000001128               0.000070655               0.000069528               0.000000000               0.000000000               0.000000000               0.000000000               0.000058735               0.000238806               0.000011730              -0.000007825               0.000082210               0.000074385               0.000000000               0.000000000               0.000000000               0.000000000               0.000043698               0.000272645               0.000010520              -0.000017694               0.000096779               0.000079085               0.000000000               0.000000000               0.000000000               0.000000000               0.000023131               0.000311775               0.000006398              -0.000030298               0.000114023               0.000083726               0.000000000               0.000000000               0.000000000               0.000000000               0.000017739               0.000343371               0.000007035              -0.000036269               0.000126546               0.000090277               0.000000000               0.000000000               0.000000000               0.000000000              -0.000001996               0.000000741              -0.000007385              -0.000000841               0.000000527              -0.000000314               0.000000000               0.000000000               0.000000000               0.000000000               0.000003476               0.000010507              -0.000004326              -0.000000010               0.000003506               0.000003496               0.000000000               0.000000000               0.000000000               0.000000000               0.000015263               0.000039554               0.000000644               0.000000779               0.000012925               0.000013704               0.000000000               0.000000000               0.000000000               0.000000000               0.000022976               0.000069900              -0.000001451              -0.000000122               0.000023340               0.000023219               0.000000000               0.000000000               0.000000000               0.000000000               0.000033836               0.000102840              -0.000003141              -0.000000167               0.000034335               0.000034168               0.000000000               0.000000000               0.000000000               0.000000000               0.000047022               0.000137007              -0.000002877               0.000000508               0.000045499               0.000046007               0.000000000               0.000000000               0.000000000               0.000000000               0.000057775               0.000169900              -0.000003229               0.000000428               0.000056490               0.000056918               0.000000000               0.000000000               0.000000000               0.000000000               0.000068044               0.000198787              -0.000001635               0.000000668               0.000066039               0.000066707               0.000000000               0.000000000               0.000000000               0.000000000               0.000079117               0.000224680               0.000002203               0.000001584               0.000074365               0.000075948               0.000000000               0.000000000               0.000000000               0.000000000               0.000088210               0.000249084               0.000008038               0.000001943               0.000082379               0.000084323               0.000000000               0.000000000               0.000000000               0.000000000               0.000092501               0.000275700               0.000014514               0.000000225               0.000091824               0.000092049               0.000000000               0.000000000               0.000000000               0.000000000               0.000090305               0.000307161               0.000019903              -0.000004531               0.000103896               0.000099365               0.000000000               0.000000000               0.000000000               0.000000000               0.000081095               0.000343943               0.000022990              -0.000012582               0.000118840               0.000106258               0.000000000               0.000000000               0.000000000               0.000000000               0.000065689               0.000385255               0.000022892              -0.000023523               0.000136258               0.000112735               0.000000000               0.000000000               0.000000000               0.000000000               0.000045857               0.000429516               0.000019080              -0.000036493               0.000155335               0.000118842               0.000000000               0.000000000               0.000000000               0.000000000               0.000023319               0.000474696               0.000011225              -0.000050592               0.000175095               0.000124502               0.000000000               0.000000000               0.000000000               0.000000000               0.000018068               0.000507742               0.000010024              -0.000056692               0.000188143               0.000131451               0.000000000               0.000000000               0.000000000               0.000000000               0.000004731               0.000026828              -0.000005594              -0.000001579               0.000009469               0.000007890               0.000000000               0.000000000               0.000000000               0.000000000               0.000012117               0.000042886              -0.000005103              -0.000000817               0.000014567               0.000013751               0.000000000               0.000000000               0.000000000               0.000000000               0.000032469               0.000088461               0.000000165               0.000001118               0.000029114               0.000030232               0.000000000               0.000000000               0.000000000               0.000000000               0.000044746               0.000130038              -0.000001027               0.000000525               0.000043171               0.000043695               0.000000000               0.000000000               0.000000000               0.000000000               0.000056670               0.000172749              -0.000002380              -0.000000342               0.000057697               0.000057354               0.000000000               0.000000000               0.000000000               0.000000000               0.000072719               0.000216200              -0.000001326               0.000000245               0.000071985               0.000072229               0.000000000               0.000000000               0.000000000               0.000000000               0.000086621               0.000255613              -0.000000007               0.000000531               0.000085026               0.000085558               0.000000000               0.000000000               0.000000000               0.000000000               0.000098383               0.000290859               0.000004424               0.000000536               0.000096773               0.000097310               0.000000000               0.000000000               0.000000000               0.000000000               0.000109436               0.000324156               0.000011335               0.000000519               0.000107878               0.000108397               0.000000000               0.000000000               0.000000000               0.000000000               0.000115557               0.000359117               0.000019410              -0.000001556               0.000120223               0.000118667               0.000000000               0.000000000               0.000000000               0.000000000               0.000114219               0.000398743               0.000026654              -0.000007011               0.000135250               0.000128239               0.000000000               0.000000000               0.000000000               0.000000000               0.000105183               0.000443714               0.000031452              -0.000016021               0.000153244               0.000137223               0.000000000               0.000000000               0.000000000               0.000000000               0.000089399               0.000492815               0.000032722              -0.000028077               0.000173629               0.000145552               0.000000000               0.000000000               0.000000000               0.000000000               0.000069067               0.000543714               0.000030011              -0.000042064               0.000195258               0.000153194               0.000000000               0.000000000               0.000000000               0.000000000               0.000046425               0.000593502               0.000023455              -0.000056778               0.000216758               0.000159980               0.000000000               0.000000000               0.000000000               0.000000000               0.000023056               0.000639749               0.000013185              -0.000071322               0.000237022               0.000165699               0.000000000               0.000000000               0.000000000               0.000000000               0.000017353               0.000671126               0.000010658              -0.000077383               0.000249501               0.000172118               0.000000000               0.000000000               0.000000000               0.000000000               0.000016593               0.000054874               0.000002400              -0.000000637               0.000018503               0.000017866               0.000000000               0.000000000               0.000000000               0.000000000               0.000025519               0.000079567              -0.000002686              -0.000000376               0.000026647               0.000026271               0.000000000               0.000000000               0.000000000               0.000000000               0.000051448               0.000136168              -0.000001510               0.000002272               0.000044632               0.000046904               0.000000000               0.000000000               0.000000000               0.000000000               0.000067083               0.000187001              -0.000000727               0.000001781               0.000061739               0.000063520               0.000000000               0.000000000               0.000000000               0.000000000               0.000079615               0.000239081              -0.000001799              -0.000000029               0.000079703               0.000079673               0.000000000               0.000000000               0.000000000               0.000000000               0.000097676               0.000290342               0.000000091               0.000000336               0.000096668               0.000097004               0.000000000               0.000000000               0.000000000               0.000000000               0.000113017               0.000337623               0.000003580               0.000000179               0.000112480               0.000112659               0.000000000               0.000000000               0.000000000               0.000000000               0.000124531               0.000381066               0.000010326              -0.000000934               0.000127332               0.000126398               0.000000000               0.000000000               0.000000000               0.000000000               0.000133194               0.000425205               0.000019296              -0.000003203               0.000142801               0.000139598               0.000000000               0.000000000               0.000000000               0.000000000               0.000134624               0.000473382               0.000027846              -0.000008689               0.000160689               0.000152000               0.000000000               0.000000000               0.000000000               0.000000000               0.000127082               0.000526684               0.000034292              -0.000018180               0.000181619               0.000163440               0.000000000               0.000000000               0.000000000               0.000000000               0.000112270               0.000584026               0.000036931              -0.000030902               0.000204974               0.000174072               0.000000000               0.000000000               0.000000000               0.000000000               0.000092449               0.000643046               0.000035490              -0.000045712               0.000229584               0.000183872               0.000000000               0.000000000               0.000000000               0.000000000               0.000069772               0.000700349               0.000030440              -0.000061379               0.000253907               0.000192528               0.000000000               0.000000000               0.000000000               0.000000000               0.000045968               0.000753560               0.000022520              -0.000076957               0.000276837               0.000199880               0.000000000               0.000000000               0.000000000               0.000000000               0.000022577               0.000800971               0.000012211              -0.000091655               0.000297539               0.000205884               0.000000000               0.000000000               0.000000000               0.000000000               0.000016449               0.000831635               0.000009797              -0.000097786               0.000309804               0.000212018               0.000000000               0.000000000               0.000000000               0.000000000               0.000029760               0.000083335               0.000008292               0.000000743               0.000027530               0.000028273               0.000000000               0.000000000               0.000000000               0.000000000               0.000036188               0.000115701              -0.000001305              -0.000000892               0.000038864               0.000037972               0.000000000               0.000000000               0.000000000               0.000000000               0.000066315               0.000182392              -0.000003490               0.000002069               0.000060107               0.000062176               0.000000000               0.000000000               0.000000000               0.000000000               0.000086356               0.000244349              -0.000000915               0.000001840               0.000080835               0.000082675               0.000000000               0.000000000               0.000000000               0.000000000               0.000100147               0.000303624              -0.000001212              -0.000000398               0.000101339               0.000100942               0.000000000               0.000000000               0.000000000               0.000000000               0.000120726               0.000363060               0.000001622              -0.000000110               0.000121056               0.000120945               0.000000000               0.000000000               0.000000000               0.000000000               0.000137052               0.000418374               0.000007020              -0.000000902               0.000139757               0.000138855               0.000000000               0.000000000               0.000000000               0.000000000               0.000148244               0.000471495               0.000015430              -0.000003345               0.000158279               0.000154933               0.000000000               0.000000000               0.000000000               0.000000000               0.000153445               0.000528349               0.000024736              -0.000008502               0.000178948               0.000170447               0.000000000               0.000000000               0.000000000               0.000000000               0.000149529               0.000590374               0.000032463              -0.000017723               0.000202697               0.000184974               0.000000000               0.000000000               0.000000000               0.000000000               0.000136640               0.000656968               0.000036703              -0.000030881               0.000229281               0.000198400               0.000000000               0.000000000               0.000000000               0.000000000               0.000118178               0.000725912               0.000036691              -0.000046422               0.000257442               0.000211020               0.000000000               0.000000000               0.000000000               0.000000000               0.000095718               0.000793684               0.000032748              -0.000063316               0.000285664               0.000222348               0.000000000               0.000000000               0.000000000               0.000000000               0.000071515               0.000858046               0.000026223              -0.000080437               0.000312825               0.000232388               0.000000000               0.000000000               0.000000000               0.000000000               0.000046911               0.000917447               0.000017968              -0.000097089               0.000338175               0.000241087               0.000000000               0.000000000               0.000000000               0.000000000               0.000023401               0.000970122               0.000009239              -0.000112490               0.000360867               0.000248378               0.000000000               0.000000000               0.000000000               0.000000000               0.000015441               0.001002989               0.000007742              -0.000119583               0.000374187               0.000254604               0.000000000               0.000000000               0.000000000               0.000000000               0.000036024               0.000103394               0.000010774               0.000000585               0.000034269               0.000034854               0.000000000               0.000000000               0.000000000               0.000000000               0.000043342               0.000143958               0.000000267              -0.000001742               0.000048566               0.000046824               0.000000000               0.000000000               0.000000000               0.000000000               0.000079014               0.000223533              -0.000005327               0.000001688               0.000073947               0.000075636               0.000000000               0.000000000               0.000000000               0.000000000               0.000102566               0.000291519              -0.000002680               0.000002023               0.000096498               0.000098520               0.000000000               0.000000000               0.000000000               0.000000000               0.000116448               0.000356982              -0.000000797              -0.000000955               0.000119311               0.000118356               0.000000000               0.000000000               0.000000000               0.000000000               0.000138369               0.000422659               0.000001592              -0.000000944               0.000141200               0.000140256               0.000000000               0.000000000               0.000000000               0.000000000               0.000154447               0.000483945               0.000007486              -0.000002575               0.000162172               0.000159596               0.000000000               0.000000000               0.000000000               0.000000000               0.000165271               0.000545089               0.000015693              -0.000006160               0.000183748               0.000177588               0.000000000               0.000000000               0.000000000               0.000000000               0.000169103               0.000610751               0.000023528              -0.000012930               0.000207892               0.000194962               0.000000000               0.000000000               0.000000000               0.000000000               0.000163782               0.000682956               0.000030073              -0.000023951               0.000235634               0.000211682               0.000000000               0.000000000               0.000000000               0.000000000               0.000150989               0.000758967               0.000032846              -0.000038250               0.000265737               0.000227487               0.000000000               0.000000000               0.000000000               0.000000000               0.000133643               0.000836452               0.000031548              -0.000054440               0.000296961               0.000242521               0.000000000               0.000000000               0.000000000               0.000000000               0.000113315               0.000911951               0.000026671              -0.000071501               0.000327814               0.000256314               0.000000000               0.000000000               0.000000000               0.000000000               0.000091149               0.000984106               0.000019390              -0.000088832               0.000357643               0.000268811               0.000000000               0.000000000               0.000000000               0.000000000               0.000069098               0.001051862               0.000011248              -0.000105571               0.000385807               0.000280237               0.000000000               0.000000000               0.000000000               0.000000000               0.000049417               0.001113979               0.000003718              -0.000120716               0.000411561               0.000290845               0.000000000               0.000000000               0.000000000               0.000000000               0.000038588               0.001146748               0.000000665              -0.000128873               0.000425203               0.000296330               0.000000000               0.000000000               0.000000000               0.000000000               0.000036984               0.000109866               0.000015018               0.000000136               0.000036576               0.000036712               0.000000000               0.000000000               0.000000000               0.000000000               0.000047057               0.000161429               0.000004875              -0.000002532               0.000054653               0.000052121               0.000000000               0.000000000               0.000000000               0.000000000               0.000084580               0.000251841              -0.000004077               0.000000237               0.000083867               0.000084105               0.000000000               0.000000000               0.000000000               0.000000000               0.000115318               0.000321573              -0.000003267               0.000003048               0.000106174               0.000109222               0.000000000               0.000000000               0.000000000               0.000000000               0.000128865               0.000388370               0.000000729              -0.000000222               0.000129529               0.000129308               0.000000000               0.000000000               0.000000000               0.000000000               0.000148852               0.000456096               0.000002906              -0.000001192               0.000152428               0.000151236               0.000000000               0.000000000               0.000000000               0.000000000               0.000168397               0.000522694               0.000006870              -0.000002188               0.000174959               0.000172771               0.000000000               0.000000000               0.000000000               0.000000000               0.000180796               0.000585465               0.000013711              -0.000005385               0.000196948               0.000191563               0.000000000               0.000000000               0.000000000               0.000000000               0.000188753               0.000650971               0.000020277              -0.000010589               0.000220518               0.000209929               0.000000000               0.000000000               0.000000000               0.000000000               0.000189084               0.000721338               0.000026139              -0.000019261               0.000246864               0.000227603               0.000000000               0.000000000               0.000000000               0.000000000               0.000182066               0.000794524               0.000029848              -0.000031041               0.000275186               0.000244145               0.000000000               0.000000000               0.000000000               0.000000000               0.000170107               0.000870664               0.000030050              -0.000045043               0.000305233               0.000260190               0.000000000               0.000000000               0.000000000               0.000000000               0.000154993               0.000947080               0.000026839              -0.000060263               0.000335778               0.000275515               0.000000000               0.000000000               0.000000000               0.000000000               0.000137943               0.001022952               0.000020555              -0.000076140               0.000366361               0.000290220               0.000000000               0.000000000               0.000000000               0.000000000               0.000120215               0.001098097               0.000012999              -0.000092181               0.000396756               0.000304574               0.000000000               0.000000000               0.000000000               0.000000000               0.000103902               0.001172334               0.000005235              -0.000107578               0.000426634               0.000319055               0.000000000               0.000000000               0.000000000               0.000000000               0.000089879               0.001205605              -0.000000935              -0.000116996               0.000440863               0.000323867               0.000000000               0.000000000               0.000000000               0.000000000               0.000040629               0.000111067               0.000019323               0.000001353               0.000036571               0.000037924               0.000000000               0.000000000               0.000000000               0.000000000               0.000049414               0.000171629               0.000009977              -0.000002923               0.000058184               0.000055260               0.000000000               0.000000000               0.000000000               0.000000000               0.000085282               0.000269397              -0.000001968              -0.000001694               0.000090363               0.000088669               0.000000000               0.000000000               0.000000000               0.000000000               0.000122285               0.000342881              -0.000004865               0.000002997               0.000113294               0.000116290               0.000000000               0.000000000               0.000000000               0.000000000               0.000138055               0.000406901              -0.000001452               0.000000908               0.000135330               0.000136238               0.000000000               0.000000000               0.000000000               0.000000000               0.000154120               0.000472360               0.000002015              -0.000001250               0.000157868               0.000156618               0.000000000               0.000000000               0.000000000               0.000000000               0.000175717               0.000541071               0.000003388              -0.000001740               0.000180935               0.000179195               0.000000000               0.000000000               0.000000000               0.000000000               0.000192275               0.000606214               0.000007586              -0.000003673               0.000203294               0.000199620               0.000000000               0.000000000               0.000000000               0.000000000               0.000204597               0.000669567               0.000013240              -0.000006972               0.000225511               0.000218539               0.000000000               0.000000000               0.000000000               0.000000000               0.000212899               0.000737124               0.000018017              -0.000012303               0.000249806               0.000237503               0.000000000               0.000000000               0.000000000               0.000000000               0.000214841               0.000806998               0.000022494              -0.000020309               0.000275766               0.000255457               0.000000000               0.000000000               0.000000000               0.000000000               0.000211844               0.000879641               0.000024923              -0.000030514               0.000303382               0.000272868               0.000000000               0.000000000               0.000000000               0.000000000               0.000204991               0.000953658               0.000024610              -0.000042336               0.000331995               0.000289659               0.000000000               0.000000000               0.000000000               0.000000000               0.000196095               0.001028553               0.000021168              -0.000055033               0.000361192               0.000306159               0.000000000               0.000000000               0.000000000               0.000000000               0.000185107               0.001102591               0.000015118              -0.000068409               0.000390329               0.000321921               0.000000000               0.000000000               0.000000000               0.000000000               0.000172667               0.001176490               0.000007600              -0.000082311               0.000419597               0.000337286               0.000000000               0.000000000               0.000000000               0.000000000               0.000158685               0.001208994               0.000000458              -0.000091617               0.000433533               0.000341916               0.000000000               0.000000000               0.000000000               0.000000000               0.000044734               0.000110774               0.000021216               0.000002928               0.000035948               0.000038877               0.000000000               0.000000000               0.000000000               0.000000000               0.000052092               0.000174804               0.000014833              -0.000002316               0.000059039               0.000056723               0.000000000               0.000000000               0.000000000               0.000000000               0.000085135               0.000280605               0.000002483              -0.000003150               0.000094584               0.000091434               0.000000000               0.000000000               0.000000000               0.000000000               0.000125173               0.000360160              -0.000004876               0.000001920               0.000119412               0.000121332               0.000000000               0.000000000               0.000000000               0.000000000               0.000147048               0.000424746              -0.000003716               0.000002050               0.000140897               0.000142947               0.000000000               0.000000000               0.000000000               0.000000000               0.000161676               0.000488030               0.000000888              -0.000000375               0.000162800               0.000162425               0.000000000               0.000000000               0.000000000               0.000000000               0.000181623               0.000555329               0.000001957              -0.000001308               0.000185544               0.000184236               0.000000000               0.000000000               0.000000000               0.000000000               0.000202032               0.000624508               0.000002990              -0.000002302               0.000208935               0.000206633               0.000000000               0.000000000               0.000000000               0.000000000               0.000217751               0.000687794               0.000006753              -0.000004318               0.000230702               0.000226384               0.000000000               0.000000000               0.000000000               0.000000000               0.000231412               0.000752657               0.000010427              -0.000007303               0.000253317               0.000246015               0.000000000               0.000000000               0.000000000               0.000000000               0.000241546               0.000820439               0.000013730              -0.000011975               0.000277469               0.000265494               0.000000000               0.000000000               0.000000000               0.000000000               0.000247067               0.000889559               0.000016747              -0.000018545               0.000302698               0.000284154               0.000000000               0.000000000               0.000000000               0.000000000               0.000249020               0.000960376               0.000018117              -0.000026664               0.000329010               0.000302346               0.000000000               0.000000000               0.000000000               0.000000000               0.000248557               0.001032989               0.000017431              -0.000035914               0.000356298               0.000320383               0.000000000               0.000000000               0.000000000               0.000000000               0.000246069               0.001104978               0.000014101              -0.000045846               0.000383604               0.000337758               0.000000000               0.000000000               0.000000000               0.000000000               0.000241883               0.001177971               0.000008344              -0.000056540               0.000411500               0.000354960               0.000000000               0.000000000               0.000000000               0.000000000               0.000232664               0.001210971               0.000002282              -0.000064122               0.000425027               0.000360905               0.000000000               0.000000000               0.000000000               0.000000000               0.000042080               0.000103623               0.000020554               0.000002827               0.000033598               0.000036425               0.000000000               0.000000000               0.000000000               0.000000000               0.000054339               0.000170708               0.000017817              -0.000000961               0.000057223               0.000056261               0.000000000               0.000000000               0.000000000               0.000000000               0.000085699               0.000285784               0.000007682              -0.000003586               0.000096456               0.000092870               0.000000000               0.000000000               0.000000000               0.000000000               0.000124782               0.000372984              -0.000003046               0.000000170               0.000124270               0.000124440               0.000000000               0.000000000               0.000000000               0.000000000               0.000152717               0.000441046              -0.000004486               0.000002138               0.000146301               0.000148439               0.000000000               0.000000000               0.000000000               0.000000000               0.000169392               0.000503034              -0.000000486               0.000000643               0.000167462               0.000168105               0.000000000               0.000000000               0.000000000               0.000000000               0.000187238               0.000566085               0.000001365              -0.000000546               0.000188875               0.000188329               0.000000000               0.000000000               0.000000000               0.000000000               0.000208950               0.000636008               0.000000817              -0.000001145               0.000212382               0.000211237               0.000000000               0.000000000               0.000000000               0.000000000               0.000228686               0.000703291               0.000001835              -0.000002154               0.000235146               0.000232992               0.000000000               0.000000000               0.000000000               0.000000000               0.000245459               0.000765932               0.000004339              -0.000003694               0.000256539               0.000252845               0.000000000               0.000000000               0.000000000               0.000000000               0.000261390               0.000831823               0.000006004              -0.000005957               0.000279257               0.000273300               0.000000000               0.000000000               0.000000000               0.000000000               0.000274728               0.000899834               0.000007930              -0.000009456               0.000303094               0.000293638               0.000000000               0.000000000               0.000000000               0.000000000               0.000284718               0.000967628               0.000009503              -0.000014184               0.000327268               0.000313083               0.000000000               0.000000000               0.000000000               0.000000000               0.000293003               0.001038019               0.000010045              -0.000019876               0.000352628               0.000332752               0.000000000               0.000000000               0.000000000               0.000000000               0.000299618               0.001108609               0.000008952              -0.000026219               0.000378272               0.000352053               0.000000000               0.000000000               0.000000000               0.000000000               0.000305538               0.001179442               0.000005823              -0.000032853               0.000404094               0.000371241               0.000000000               0.000000000               0.000000000               0.000000000               0.000304408               0.001212046               0.000002204              -0.000037353               0.000416462               0.000379110               0.000000000               0.000000000               0.000000000               0.000000000               0.000036536               0.000088998               0.000016337               0.000002576               0.000028807               0.000031383               0.000000000               0.000000000               0.000000000               0.000000000               0.000056449               0.000160709               0.000016539               0.000001080               0.000053209               0.000054289               0.000000000               0.000000000               0.000000000               0.000000000               0.000088579               0.000283369               0.000010413              -0.000002204               0.000095190               0.000092986               0.000000000               0.000000000               0.000000000               0.000000000               0.000123515               0.000379613              -0.000000760              -0.000001134               0.000126914               0.000125781               0.000000000               0.000000000               0.000000000               0.000000000               0.000154148               0.000453241              -0.000004538               0.000001151               0.000150695               0.000151846               0.000000000               0.000000000               0.000000000               0.000000000               0.000174533               0.000515044              -0.000001630               0.000001069               0.000171323               0.000172393               0.000000000               0.000000000               0.000000000               0.000000000               0.000192431               0.000574907               0.000000771               0.000000298               0.000191534               0.000191833               0.000000000               0.000000000               0.000000000               0.000000000               0.000213352               0.000641576               0.000000451              -0.000000190               0.000213920               0.000213730               0.000000000               0.000000000               0.000000000               0.000000000               0.000235931               0.000713505              -0.000000376              -0.000000714               0.000238071               0.000237357               0.000000000               0.000000000               0.000000000               0.000000000               0.000255461               0.000778118               0.000000674              -0.000001467               0.000259859               0.000258392               0.000000000               0.000000000               0.000000000               0.000000000               0.000274233               0.000841327               0.000001633              -0.000002328               0.000281216               0.000278887               0.000000000               0.000000000               0.000000000               0.000000000               0.000293491               0.000908878               0.000002035              -0.000003551               0.000304140               0.000300589               0.000000000               0.000000000               0.000000000               0.000000000               0.000310358               0.000975288               0.000002782              -0.000005527               0.000326935               0.000321408               0.000000000               0.000000000               0.000000000               0.000000000               0.000325702               0.001042470               0.000003287              -0.000008171               0.000350210               0.000342039               0.000000000               0.000000000               0.000000000               0.000000000               0.000340287               0.001111405               0.000003033              -0.000011318               0.000374237               0.000362919               0.000000000               0.000000000               0.000000000               0.000000000               0.000354458               0.001180431               0.000002069              -0.000014632               0.000398350               0.000383718               0.000000000               0.000000000               0.000000000               0.000000000               0.000359566               0.001212529               0.000000735              -0.000016729               0.000409749               0.000393020               0.000000000               0.000000000               0.000000000               0.000000000               0.000031377               0.000077149               0.000011774               0.000002123               0.000025008               0.000027131               0.000000000               0.000000000               0.000000000               0.000000000               0.000057138               0.000152628               0.000013318               0.000002348               0.000050093               0.000052441               0.000000000               0.000000000               0.000000000               0.000000000               0.000091584               0.000278845               0.000010221              -0.000000512               0.000093118               0.000092606               0.000000000               0.000000000               0.000000000               0.000000000               0.000122848               0.000381506               0.000001063              -0.000001620               0.000127707               0.000126087               0.000000000               0.000000000               0.000000000               0.000000000               0.000153078               0.000461454              -0.000003607              -0.000000277               0.000153909               0.000153632               0.000000000               0.000000000               0.000000000               0.000000000               0.000176885               0.000524379              -0.000001866               0.000000784               0.000174530               0.000175314               0.000000000               0.000000000               0.000000000               0.000000000               0.000195715               0.000582286               0.000000269               0.000000607               0.000193891               0.000194498               0.000000000               0.000000000               0.000000000               0.000000000               0.000215585               0.000644796               0.000000498               0.000000245               0.000214848               0.000215093               0.000000000               0.000000000               0.000000000               0.000000000               0.000239131               0.000717818              -0.000000499              -0.000000053               0.000239288               0.000239235               0.000000000               0.000000000               0.000000000               0.000000000               0.000261299               0.000786436              -0.000000705              -0.000000317               0.000262249               0.000261931               0.000000000               0.000000000               0.000000000               0.000000000               0.000281219               0.000848133              -0.000000127              -0.000000559               0.000282895               0.000282335               0.000000000               0.000000000               0.000000000               0.000000000               0.000302808               0.000914016              -0.000000318              -0.000000699               0.000304902               0.000304203               0.000000000               0.000000000               0.000000000               0.000000000               0.000324189               0.000980747              -0.000000474              -0.000001022               0.000327253               0.000326231               0.000000000               0.000000000               0.000000000               0.000000000               0.000343973               0.001045922              -0.000000268              -0.000001750               0.000349221               0.000347470               0.000000000               0.000000000               0.000000000               0.000000000               0.000363462               0.001113069              -0.000000208              -0.000002835               0.000371965               0.000369129               0.000000000               0.000000000               0.000000000               0.000000000               0.000382572               0.001181141              -0.000000128              -0.000004178               0.000395103               0.000390924               0.000000000               0.000000000               0.000000000               0.000000000               0.000390697               0.001212986              -0.000000317              -0.000005112               0.000406029               0.000400917               0.000000000               0.000000000               0.000000000               0.000000000               0.000028288               0.000070846               0.000006488               0.000001752               0.000023031               0.000024783               0.000000000               0.000000000               0.000000000               0.000000000               0.000058358               0.000147223               0.000007684               0.000003481               0.000047913               0.000051395               0.000000000               0.000000000               0.000000000               0.000000000               0.000094054               0.000272924               0.000006163               0.000001155               0.000090589               0.000091744               0.000000000               0.000000000               0.000000000               0.000000000               0.000123655               0.000379548               0.000001017              -0.000001073               0.000126873               0.000125799               0.000000000               0.000000000               0.000000000               0.000000000               0.000153113               0.000465943              -0.000001823              -0.000000825               0.000155588               0.000154763               0.000000000               0.000000000               0.000000000               0.000000000               0.000177219               0.000531039              -0.000001217               0.000000077               0.000176985               0.000177063               0.000000000               0.000000000               0.000000000               0.000000000               0.000196848               0.000588062              -0.000000144               0.000000310               0.000195915               0.000196226               0.000000000               0.000000000               0.000000000               0.000000000               0.000216523               0.000647079               0.000000238               0.000000311               0.000215587               0.000215898               0.000000000               0.000000000               0.000000000               0.000000000               0.000240143               0.000717758              -0.000000314               0.000000334               0.000239139               0.000239473               0.000000000               0.000000000               0.000000000               0.000000000               0.000264064               0.000789079              -0.000000803               0.000000389               0.000262894               0.000263283               0.000000000               0.000000000               0.000000000               0.000000000               0.000284937               0.000851776              -0.000000567               0.000000380               0.000283796               0.000284176               0.000000000               0.000000000               0.000000000               0.000000000               0.000306645               0.000916838              -0.000000587               0.000000387               0.000305481               0.000305868               0.000000000               0.000000000               0.000000000               0.000000000               0.000329732               0.000985025              -0.000000767               0.000000522               0.000328164               0.000328686               0.000000000               0.000000000               0.000000000               0.000000000               0.000351808               0.001050203              -0.000000688               0.000000653               0.000349846               0.000350499               0.000000000               0.000000000               0.000000000               0.000000000               0.000373782               0.001115930              -0.000000514               0.000000677               0.000371747               0.000372424               0.000000000               0.000000000               0.000000000               0.000000000               0.000395654               0.001182790              -0.000000269               0.000000521               0.000394085               0.000394607               0.000000000               0.000000000               0.000000000               0.000000000               0.000405540               0.001214265              -0.000000211               0.000000295               0.000404653               0.000404947               0.000000000               0.000000000               0.000000000               0.000000000               0.000027810               0.000067773              -0.000000000               0.000001957               0.000021938               0.000023895               0.000000000               0.000000000               0.000000000               0.000000000               0.000059966               0.000144420               0.000000000               0.000004435               0.000046661               0.000051096               0.000000000               0.000000000               0.000000000               0.000000000               0.000095808               0.000270560               0.000000000               0.000002108               0.000089483               0.000091591               0.000000000               0.000000000               0.000000000               0.000000000               0.000124550               0.000379174               0.000000000              -0.000000690               0.000126620               0.000125930               0.000000000               0.000000000               0.000000000               0.000000000               0.000153508               0.000467720               0.000000000              -0.000000900               0.000156205               0.000155305               0.000000000               0.000000000               0.000000000               0.000000000               0.000176476               0.000533347               0.000000000              -0.000000490               0.000177944               0.000177454               0.000000000               0.000000000               0.000000000               0.000000000               0.000196482               0.000589962               0.000000000              -0.000000064               0.000196674               0.000196609               0.000000000               0.000000000               0.000000000               0.000000000               0.000216266               0.000647294               0.000000000               0.000000188               0.000215700               0.000215888               0.000000000               0.000000000               0.000000000               0.000000000               0.000239928               0.000716626               0.000000000               0.000000395               0.000238741               0.000239136               0.000000000               0.000000000               0.000000000               0.000000000               0.000264544               0.000789292               0.000000000               0.000000543               0.000262914               0.000263456               0.000000000               0.000000000               0.000000000               0.000000000               0.000285949               0.000853280               0.000000000               0.000000571               0.000284234               0.000284804               0.000000000               0.000000000               0.000000000               0.000000000               0.000307606               0.000918460               0.000000000               0.000000545               0.000305969               0.000306514               0.000000000               0.000000000               0.000000000               0.000000000               0.000330961               0.000987438               0.000000000               0.000000681               0.000328916               0.000329596               0.000000000               0.000000000               0.000000000               0.000000000               0.000353761               0.001052829               0.000000000               0.000001057               0.000350587               0.000351644               0.000000000               0.000000000               0.000000000               0.000000000               0.000376686               0.001117754              -0.000000000               0.000001538               0.000372068               0.000373606               0.000000000               0.000000000               0.000000000               0.000000000               0.000399788               0.001183743              -0.000000000               0.000001953               0.000393926               0.000395879               0.000000000               0.000000000               0.000000000               0.000000000               0.000410656               0.001214983              -0.000000000               0.000002123               0.000404283               0.000406406               0.000000000               0.000000000               0.000000000               0.000000000              -0.000008800              -0.000012490              -0.000000000              -0.000001739              -0.000003584              -0.000005323               0.000000000               0.000000000               0.000000000               0.000000000              -0.000004141              -0.000005506              -0.000000000              -0.000000865              -0.000001547              -0.000002412               0.000000000               0.000000000               0.000000000               0.000000000              -0.000002875              -0.000016577              -0.000000000               0.000000994              -0.000005857              -0.000004863               0.000000000               0.000000000               0.000000000               0.000000000              -0.000003261              -0.000018560              -0.000000000               0.000001097              -0.000006553              -0.000005455               0.000000000               0.000000000               0.000000000               0.000000000              -0.000007372              -0.000025478               0.000000000               0.000000420              -0.000008633              -0.000008213               0.000000000               0.000000000               0.000000000               0.000000000              -0.000009662              -0.000032094               0.000000000               0.000000388              -0.000010827              -0.000010439               0.000000000               0.000000000               0.000000000               0.000000000              -0.000011563              -0.000036598              -0.000000000               0.000000239              -0.000012279              -0.000012040               0.000000000               0.000000000               0.000000000               0.000000000              -0.000013061              -0.000039815              -0.000000000               0.000000079              -0.000013298              -0.000013219               0.000000000               0.000000000               0.000000000               0.000000000              -0.000015142              -0.000039805               0.000000000              -0.000000702              -0.000013034              -0.000013737               0.000000000               0.000000000               0.000000000               0.000000000              -0.000018101              -0.000037520               0.000000000              -0.000002098              -0.000011807              -0.000013905               0.000000000               0.000000000               0.000000000               0.000000000              -0.000020446              -0.000034611               0.000000000              -0.000003341              -0.000010423              -0.000013764               0.000000000               0.000000000               0.000000000               0.000000000              -0.000020494              -0.000033165               0.000000000              -0.000003540              -0.000009875              -0.000013415               0.000000000               0.000000000               0.000000000               0.000000000              -0.000017103              -0.000034711               0.000000000              -0.000002075              -0.000010879              -0.000012954               0.000000000               0.000000000               0.000000000               0.000000000              -0.000010800              -0.000039298               0.000000000               0.000000862              -0.000013387              -0.000012524               0.000000000               0.000000000               0.000000000               0.000000000              -0.000003972              -0.000045401               0.000000000               0.000004185              -0.000016529              -0.000012343               0.000000000               0.000000000               0.000000000               0.000000000               0.000000007              -0.000050476               0.000000000               0.000006312              -0.000018929              -0.000012617               0.000000000               0.000000000               0.000000000               0.000000000               0.000001056              -0.000052032              -0.000000000               0.000006900              -0.000019644              -0.000012744               0.000000000               0.000000000               0.000000000               0.000000000              -0.000005178              -0.000011131               0.000000457              -0.000000550              -0.000003527              -0.000004077               0.000000000               0.000000000               0.000000000               0.000000000              -0.000003426              -0.000006873              -0.000002809              -0.000000425              -0.000002149              -0.000002575               0.000000000               0.000000000               0.000000000               0.000000000              -0.000004210              -0.000011577              -0.000003585              -0.000000132              -0.000003815              -0.000003947               0.000000000               0.000000000               0.000000000               0.000000000              -0.000004542              -0.000012618              -0.000003583              -0.000000126              -0.000004164              -0.000004290               0.000000000               0.000000000               0.000000000               0.000000000              -0.000004867              -0.000014042              -0.000005336              -0.000000070              -0.000004657              -0.000004727               0.000000000               0.000000000               0.000000000               0.000000000              -0.000004749              -0.000014466              -0.000005192               0.000000027              -0.000004831              -0.000004804               0.000000000               0.000000000               0.000000000               0.000000000              -0.000004574              -0.000013359              -0.000004981              -0.000000045              -0.000004438              -0.000004483               0.000000000               0.000000000               0.000000000               0.000000000              -0.000004041              -0.000010426              -0.000004195              -0.000000212              -0.000003405              -0.000003617               0.000000000               0.000000000               0.000000000               0.000000000              -0.000003763              -0.000006295              -0.000002662              -0.000000624              -0.000001890              -0.000002515               0.000000000               0.000000000               0.000000000               0.000000000              -0.000003135              -0.000001876              -0.000001137              -0.000000941              -0.000000312              -0.000001253               0.000000000               0.000000000               0.000000000               0.000000000              -0.000001475               0.000001883               0.000000138              -0.000000789               0.000000890               0.000000102               0.000000000               0.000000000               0.000000000               0.000000000               0.000001168               0.000004160               0.000000769              -0.000000082               0.000001414               0.000001332               0.000000000               0.000000000               0.000000000               0.000000000               0.000004407               0.000005237               0.000000745               0.000000998               0.000001413               0.000002411               0.000000000               0.000000000               0.000000000               0.000000000               0.000007150               0.000006303               0.000000386               0.000001894               0.000001470               0.000003363               0.000000000               0.000000000               0.000000000               0.000000000               0.000007905               0.000008993               0.000000171               0.000001840               0.000002384               0.000004224               0.000000000               0.000000000               0.000000000               0.000000000               0.000005296               0.000014774               0.000000303               0.000000139               0.000004878               0.000005017               0.000000000               0.000000000               0.000000000               0.000000000               0.000004553               0.000021582              -0.000000898              -0.000000990               0.000007524               0.000006533               0.000000000               0.000000000               0.000000000               0.000000000              -0.000004071              -0.000012449               0.000008641               0.000000030              -0.000004160              -0.000004130               0.000000000               0.000000000               0.000000000               0.000000000              -0.000003322              -0.000009892               0.000001901              -0.000000009              -0.000003294              -0.000003304               0.000000000               0.000000000               0.000000000               0.000000000              -0.000003423              -0.000005541              -0.000001469              -0.000000591              -0.000001650              -0.000002241               0.000000000               0.000000000               0.000000000               0.000000000              -0.000002951              -0.000002073               0.000000266              -0.000000847              -0.000000408              -0.000001256               0.000000000               0.000000000               0.000000000               0.000000000               0.000000991               0.000009028              -0.000001120              -0.000000757               0.000003262               0.000002505               0.000000000               0.000000000               0.000000000               0.000000000               0.000005030               0.000021799              -0.000001051              -0.000000839               0.000007546               0.000006707               0.000000000               0.000000000               0.000000000               0.000000000               0.000009370               0.000035773              -0.000000183              -0.000000958               0.000012244               0.000011286               0.000000000               0.000000000               0.000000000               0.000000000               0.000013907               0.000050755               0.000000607              -0.000001129               0.000017294               0.000016165               0.000000000               0.000000000               0.000000000               0.000000000               0.000019202               0.000063850               0.000001497              -0.000000781               0.000021543               0.000020763               0.000000000               0.000000000               0.000000000               0.000000000               0.000025885               0.000074112               0.000001940               0.000000443               0.000024556               0.000024999               0.000000000               0.000000000               0.000000000               0.000000000               0.000033562               0.000081816               0.000001464               0.000002359               0.000026485               0.000028844               0.000000000               0.000000000               0.000000000               0.000000000               0.000040406               0.000088917               0.000000155               0.000004038               0.000028293               0.000032330               0.000000000               0.000000000               0.000000000               0.000000000               0.000043605               0.000098224              -0.000001373               0.000004074               0.000031383               0.000035457               0.000000000               0.000000000               0.000000000               0.000000000               0.000041101               0.000112081              -0.000002371               0.000001403               0.000036892               0.000038295               0.000000000               0.000000000               0.000000000               0.000000000               0.000032215               0.000131638              -0.000002322              -0.000004374               0.000045337               0.000040963               0.000000000               0.000000000               0.000000000               0.000000000               0.000017452               0.000157024              -0.000001148              -0.000013083               0.000056702               0.000043618               0.000000000               0.000000000               0.000000000               0.000000000               0.000012990               0.000179231              -0.000002856              -0.000017533               0.000065587               0.000048055               0.000000000               0.000000000               0.000000000               0.000000000              -0.000006296              -0.000013976               0.000008162              -0.000000614              -0.000004454              -0.000005068               0.000000000               0.000000000               0.000000000               0.000000000              -0.000002482              -0.000008421               0.000001846               0.000000122              -0.000002848              -0.000002726               0.000000000               0.000000000               0.000000000               0.000000000               0.000002361               0.000005273              -0.000001987               0.000000226               0.000001682               0.000001908               0.000000000               0.000000000               0.000000000               0.000000000               0.000005642               0.000020964               0.000000905              -0.000000505               0.000007156               0.000006651               0.000000000               0.000000000               0.000000000               0.000000000               0.000013756               0.000044575               0.000001486              -0.000000413               0.000014996               0.000014582               0.000000000               0.000000000               0.000000000               0.000000000               0.000023091               0.000069259               0.000002074               0.000000002               0.000023085               0.000023087               0.000000000               0.000000000               0.000000000               0.000000000               0.000030070               0.000094436               0.000003394              -0.000000528               0.000031654               0.000031126               0.000000000               0.000000000               0.000000000               0.000000000               0.000037332               0.000117992               0.000003746              -0.000000750               0.000039580               0.000038830               0.000000000               0.000000000               0.000000000               0.000000000               0.000046790               0.000138578               0.000002867               0.000000224               0.000046118               0.000046342               0.000000000               0.000000000               0.000000000               0.000000000               0.000056360               0.000155680               0.000000406               0.000001675               0.000051334               0.000053009               0.000000000               0.000000000               0.000000000               0.000000000               0.000064533               0.000171199              -0.000003380               0.000002800               0.000056132               0.000058932               0.000000000               0.000000000               0.000000000               0.000000000               0.000068972               0.000188738              -0.000007419               0.000002272               0.000062155               0.000064427               0.000000000               0.000000000               0.000000000               0.000000000               0.000067273               0.000210840              -0.000010503              -0.000001128               0.000070655               0.000069528               0.000000000               0.000000000               0.000000000               0.000000000               0.000058735               0.000238806              -0.000011730              -0.000007825               0.000082210               0.000074385               0.000000000               0.000000000               0.000000000               0.000000000               0.000043698               0.000272645              -0.000010520              -0.000017694               0.000096779               0.000079085               0.000000000               0.000000000               0.000000000               0.000000000               0.000023131               0.000311775              -0.000006398              -0.000030298               0.000114023               0.000083726               0.000000000               0.000000000               0.000000000               0.000000000               0.000017739               0.000343371              -0.000007035              -0.000036269               0.000126546               0.000090277               0.000000000               0.000000000               0.000000000               0.000000000              -0.000001996               0.000000741               0.000007385              -0.000000841               0.000000527              -0.000000314               0.000000000               0.000000000               0.000000000               0.000000000               0.000003476               0.000010507               0.000004326              -0.000000010               0.000003506               0.000003496               0.000000000               0.000000000               0.000000000               0.000000000               0.000015263               0.000039554              -0.000000644               0.000000779               0.000012925               0.000013704               0.000000000               0.000000000               0.000000000               0.000000000               0.000022976               0.000069900               0.000001451              -0.000000122               0.000023340               0.000023219               0.000000000               0.000000000               0.000000000               0.000000000               0.000033836               0.000102840               0.000003141              -0.000000167               0.000034335               0.000034168               0.000000000               0.000000000               0.000000000               0.000000000               0.000047022               0.000137007               0.000002877               0.000000508               0.000045499               0.000046007               0.000000000               0.000000000               0.000000000               0.000000000               0.000057775               0.000169900               0.000003229               0.000000428               0.000056490               0.000056918               0.000000000               0.000000000               0.000000000               0.000000000               0.000068044               0.000198787               0.000001635               0.000000668               0.000066039               0.000066707               0.000000000               0.000000000               0.000000000               0.000000000               0.000079117               0.000224680              -0.000002203               0.000001584               0.000074365               0.000075948               0.000000000               0.000000000               0.000000000               0.000000000               0.000088210               0.000249084              -0.000008038               0.000001943               0.000082379               0.000084323               0.000000000               0.000000000               0.000000000               0.000000000               0.000092501               0.000275700              -0.000014514               0.000000225               0.000091824               0.000092049               0.000000000               0.000000000               0.000000000               0.000000000               0.000090305               0.000307161              -0.000019903              -0.000004531               0.000103896               0.000099365               0.000000000               0.000000000               0.000000000               0.000000000               0.000081095               0.000343943              -0.000022990              -0.000012582               0.000118840               0.000106258               0.000000000               0.000000000               0.000000000               0.000000000               0.000065689               0.000385255              -0.000022892              -0.000023523               0.000136258               0.000112735               0.000000000               0.000000000               0.000000000               0.000000000               0.000045857               0.000429516              -0.000019080              -0.000036493               0.000155335               0.000118842               0.000000000               0.000000000               0.000000000               0.000000000               0.000023319               0.000474696              -0.000011225              -0.000050592               0.000175095               0.000124502               0.000000000               0.000000000               0.000000000               0.000000000               0.000018068               0.000507742              -0.000010024              -0.000056692               0.000188143               0.000131451               0.000000000               0.000000000               0.000000000               0.000000000               0.000004731               0.000026828               0.000005594              -0.000001579               0.000009469               0.000007890               0.000000000               0.000000000               0.000000000               0.000000000               0.000012117               0.000042886               0.000005103              -0.000000817               0.000014567               0.000013751               0.000000000               0.000000000               0.000000000               0.000000000               0.000032469               0.000088461              -0.000000165               0.000001118               0.000029114               0.000030232               0.000000000               0.000000000               0.000000000               0.000000000               0.000044746               0.000130038               0.000001027               0.000000525               0.000043171               0.000043695               0.000000000               0.000000000               0.000000000               0.000000000               0.000056670               0.000172749               0.000002380              -0.000000342               0.000057697               0.000057354               0.000000000               0.000000000               0.000000000               0.000000000               0.000072719               0.000216200               0.000001326               0.000000245               0.000071985               0.000072229               0.000000000               0.000000000               0.000000000               0.000000000               0.000086621               0.000255613               0.000000007               0.000000531               0.000085026               0.000085558               0.000000000               0.000000000               0.000000000               0.000000000               0.000098383               0.000290859              -0.000004424               0.000000536               0.000096773               0.000097310               0.000000000               0.000000000               0.000000000               0.000000000               0.000109436               0.000324156              -0.000011335               0.000000519               0.000107878               0.000108397               0.000000000               0.000000000               0.000000000               0.000000000               0.000115557               0.000359117              -0.000019410              -0.000001556               0.000120223               0.000118667               0.000000000               0.000000000               0.000000000               0.000000000               0.000114219               0.000398743              -0.000026654              -0.000007011               0.000135250               0.000128239               0.000000000               0.000000000               0.000000000               0.000000000               0.000105183               0.000443714              -0.000031452              -0.000016021               0.000153244               0.000137223               0.000000000               0.000000000               0.000000000               0.000000000               0.000089399               0.000492815              -0.000032722              -0.000028077               0.000173629               0.000145552               0.000000000               0.000000000               0.000000000               0.000000000               0.000069067               0.000543714              -0.000030011              -0.000042064               0.000195258               0.000153194               0.000000000               0.000000000               0.000000000               0.000000000               0.000046425               0.000593502              -0.000023455              -0.000056778               0.000216758               0.000159980               0.000000000               0.000000000               0.000000000               0.000000000               0.000023056               0.000639749              -0.000013185              -0.000071322               0.000237022               0.000165699               0.000000000               0.000000000               0.000000000               0.000000000               0.000017353               0.000671126              -0.000010658              -0.000077383               0.000249501               0.000172118               0.000000000               0.000000000               0.000000000               0.000000000               0.000016593               0.000054874              -0.000002400              -0.000000637               0.000018503               0.000017866               0.000000000               0.000000000               0.000000000               0.000000000               0.000025519               0.000079567               0.000002686              -0.000000376               0.000026647               0.000026271               0.000000000               0.000000000               0.000000000               0.000000000               0.000051448               0.000136168               0.000001510               0.000002272               0.000044632               0.000046904               0.000000000               0.000000000               0.000000000               0.000000000               0.000067083               0.000187001               0.000000727               0.000001781               0.000061739               0.000063520               0.000000000               0.000000000               0.000000000               0.000000000               0.000079615               0.000239081               0.000001799              -0.000000029               0.000079703               0.000079673               0.000000000               0.000000000               0.000000000               0.000000000               0.000097676               0.000290342              -0.000000091               0.000000336               0.000096668               0.000097004               0.000000000               0.000000000               0.000000000               0.000000000               0.000113017               0.000337623              -0.000003580               0.000000179               0.000112480               0.000112659               0.000000000               0.000000000               0.000000000               0.000000000               0.000124531               0.000381066              -0.000010326              -0.000000934               0.000127332               0.000126398               0.000000000               0.000000000               0.000000000               0.000000000               0.000133194               0.000425205              -0.000019296              -0.000003203               0.000142801               0.000139598               0.000000000               0.000000000               0.000000000               0.000000000               0.000134624               0.000473382              -0.000027846              -0.000008689               0.000160689               0.000152000               0.000000000               0.000000000               0.000000000               0.000000000               0.000127082               0.000526684              -0.000034292              -0.000018180               0.000181619               0.000163440               0.000000000               0.000000000               0.000000000               0.000000000               0.000112270               0.000584026              -0.000036931              -0.000030902               0.000204974               0.000174072               0.000000000               0.000000000               0.000000000               0.000000000               0.000092449               0.000643046              -0.000035490              -0.000045712               0.000229584               0.000183872               0.000000000               0.000000000               0.000000000               0.000000000               0.000069772               0.000700349              -0.000030440              -0.000061379               0.000253907               0.000192528               0.000000000               0.000000000               0.000000000               0.000000000               0.000045968               0.000753560              -0.000022520              -0.000076957               0.000276837               0.000199880               0.000000000               0.000000000               0.000000000               0.000000000               0.000022577               0.000800971              -0.000012211              -0.000091655               0.000297539               0.000205884               0.000000000               0.000000000               0.000000000               0.000000000               0.000016449               0.000831635              -0.000009797              -0.000097786               0.000309804               0.000212018               0.000000000               0.000000000               0.000000000               0.000000000               0.000029760               0.000083335              -0.000008292               0.000000743               0.000027530               0.000028273               0.000000000               0.000000000               0.000000000               0.000000000               0.000036188               0.000115701               0.000001305              -0.000000892               0.000038864               0.000037972               0.000000000               0.000000000               0.000000000               0.000000000               0.000066315               0.000182392               0.000003490               0.000002069               0.000060107               0.000062176               0.000000000               0.000000000               0.000000000               0.000000000               0.000086356               0.000244349               0.000000915               0.000001840               0.000080835               0.000082675               0.000000000               0.000000000               0.000000000               0.000000000               0.000100147               0.000303624               0.000001212              -0.000000398               0.000101339               0.000100942               0.000000000               0.000000000               0.000000000               0.000000000               0.000120726               0.000363060              -0.000001622              -0.000000110               0.000121056               0.000120945               0.000000000               0.000000000               0.000000000               0.000000000               0.000137052               0.000418374              -0.000007020              -0.000000902               0.000139757               0.000138855               0.000000000               0.000000000               0.000000000               0.000000000               0.000148244               0.000471495              -0.000015430              -0.000003345               0.000158279               0.000154933               0.000000000               0.000000000               0.000000000               0.000000000               0.000153445               0.000528349              -0.000024736              -0.000008502               0.000178948               0.000170447               0.000000000               0.000000000               0.000000000               0.000000000               0.000149529               0.000590374              -0.000032463              -0.000017723               0.000202697               0.000184974               0.000000000               0.000000000               0.000000000               0.000000000               0.000136640               0.000656968              -0.000036703              -0.000030881               0.000229281               0.000198400               0.000000000               0.000000000               0.000000000               0.000000000               0.000118178               0.000725912              -0.000036691              -0.000046422               0.000257442               0.000211020               0.000000000               0.000000000               0.000000000               0.000000000               0.000095718               0.000793684              -0.000032748              -0.000063316               0.000285664               0.000222348               0.000000000               0.000000000               0.000000000               0.000000000               0.000071515               0.000858046              -0.000026223              -0.000080437               0.000312825               0.000232388               0.000000000               0.000000000               0.000000000               0.000000000               0.000046911               0.000917447              -0.000017968              -0.000097089               0.000338175               0.000241087               0.000000000               0.000000000               0.000000000               0.000000000               0.000023401               0.000970122              -0.000009239              -0.000112490               0.000360867               0.000248378               0.000000000               0.000000000               0.000000000               0.000000000               0.000015441               0.001002989              -0.000007742              -0.000119583               0.000374187               0.000254604               0.000000000               0.000000000               0.000000000               0.000000000               0.000036024               0.000103394              -0.000010774               0.000000585               0.000034269               0.000034854               0.000000000               0.000000000               0.000000000               0.000000000               0.000043342               0.000143958              -0.000000267              -0.000001742               0.000048566               0.000046824               0.000000000               0.000000000               0.000000000               0.000000000               0.000079014               0.000223533               0.000005327               0.000001688               0.000073947               0.000075636               0.000000000               0.000000000               0.000000000               0.000000000               0.000102566               0.000291519               0.000002680               0.000002023               0.000096498               0.000098520               0.000000000               0.000000000               0.000000000               0.000000000               0.000116448               0.000356982               0.000000797              -0.000000955               0.000119311               0.000118356               0.000000000               0.000000000               0.000000000               0.000000000               0.000138369               0.000422659              -0.000001592              -0.000000944               0.000141200               0.000140256               0.000000000               0.000000000               0.000000000               0.000000000               0.000154447               0.000483945              -0.000007486              -0.000002575               0.000162172               0.000159596               0.000000000               0.000000000               0.000000000               0.000000000               0.000165271               0.000545089              -0.000015693              -0.000006160               0.000183748               0.000177588               0.000000000               0.000000000               0.000000000               0.000000000               0.000169103               0.000610751              -0.000023528              -0.000012930               0.000207892               0.000194962               0.000000000               0.000000000               0.000000000               0.000000000               0.000163782               0.000682956              -0.000030073              -0.000023951               0.000235634               0.000211682               0.000000000               0.000000000               0.000000000               0.000000000               0.000150989               0.000758967              -0.000032846              -0.000038250               0.000265737               0.000227487               0.000000000               0.000000000               0.000000000               0.000000000               0.000133643               0.000836452              -0.000031548              -0.000054440               0.000296961               0.000242521               0.000000000               0.000000000               0.000000000               0.000000000               0.000113315               0.000911951              -0.000026671              -0.000071501               0.000327814               0.000256314               0.000000000               0.000000000               0.000000000               0.000000000               0.000091149               0.000984106              -0.000019390              -0.000088832               0.000357643               0.000268811               0.000000000               0.000000000               0.000000000               0.000000000               0.000069098               0.001051862              -0.000011248              -0.000105571               0.000385807               0.000280237               0.000000000               0.000000000               0.000000000               0.000000000               0.000049417               0.001113979              -0.000003718              -0.000120716               0.000411561               0.000290845               0.000000000               0.000000000               0.000000000               0.000000000               0.000038588               0.001146748              -0.000000665              -0.000128873               0.000425203               0.000296330               0.000000000               0.000000000               0.000000000               0.000000000               0.000036984               0.000109866              -0.000015018               0.000000136               0.000036576               0.000036712               0.000000000               0.000000000               0.000000000               0.000000000               0.000047057               0.000161429              -0.000004875              -0.000002532               0.000054653               0.000052121               0.000000000               0.000000000               0.000000000               0.000000000               0.000084580               0.000251841               0.000004077               0.000000237               0.000083867               0.000084105               0.000000000               0.000000000               0.000000000               0.000000000               0.000115318               0.000321573               0.000003267               0.000003048               0.000106174               0.000109222               0.000000000               0.000000000               0.000000000               0.000000000               0.000128865               0.000388370              -0.000000729              -0.000000222               0.000129529               0.000129308               0.000000000               0.000000000               0.000000000               0.000000000               0.000148852               0.000456096              -0.000002906              -0.000001192               0.000152428               0.000151236               0.000000000               0.000000000               0.000000000               0.000000000               0.000168397               0.000522694              -0.000006870              -0.000002188               0.000174959               0.000172771               0.000000000               0.000000000               0.000000000               0.000000000               0.000180796               0.000585465              -0.000013711              -0.000005385               0.000196948               0.000191563               0.000000000               0.000000000               0.000000000               0.000000000               0.000188753               0.000650971              -0.000020277              -0.000010589               0.000220518               0.000209929               0.000000000               0.000000000               0.000000000               0.000000000               0.000189084               0.000721338              -0.000026139              -0.000019261               0.000246864               0.000227603               0.000000000               0.000000000               0.000000000               0.000000000               0.000182066               0.000794524              -0.000029848              -0.000031041               0.000275186               0.000244145               0.000000000               0.000000000               0.000000000               0.000000000               0.000170107               0.000870664              -0.000030050              -0.000045043               0.000305233               0.000260190               0.000000000               0.000000000               0.000000000               0.000000000               0.000154993               0.000947080              -0.000026839              -0.000060263               0.000335778               0.000275515               0.000000000               0.000000000               0.000000000               0.000000000               0.000137943               0.001022952              -0.000020555              -0.000076140               0.000366361               0.000290220               0.000000000               0.000000000               0.000000000               0.000000000               0.000120215               0.001098097              -0.000012999              -0.000092181               0.000396756               0.000304574               0.000000000               0.000000000               0.000000000               0.000000000               0.000103902               0.001172334              -0.000005235              -0.000107578               0.000426634               0.000319055               0.000000000               0.000000000               0.000000000               0.000000000               0.000089879               0.001205605               0.000000935              -0.000116996               0.000440863               0.000323867               0.000000000               0.000000000               0.000000000               0.000000000               0.000040629               0.000111067              -0.000019323               0.000001353               0.000036571               0.000037924               0.000000000               0.000000000               0.000000000               0.000000000               0.000049414               0.000171629              -0.000009977              -0.000002923               0.000058184               0.000055260               0.000000000               0.000000000               0.000000000               0.000000000               0.000085282               0.000269397               0.000001968              -0.000001694               0.000090363               0.000088669               0.000000000               0.000000000               0.000000000               0.000000000               0.000122285               0.000342881               0.000004865               0.000002997               0.000113294               0.000116290               0.000000000               0.000000000               0.000000000               0.000000000               0.000138055               0.000406901               0.000001452               0.000000908               0.000135330               0.000136238               0.000000000               0.000000000               0.000000000               0.000000000               0.000154120               0.000472360              -0.000002015              -0.000001250               0.000157868               0.000156618               0.000000000               0.000000000               0.000000000               0.000000000               0.000175717               0.000541071              -0.000003388              -0.000001740               0.000180935               0.000179195               0.000000000               0.000000000               0.000000000               0.000000000               0.000192275               0.000606214              -0.000007586              -0.000003673               0.000203294               0.000199620               0.000000000               0.000000000               0.000000000               0.000000000               0.000204597               0.000669567              -0.000013240              -0.000006972               0.000225511               0.000218539               0.000000000               0.000000000               0.000000000               0.000000000               0.000212899               0.000737124              -0.000018017              -0.000012303               0.000249806               0.000237503               0.000000000               0.000000000               0.000000000               0.000000000               0.000214841               0.000806998              -0.000022494              -0.000020309               0.000275766               0.000255457               0.000000000               0.000000000               0.000000000               0.000000000               0.000211844               0.000879641              -0.000024923              -0.000030514               0.000303382               0.000272868               0.000000000               0.000000000               0.000000000               0.000000000               0.000204991               0.000953658              -0.000024610              -0.000042336               0.000331995               0.000289659               0.000000000               0.000000000               0.000000000               0.000000000               0.000196095               0.001028553              -0.000021168              -0.000055033               0.000361192               0.000306159               0.000000000               0.000000000               0.000000000               0.000000000               0.000185107               0.001102591              -0.000015118              -0.000068409               0.000390329               0.000321921               0.000000000               0.000000000               0.000000000               0.000000000               0.000172667               0.001176490              -0.000007600              -0.000082311               0.000419597               0.000337286               0.000000000               0.000000000               0.000000000               0.000000000               0.000158685               0.001208994              -0.000000458              -0.000091617               0.000433533               0.000341916               0.000000000               0.000000000               0.000000000               0.000000000               0.000044734               0.000110774              -0.000021216               0.000002928               0.000035948               0.000038877               0.000000000               0.000000000               0.000000000               0.000000000               0.000052092               0.000174804              -0.000014833              -0.000002316               0.000059039               0.000056723               0.000000000               0.000000000               0.000000000               0.000000000               0.000085135               0.000280605              -0.000002483              -0.000003150               0.000094584               0.000091434               0.000000000               0.000000000               0.000000000               0.000000000               0.000125173               0.000360160               0.000004876               0.000001920               0.000119412               0.000121332               0.000000000               0.000000000               0.000000000               0.000000000               0.000147048               0.000424746               0.000003716               0.000002050               0.000140897               0.000142947               0.000000000               0.000000000               0.000000000               0.000000000               0.000161676               0.000488030              -0.000000888              -0.000000375               0.000162800               0.000162425               0.000000000               0.000000000               0.000000000               0.000000000               0.000181623               0.000555329              -0.000001957              -0.000001308               0.000185544               0.000184236               0.000000000               0.000000000               0.000000000               0.000000000               0.000202032               0.000624508              -0.000002990              -0.000002302               0.000208935               0.000206633               0.000000000               0.000000000               0.000000000               0.000000000               0.000217751               0.000687794              -0.000006753              -0.000004318               0.000230702               0.000226384               0.000000000               0.000000000               0.000000000               0.000000000               0.000231412               0.000752657              -0.000010427              -0.000007303               0.000253317               0.000246015               0.000000000               0.000000000               0.000000000               0.000000000               0.000241546               0.000820439              -0.000013730              -0.000011975               0.000277469               0.000265494               0.000000000               0.000000000               0.000000000               0.000000000               0.000247067               0.000889559              -0.000016747              -0.000018545               0.000302698               0.000284154               0.000000000               0.000000000               0.000000000               0.000000000               0.000249020               0.000960376              -0.000018117              -0.000026664               0.000329010               0.000302346               0.000000000               0.000000000               0.000000000               0.000000000               0.000248557               0.001032989              -0.000017431              -0.000035914               0.000356298               0.000320383               0.000000000               0.000000000               0.000000000               0.000000000               0.000246069               0.001104978              -0.000014101              -0.000045846               0.000383604               0.000337758               0.000000000               0.000000000               0.000000000               0.000000000               0.000241883               0.001177971              -0.000008344              -0.000056540               0.000411500               0.000354960               0.000000000               0.000000000               0.000000000               0.000000000               0.000232664               0.001210971              -0.000002282              -0.000064122               0.000425027               0.000360905               0.000000000               0.000000000               0.000000000               0.000000000               0.000042080               0.000103623              -0.000020554               0.000002827               0.000033598               0.000036425               0.000000000               0.000000000               0.000000000               0.000000000               0.000054339               0.000170708              -0.000017817              -0.000000961               0.000057223               0.000056261               0.000000000               0.000000000               0.000000000               0.000000000               0.000085699               0.000285784              -0.000007682              -0.000003586               0.000096456               0.000092870               0.000000000               0.000000000               0.000000000               0.000000000               0.000124782               0.000372984               0.000003046               0.000000170               0.000124270               0.000124440               0.000000000               0.000000000               0.000000000               0.000000000               0.000152717               0.000441046               0.000004486               0.000002138               0.000146301               0.000148439               0.000000000               0.000000000               0.000000000               0.000000000               0.000169392               0.000503034               0.000000486               0.000000643               0.000167462               0.000168105               0.000000000               0.000000000               0.000000000               0.000000000               0.000187238               0.000566085              -0.000001365              -0.000000546               0.000188875               0.000188329               0.000000000               0.000000000               0.000000000               0.000000000               0.000208950               0.000636008              -0.000000817              -0.000001145               0.000212382               0.000211237               0.000000000               0.000000000               0.000000000               0.000000000               0.000228686               0.000703291              -0.000001835              -0.000002154               0.000235146               0.000232992               0.000000000               0.000000000               0.000000000               0.000000000               0.000245459               0.000765932              -0.000004339              -0.000003694               0.000256539               0.000252845               0.000000000               0.000000000               0.000000000               0.000000000               0.000261390               0.000831823              -0.000006004              -0.000005957               0.000279257               0.000273300               0.000000000               0.000000000               0.000000000               0.000000000               0.000274728               0.000899834              -0.000007930              -0.000009456               0.000303094               0.000293638               0.000000000               0.000000000               0.000000000               0.000000000               0.000284718               0.000967628              -0.000009503              -0.000014184               0.000327268               0.000313083               0.000000000               0.000000000               0.000000000               0.000000000               0.000293003               0.001038019              -0.000010045              -0.000019876               0.000352628               0.000332752               0.000000000               0.000000000               0.000000000               0.000000000               0.000299618               0.001108609              -0.000008952              -0.000026219               0.000378272               0.000352053               0.000000000               0.000000000               0.000000000               0.000000000               0.000305538               0.001179442              -0.000005823              -0.000032853               0.000404094               0.000371241               0.000000000               0.000000000               0.000000000               0.000000000               0.000304408               0.001212046              -0.000002204              -0.000037353               0.000416462               0.000379110               0.000000000               0.000000000               0.000000000               0.000000000               0.000036536               0.000088998              -0.000016337               0.000002576               0.000028807               0.000031383               0.000000000               0.000000000               0.000000000               0.000000000               0.000056449               0.000160709              -0.000016539               0.000001080               0.000053209               0.000054289               0.000000000               0.000000000               0.000000000               0.000000000               0.000088579               0.000283369              -0.000010413              -0.000002204               0.000095190               0.000092986               0.000000000               0.000000000               0.000000000               0.000000000               0.000123515               0.000379613               0.000000760              -0.000001134               0.000126914               0.000125781               0.000000000               0.000000000               0.000000000               0.000000000               0.000154148               0.000453241               0.000004538               0.000001151               0.000150695               0.000151846               0.000000000               0.000000000               0.000000000               0.000000000               0.000174533               0.000515044               0.000001630               0.000001069               0.000171323               0.000172393               0.000000000               0.000000000               0.000000000               0.000000000               0.000192431               0.000574907              -0.000000771               0.000000298               0.000191534               0.000191833               0.000000000               0.000000000               0.000000000               0.000000000               0.000213352               0.000641576              -0.000000451              -0.000000190               0.000213920               0.000213730               0.000000000               0.000000000               0.000000000               0.000000000               0.000235931               0.000713505               0.000000376              -0.000000714               0.000238071               0.000237357               0.000000000               0.000000000               0.000000000               0.000000000               0.000255461               0.000778118              -0.000000674              -0.000001467               0.000259859               0.000258392               0.000000000               0.000000000               0.000000000               0.000000000               0.000274233               0.000841327              -0.000001633              -0.000002328               0.000281216               0.000278887               0.000000000               0.000000000               0.000000000               0.000000000               0.000293491               0.000908878              -0.000002035              -0.000003551               0.000304140               0.000300589               0.000000000               0.000000000               0.000000000               0.000000000               0.000310358               0.000975288              -0.000002782              -0.000005527               0.000326935               0.000321408               0.000000000               0.000000000               0.000000000               0.000000000               0.000325702               0.001042470              -0.000003287              -0.000008171               0.000350210               0.000342039               0.000000000               0.000000000               0.000000000               0.000000000               0.000340287               0.001111405              -0.000003033              -0.000011318               0.000374237               0.000362919               0.000000000               0.000000000               0.000000000               0.000000000               0.000354458               0.001180431              -0.000002069              -0.000014632               0.000398350               0.000383718               0.000000000               0.000000000               0.000000000               0.000000000               0.000359566               0.001212529              -0.000000735              -0.000016729               0.000409749               0.000393020               0.000000000               0.000000000               0.000000000               0.000000000               0.000031377               0.000077149              -0.000011774               0.000002123               0.000025008               0.000027131               0.000000000               0.000000000               0.000000000               0.000000000               0.000057138               0.000152628              -0.000013318               0.000002348               0.000050093               0.000052441               0.000000000               0.000000000               0.000000000               0.000000000               0.000091584               0.000278845              -0.000010221              -0.000000512               0.000093118               0.000092606               0.000000000               0.000000000               0.000000000               0.000000000               0.000122848               0.000381506              -0.000001063              -0.000001620               0.000127707               0.000126087               0.000000000               0.000000000               0.000000000               0.000000000               0.000153078               0.000461454               0.000003607              -0.000000277               0.000153909               0.000153632               0.000000000               0.000000000               0.000000000               0.000000000               0.000176885               0.000524379               0.000001866               0.000000784               0.000174530               0.000175314               0.000000000               0.000000000               0.000000000               0.000000000               0.000195715               0.000582286              -0.000000269               0.000000607               0.000193891               0.000194498               0.000000000               0.000000000               0.000000000               0.000000000               0.000215585               0.000644796              -0.000000498               0.000000245               0.000214848               0.000215093               0.000000000               0.000000000               0.000000000               0.000000000               0.000239131               0.000717818               0.000000499              -0.000000053               0.000239288               0.000239235               0.000000000               0.000000000               0.000000000               0.000000000               0.000261299               0.000786436               0.000000705              -0.000000317               0.000262249               0.000261931               0.000000000               0.000000000               0.000000000               0.000000000               0.000281219               0.000848133               0.000000127              -0.000000559               0.000282895               0.000282335               0.000000000               0.000000000               0.000000000               0.000000000               0.000302808               0.000914016               0.000000318              -0.000000699               0.000304902               0.000304203               0.000000000               0.000000000               0.000000000               0.000000000               0.000324189               0.000980747               0.000000474              -0.000001022               0.000327253               0.000326231               0.000000000               0.000000000               0.000000000               0.000000000               0.000343973               0.001045922               0.000000268              -0.000001750               0.000349221               0.000347470               0.000000000               0.000000000               0.000000000               0.000000000               0.000363462               0.001113069               0.000000208              -0.000002835               0.000371965               0.000369129               0.000000000               0.000000000               0.000000000               0.000000000               0.000382572               0.001181141               0.000000128              -0.000004178               0.000395103               0.000390924               0.000000000               0.000000000               0.000000000               0.000000000               0.000390697               0.001212986               0.000000317              -0.000005112               0.000406029               0.000400917               0.000000000               0.000000000               0.000000000               0.000000000               0.000028288               0.000070846              -0.000006488               0.000001752               0.000023031               0.000024783               0.000000000               0.000000000               0.000000000               0.000000000               0.000058358               0.000147223              -0.000007684               0.000003481               0.000047913               0.000051395               0.000000000               0.000000000               0.000000000               0.000000000               0.000094054               0.000272924              -0.000006163               0.000001155               0.000090589               0.000091744               0.000000000               0.000000000               0.000000000               0.000000000               0.000123655               0.000379548              -0.000001017              -0.000001073               0.000126873               0.000125799               0.000000000               0.000000000               0.000000000               0.000000000               0.000153113               0.000465943               0.000001823              -0.000000825               0.000155588               0.000154763               0.000000000               0.000000000               0.000000000               0.000000000               0.000177219               0.000531039               0.000001217               0.000000077               0.000176985               0.000177063               0.000000000               0.000000000               0.000000000               0.000000000               0.000196848               0.000588062               0.000000144               0.000000310               0.000195915               0.000196226               0.000000000               0.000000000               0.000000000               0.000000000               0.000216523               0.000647079              -0.000000238               0.000000311               0.000215587               0.000215898               0.000000000               0.000000000               0.000000000               0.000000000               0.000240143               0.000717758               0.000000314               0.000000334               0.000239139               0.000239473               0.000000000               0.000000000               0.000000000               0.000000000               0.000264064               0.000789079               0.000000803               0.000000389               0.000262894               0.000263283               0.000000000               0.000000000               0.000000000               0.000000000               0.000284937               0.000851776               0.000000567               0.000000380               0.000283796               0.000284176               0.000000000               0.000000000               0.000000000               0.000000000               0.000306645               0.000916838               0.000000587               0.000000387               0.000305481               0.000305868               0.000000000               0.000000000               0.000000000               0.000000000               0.000329732               0.000985025               0.000000767               0.000000522               0.000328164               0.000328686               0.000000000               0.000000000               0.000000000               0.000000000               0.000351808               0.001050203               0.000000688               0.000000653               0.000349846               0.000350499               0.000000000               0.000000000               0.000000000               0.000000000               0.000373782               0.001115930               0.000000514               0.000000677               0.000371747               0.000372424               0.000000000               0.000000000               0.000000000               0.000000000               0.000395654               0.001182790               0.000000269               0.000000521               0.000394085               0.000394607               0.000000000               0.000000000               0.000000000               0.000000000               0.000405540               0.001214265               0.000000211               0.000000295               0.000404653               0.000404947               0.000000000               0.000000000               0.000000000               0.000000000               0.000000000               0.000000000               0.000000000               0.000000000               0.000000000               0.000000000               0.000000000               0.000000000               0.000000000               0.000000000               0.000000000               0.000000000               0.000000000               0.000000000               0.000000000               0.000000000               0.000000000               0.000000000               0.000000000               0.000000000               0.000000000               0.000000000               0.000000000               0.000000000               0.000000000               0.000000000               0.000000000               0.000000000               0.000000000               0.000000000               0.000000000               0.000000000               0.000000000               0.000000000               0.000000000               0.000000000               0.000000000               0.000000000               0.000000000               0.000000000               0.000000000               0.000000000               0.000000000               0.000000000               0.000000000               0.000000000               0.000000000               0.000000000               0.000000000               0.000000000               0.000000000               0.000000000               0.000000000               0.000000000               0.000000000               0.000000000               0.000000000               0.000000000               0.000000000               0.000000000               0.000000000               0.000000000               0.000000000               0.000000000               0.000000000               0.000000000               0.000000000               0.000000000               0.000000000               0.000000000               0.000000000               0.000000000               0.000000000               0.000000000               0.000000000               0.000000000               0.000000000               0.000000000               0.000000000               0.000000000               0.000000000               0.000000000               0.000000000               0.000000000               0.000000000               0.000000000               0.000000000               0.000000000               0.000000000               0.000000000               0.000000000               0.000000000               0.000000000               0.000000000               0.000000000               0.000000000               0.000000000               0.000000000               0.000000000               0.000000000               0.000000000               0.000000000               0.000000000               0.000000000               0.000000000               0.000000000               0.000000000               0.000000000               0.000000000               0.000000000               0.000000000               0.000000000               0.000000000               0.000000000               0.000000000               0.000000000               0.000000000               0.000000000               0.000000000               0.000000000               0.000000000               0.000000000               0.000000000               0.000000000               0.000000000               0.000000000               0.000000000               0.000000000               0.000000000               0.000000000               0.000000000               0.000000000               0.000000000               0.000000000               0.000000000               0.000000000               0.000000000               0.000000000               0.000000000               0.000000000               0.000000000               0.000000000               0.000000000               0.000000000               0.000000000               0.000000000               0.000000000               0.000000000               0.000000000               0.000000000               0.000000000               0.000000000               0.000000000               0.000000000               0.000000000               0.000000000               0.000000000               0.000000000               0.000000000               0.000000000               0.000000000               0.000000000               0.000000000               0.000000000               0.000000000               0.000000000               0.000000000               0.000000000               0.000000000               0.000000000               0.000000000               0.000000000               0.000000000               0.000000000               0.000000000               0.000000000               0.000000000               0.000000000               0.000000000               0.000000000               0.000000000               0.000000000               0.000000000               0.000000000               0.000000000               0.000000000               0.000000000               0.000000000               0.000000000               0.000000000               0.000000000               0.000000000               0.000000000               0.000000000               0.000000000               0.000000000               0.000000000               0.000000000               0.000000000               0.000000000               0.000000000               0.000000000               0.000000000               0.000000000               0.000000000               0.000000000               0.000000000               0.000000000               0.000000000               0.000000000               0.000000000               0.000000000               0.000000000               0.000000000               0.000000000               0.000000000               0.000000000               0.000000000               0.000000000               0.000000000               0.000000000               0.000000000               0.000000000               0.000000000               0.000000000               0.000000000               0.000000000               0.000000000               0.000000000               0.000000000               0.000000000               0.000000000               0.000000000               0.000000000               0.000000000               0.000000000               0.000000000               0.000000000               0.000000000               0.000000000               0.000000000               0.000000000               0.000000000               0.000000000               0.000000000               0.000000000               0.000000000               0.000000000               0.000000000               0.000000000               0.000000000               0.000000000               0.000000000               0.000000000               0.000000000               0.000000000               0.000000000               0.000000000               0.000000000               0.000000000               0.000000000               0.000000000               0.000000000               0.000000000               0.000000000               0.000000000               0.000000000               0.000000000               0.000000000               0.000000000               0.000000000               0.000000000               0.000000000               0.000000000               0.000000000               0.000000000               0.000000000               0.000000000               0.000000000               0.000000000               0.000000000               0.000000000               0.000000000               0.000000000               0.000000000               0.000000000               0.000000000               0.000000000               0.000000000               0.000000000               0.000000000               0.000000000               0.000000000               0.000000000               0.000000000               0.000000000               0.000000000               0.000000000               0.000000000               0.000000000               0.000000000               0.000000000               0.000000000               0.000000000               0.000000000               0.000000000               0.000000000               0.000000000               0.000000000               0.000000000               0.000000000               0.000000000               0.000000000               0.000000000               0.000000000               0.000000000               0.000000000               0.000000000               0.000000000               0.000000000               0.000000000               0.000000000               0.000000000               0.000000000               0.000000000               0.000000000               0.000000000               0.000000000               0.000000000               0.000000000               0.000000000               0.000000000               0.000000000               0.000000000               0.000000000               0.000000000               0.000000000               0.000000000               0.000000000               0.000000000              -0.000005178              -0.000011131              -0.000000457              -0.000000550              -0.000003527              -0.000004077               0.000000000               0.000000000               0.000000000               0.000000000              -0.000003426              -0.000006873               0.000002809              -0.000000425              -0.000002149              -0.000002575               0.000000000               0.000000000               0.000000000               0.000000000              -0.000004210              -0.000011577               0.000003585              -0.000000132              -0.000003815              -0.000003947               0.000000000               0.000000000               0.000000000               0.000000000              -0.000004542              -0.000012618               0.000003583              -0.000000126              -0.000004164              -0.000004290               0.000000000               0.000000000               0.000000000               0.000000000              -0.000004867              -0.000014042               0.000005336              -0.000000070              -0.000004657              -0.000004727               0.000000000               0.000000000               0.000000000               0.000000000              -0.000004749              -0.000014466               0.000005192               0.000000027              -0.000004831              -0.000004804               0.000000000               0.000000000               0.000000000               0.000000000              -0.000004574              -0.000013359               0.000004981              -0.000000045              -0.000004438              -0.000004483               0.000000000               0.000000000               0.000000000               0.000000000              -0.000004041              -0.000010426               0.000004195              -0.000000212              -0.000003405              -0.000003617               0.000000000               0.000000000               0.000000000               0.000000000              -0.000003763              -0.000006295               0.000002662              -0.000000624              -0.000001890              -0.000002515               0.000000000               0.000000000               0.000000000               0.000000000              -0.000003135              -0.000001876               0.000001137              -0.000000941              -0.000000312              -0.000001253               0.000000000               0.000000000               0.000000000               0.000000000              -0.000001475               0.000001883              -0.000000138              -0.000000789               0.000000890               0.000000102               0.000000000               0.000000000               0.000000000               0.000000000               0.000001168               0.000004160              -0.000000769              -0.000000082               0.000001414               0.000001332               0.000000000               0.000000000               0.000000000               0.000000000               0.000004407               0.000005237              -0.000000745               0.000000998               0.000001413               0.000002411               0.000000000               0.000000000               0.000000000               0.000000000               0.000007150               0.000006303              -0.000000386               0.000001894               0.000001470               0.000003363               0.000000000               0.000000000               0.000000000               0.000000000               0.000007905               0.000008993              -0.000000171               0.000001840               0.000002384               0.000004224               0.000000000               0.000000000               0.000000000               0.000000000               0.000005296               0.000014774              -0.000000303               0.000000139               0.000004878               0.000005017               0.000000000               0.000000000               0.000000000               0.000000000               0.000004553               0.000021582               0.000000898              -0.000000990               0.000007524               0.000006533               0.000000000               0.000000000               0.000000000               0.000000000              -0.000004071              -0.000012449              -0.000008641               0.000000030              -0.000004160              -0.000004130               0.000000000               0.000000000               0.000000000               0.000000000              -0.000003322              -0.000009892              -0.000001901              -0.000000009              -0.000003294              -0.000003304               0.000000000               0.000000000               0.000000000               0.000000000              -0.000003423              -0.000005541               0.000001469              -0.000000591              -0.000001650              -0.000002241               0.000000000               0.000000000               0.000000000               0.000000000              -0.000002951              -0.000002073              -0.000000266              -0.000000847              -0.000000408              -0.000001256               0.000000000               0.000000000               0.000000000               0.000000000               0.000000991               0.000009028               0.000001120              -0.000000757               0.000003262               0.000002505               0.000000000               0.000000000               0.000000000               0.000000000               0.000005030               0.000021799               0.000001051              -0.000000839               0.000007546               0.000006707               0.000000000               0.000000000               0.000000000               0.000000000               0.000009370               0.000035773               0.000000183              -0.000000958               0.000012244               0.000011286               0.000000000               0.000000000               0.000000000               0.000000000               0.000013907               0.000050755              -0.000000607              -0.000001129               0.000017294               0.000016165               0.000000000               0.000000000               0.000000000               0.000000000               0.000019202               0.000063850              -0.000001497              -0.000000781               0.000021543               0.000020763               0.000000000               0.000000000               0.000000000               0.000000000               0.000025885               0.000074112              -0.000001940               0.000000443               0.000024556               0.000024999               0.000000000               0.000000000               0.000000000               0.000000000               0.000033562               0.000081816              -0.000001464               0.000002359               0.000026485               0.000028844               0.000000000               0.000000000               0.000000000               0.000000000               0.000040406               0.000088917              -0.000000155               0.000004038               0.000028293               0.000032330               0.000000000               0.000000000               0.000000000               0.000000000               0.000043605               0.000098224               0.000001373               0.000004074               0.000031383               0.000035457               0.000000000               0.000000000               0.000000000               0.000000000               0.000041101               0.000112081               0.000002371               0.000001403               0.000036892               0.000038295               0.000000000               0.000000000               0.000000000               0.000000000               0.000032215               0.000131638               0.000002322              -0.000004374               0.000045337               0.000040963               0.000000000               0.000000000               0.000000000               0.000000000               0.000017452               0.000157024               0.000001148              -0.000013083               0.000056702               0.000043618               0.000000000               0.000000000               0.000000000               0.000000000               0.000012990               0.000179231               0.000002856              -0.000017533               0.000065587               0.000048055               0.000000000               0.000000000               0.000000000               0.000000000              -0.000006296              -0.000013976              -0.000008162              -0.000000614              -0.000004454              -0.000005068               0.000000000               0.000000000               0.000000000               0.000000000              -0.000002482              -0.000008421              -0.000001846               0.000000122              -0.000002848              -0.000002726               0.000000000               0.000000000               0.000000000               0.000000000               0.000002361               0.000005273               0.000001987               0.000000226               0.000001682               0.000001908               0.000000000               0.000000000               0.000000000               0.000000000               0.000005642               0.000020964              -0.000000905              -0.000000505               0.000007156               0.000006651               0.000000000               0.000000000               0.000000000               0.000000000               0.000013756               0.000044575              -0.000001486              -0.000000413               0.000014996               0.000014582               0.000000000               0.000000000               0.000000000               0.000000000               0.000023091               0.000069259              -0.000002074               0.000000002               0.000023085               0.000023087               0.000000000               0.000000000               0.000000000               0.000000000               0.000030070               0.000094436              -0.000003394              -0.000000528               0.000031654               0.000031126               0.000000000               0.000000000               0.000000000               0.000000000               0.000037332               0.000117992              -0.000003746              -0.000000750               0.000039580               0.000038830               0.000000000               0.000000000               0.000000000               0.000000000               0.000046790               0.000138578              -0.000002867               0.000000224               0.000046118               0.000046342               0.000000000               0.000000000               0.000000000               0.000000000               0.000056360               0.000155680              -0.000000406               0.000001675               0.000051334               0.000053009               0.000000000               0.000000000               0.000000000               0.000000000               0.000064533               0.000171199               0.000003380               0.000002800               0.000056132               0.000058932               0.000000000               0.000000000               0.000000000               0.000000000               0.000068972               0.000188738               0.000007419               0.000002272               0.000062155               0.000064427               0.000000000               0.000000000               0.000000000               0.000000000               0.000067273               0.000210840               0.000010503              -0.000001128               0.000070655               0.000069528               0.000000000               0.000000000               0.000000000               0.000000000               0.000058735               0.000238806               0.000011730              -0.000007825               0.000082210               0.000074385               0.000000000               0.000000000               0.000000000               0.000000000               0.000043698               0.000272645               0.000010520              -0.000017694               0.000096779               0.000079085               0.000000000               0.000000000               0.000000000               0.000000000               0.000023131               0.000311775               0.000006398              -0.000030298               0.000114023               0.000083726               0.000000000               0.000000000               0.000000000               0.000000000               0.000017739               0.000343371               0.000007035              -0.000036269               0.000126546               0.000090277               0.000000000               0.000000000               0.000000000               0.000000000              -0.000001996               0.000000741              -0.000007385              -0.000000841               0.000000527              -0.000000314               0.000000000               0.000000000               0.000000000               0.000000000               0.000003476               0.000010507              -0.000004326              -0.000000010               0.000003506               0.000003496               0.000000000               0.000000000               0.000000000               0.000000000               0.000015263               0.000039554               0.000000644               0.000000779               0.000012925               0.000013704               0.000000000               0.000000000               0.000000000               0.000000000               0.000022976               0.000069900              -0.000001451              -0.000000122               0.000023340               0.000023219               0.000000000               0.000000000               0.000000000               0.000000000               0.000033836               0.000102840              -0.000003141              -0.000000167               0.000034335               0.000034168               0.000000000               0.000000000               0.000000000               0.000000000               0.000047022               0.000137007              -0.000002877               0.000000508               0.000045499               0.000046007               0.000000000               0.000000000               0.000000000               0.000000000               0.000057775               0.000169900              -0.000003229               0.000000428               0.000056490               0.000056918               0.000000000               0.000000000               0.000000000               0.000000000               0.000068044               0.000198787              -0.000001635               0.000000668               0.000066039               0.000066707               0.000000000               0.000000000               0.000000000               0.000000000               0.000079117               0.000224680               0.000002203               0.000001584               0.000074365               0.000075948               0.000000000               0.000000000               0.000000000               0.000000000               0.000088210               0.000249084               0.000008038               0.000001943               0.000082379               0.000084323               0.000000000               0.000000000               0.000000000               0.000000000               0.000092501               0.000275700               0.000014514               0.000000225               0.000091824               0.000092049               0.000000000               0.000000000               0.000000000               0.000000000               0.000090305               0.000307161               0.000019903              -0.000004531               0.000103896               0.000099365               0.000000000               0.000000000               0.000000000               0.000000000               0.000081095               0.000343943               0.000022990              -0.000012582               0.000118840               0.000106258               0.000000000               0.000000000               0.000000000               0.000000000               0.000065689               0.000385255               0.000022892              -0.000023523               0.000136258               0.000112735               0.000000000               0.000000000               0.000000000               0.000000000               0.000045857               0.000429516               0.000019080              -0.000036493               0.000155335               0.000118842               0.000000000               0.000000000               0.000000000               0.000000000               0.000023319               0.000474696               0.000011225              -0.000050592               0.000175095               0.000124502               0.000000000               0.000000000               0.000000000               0.000000000               0.000018068               0.000507742               0.000010024              -0.000056692               0.000188143               0.000131451               0.000000000               0.000000000               0.000000000               0.000000000               0.000004731               0.000026828              -0.000005594              -0.000001579               0.000009469               0.000007890               0.000000000               0.000000000               0.000000000               0.000000000               0.000012117               0.000042886              -0.000005103              -0.000000817               0.000014567               0.000013751               0.000000000               0.000000000               0.000000000               0.000000000               0.000032469               0.000088461               0.000000165               0.000001118               0.000029114               0.000030232               0.000000000               0.000000000               0.000000000               0.000000000               0.000044746               0.000130038              -0.000001027               0.000000525               0.000043171               0.000043695               0.000000000               0.000000000               0.000000000               0.000000000               0.000056670               0.000172749              -0.000002380              -0.000000342               0.000057697               0.000057354               0.000000000               0.000000000               0.000000000               0.000000000               0.000072719               0.000216200              -0.000001326               0.000000245               0.000071985               0.000072229               0.000000000               0.000000000               0.000000000               0.000000000               0.000086621               0.000255613              -0.000000007               0.000000531               0.000085026               0.000085558               0.000000000               0.000000000               0.000000000               0.000000000               0.000098383               0.000290859               0.000004424               0.000000536               0.000096773               0.000097310               0.000000000               0.000000000               0.000000000               0.000000000               0.000109436               0.000324156               0.000011335               0.000000519               0.000107878               0.000108397               0.000000000               0.000000000               0.000000000               0.000000000               0.000115557               0.000359117               0.000019410              -0.000001556               0.000120223               0.000118667               0.000000000               0.000000000               0.000000000               0.000000000               0.000114219               0.000398743               0.000026654              -0.000007011               0.000135250               0.000128239               0.000000000               0.000000000               0.000000000               0.000000000               0.000105183               0.000443714               0.000031452              -0.000016021               0.000153244               0.000137223               0.000000000               0.000000000               0.000000000               0.000000000               0.000089399               0.000492815               0.000032722              -0.000028077               0.000173629               0.000145552               0.000000000               0.000000000               0.000000000               0.000000000               0.000069067               0.000543714               0.000030011              -0.000042064               0.000195258               0.000153194               0.000000000               0.000000000               0.000000000               0.000000000               0.000046425               0.000593502               0.000023455              -0.000056778               0.000216758               0.000159980               0.000000000               0.000000000               0.000000000               0.000000000               0.000023056               0.000639749               0.000013185              -0.000071322               0.000237022               0.000165699               0.000000000               0.000000000               0.000000000               0.000000000               0.000017353               0.000671126               0.000010658              -0.000077383               0.000249501               0.000172118               0.000000000               0.000000000               0.000000000               0.000000000               0.000016593               0.000054874               0.000002400              -0.000000637               0.000018503               0.000017866               0.000000000               0.000000000               0.000000000               0.000000000               0.000025519               0.000079567              -0.000002686              -0.000000376               0.000026647               0.000026271               0.000000000               0.000000000               0.000000000               0.000000000               0.000051448               0.000136168              -0.000001510               0.000002272               0.000044632               0.000046904               0.000000000               0.000000000               0.000000000               0.000000000               0.000067083               0.000187001              -0.000000727               0.000001781               0.000061739               0.000063520               0.000000000               0.000000000               0.000000000               0.000000000               0.000079615               0.000239081              -0.000001799              -0.000000029               0.000079703               0.000079673               0.000000000               0.000000000               0.000000000               0.000000000               0.000097676               0.000290342               0.000000091               0.000000336               0.000096668               0.000097004               0.000000000               0.000000000               0.000000000               0.000000000               0.000113017               0.000337623               0.000003580               0.000000179               0.000112480               0.000112659               0.000000000               0.000000000               0.000000000               0.000000000               0.000124531               0.000381066               0.000010326              -0.000000934               0.000127332               0.000126398               0.000000000               0.000000000               0.000000000               0.000000000               0.000133194               0.000425205               0.000019296              -0.000003203               0.000142801               0.000139598               0.000000000               0.000000000               0.000000000               0.000000000               0.000134624               0.000473382               0.000027846              -0.000008689               0.000160689               0.000152000               0.000000000               0.000000000               0.000000000               0.000000000               0.000127082               0.000526684               0.000034292              -0.000018180               0.000181619               0.000163440               0.000000000               0.000000000               0.000000000               0.000000000               0.000112270               0.000584026               0.000036931              -0.000030902               0.000204974               0.000174072               0.000000000               0.000000000               0.000000000               0.000000000               0.000092449               0.000643046               0.000035490              -0.000045712               0.000229584               0.000183872               0.000000000               0.000000000               0.000000000               0.000000000               0.000069772               0.000700349               0.000030440              -0.000061379               0.000253907               0.000192528               0.000000000               0.000000000               0.000000000               0.000000000               0.000045968               0.000753560               0.000022520              -0.000076957               0.000276837               0.000199880               0.000000000               0.000000000               0.000000000               0.000000000               0.000022577               0.000800971               0.000012211              -0.000091655               0.000297539               0.000205884               0.000000000               0.000000000               0.000000000               0.000000000               0.000016449               0.000831635               0.000009797              -0.000097786               0.000309804               0.000212018               0.000000000               0.000000000               0.000000000               0.000000000               0.000029760               0.000083335               0.000008292               0.000000743               0.000027530               0.000028273               0.000000000               0.000000000               0.000000000               0.000000000               0.000036188               0.000115701              -0.000001305              -0.000000892               0.000038864               0.000037972               0.000000000               0.000000000               0.000000000               0.000000000               0.000066315               0.000182392              -0.000003490               0.000002069               0.000060107               0.000062176               0.000000000               0.000000000               0.000000000               0.000000000               0.000086356               0.000244349              -0.000000915               0.000001840               0.000080835               0.000082675               0.000000000               0.000000000               0.000000000               0.000000000               0.000100147               0.000303624              -0.000001212              -0.000000398               0.000101339               0.000100942               0.000000000               0.000000000               0.000000000               0.000000000               0.000120726               0.000363060               0.000001622              -0.000000110               0.000121056               0.000120945               0.000000000               0.000000000               0.000000000               0.000000000               0.000137052               0.000418374               0.000007020              -0.000000902               0.000139757               0.000138855               0.000000000               0.000000000               0.000000000               0.000000000               0.000148244               0.000471495               0.000015430              -0.000003345               0.000158279               0.000154933               0.000000000               0.000000000               0.000000000               0.000000000               0.000153445               0.000528349               0.000024736              -0.000008502               0.000178948               0.000170447               0.000000000               0.000000000               0.000000000               0.000000000               0.000149529               0.000590374               0.000032463              -0.000017723               0.000202697               0.000184974               0.000000000               0.000000000               0.000000000               0.000000000               0.000136640               0.000656968               0.000036703              -0.000030881               0.000229281               0.000198400               0.000000000               0.000000000               0.000000000               0.000000000               0.000118178               0.000725912               0.000036691              -0.000046422               0.000257442               0.000211020               0.000000000               0.000000000               0.000000000               0.000000000               0.000095718               0.000793684               0.000032748              -0.000063316               0.000285664               0.000222348               0.000000000               0.000000000               0.000000000               0.000000000               0.000071515               0.000858046               0.000026223              -0.000080437               0.000312825               0.000232388               0.000000000               0.000000000               0.000000000               0.000000000               0.000046911               0.000917447               0.000017968              -0.000097089               0.000338175               0.000241087               0.000000000               0.000000000               0.000000000               0.000000000               0.000023401               0.000970122               0.000009239              -0.000112490               0.000360867               0.000248378               0.000000000               0.000000000               0.000000000               0.000000000               0.000015441               0.001002989               0.000007742              -0.000119583               0.000374187               0.000254604               0.000000000               0.000000000               0.000000000               0.000000000               0.000036024               0.000103394               0.000010774               0.000000585               0.000034269               0.000034854               0.000000000               0.000000000               0.000000000               0.000000000               0.000043342               0.000143958               0.000000267              -0.000001742               0.000048566               0.000046824               0.000000000               0.000000000               0.000000000               0.000000000               0.000079014               0.000223533              -0.000005327               0.000001688               0.000073947               0.000075636               0.000000000               0.000000000               0.000000000               0.000000000               0.000102566               0.000291519              -0.000002680               0.000002023               0.000096498               0.000098520               0.000000000               0.000000000               0.000000000               0.000000000               0.000116448               0.000356982              -0.000000797              -0.000000955               0.000119311               0.000118356               0.000000000               0.000000000               0.000000000               0.000000000               0.000138369               0.000422659               0.000001592              -0.000000944               0.000141200               0.000140256               0.000000000               0.000000000               0.000000000               0.000000000               0.000154447               0.000483945               0.000007486              -0.000002575               0.000162172               0.000159596               0.000000000               0.000000000               0.000000000               0.000000000               0.000165271               0.000545089               0.000015693              -0.000006160               0.000183748               0.000177588               0.000000000               0.000000000               0.000000000               0.000000000               0.000169103               0.000610751               0.000023528              -0.000012930               0.000207892               0.000194962               0.000000000               0.000000000               0.000000000               0.000000000               0.000163782               0.000682956               0.000030073              -0.000023951               0.000235634               0.000211682               0.000000000               0.000000000               0.000000000               0.000000000               0.000150989               0.000758967               0.000032846              -0.000038250               0.000265737               0.000227487               0.000000000               0.000000000               0.000000000               0.000000000               0.000133643               0.000836452               0.000031548              -0.000054440               0.000296961               0.000242521               0.000000000               0.000000000               0.000000000               0.000000000               0.000113315               0.000911951               0.000026671              -0.000071501               0.000327814               0.000256314               0.000000000               0.000000000               0.000000000               0.000000000               0.000091149               0.000984106               0.000019390              -0.000088832               0.000357643               0.000268811               0.000000000               0.000000000               0.000000000               0.000000000               0.000069098               0.001051862               0.000011248              -0.000105571               0.000385807               0.000280237               0.000000000               0.000000000               0.000000000               0.000000000               0.000049417               0.001113979               0.000003718              -0.000120716               0.000411561               0.000290845               0.000000000               0.000000000               0.000000000               0.000000000               0.000038588               0.001146748               0.000000665              -0.000128873               0.000425203               0.000296330               0.000000000               0.000000000               0.000000000               0.000000000               0.000036984               0.000109866               0.000015018               0.000000136               0.000036576               0.000036712               0.000000000               0.000000000               0.000000000               0.000000000               0.000047057               0.000161429               0.000004875              -0.000002532               0.000054653               0.000052121               0.000000000               0.000000000               0.000000000               0.000000000               0.000084580               0.000251841              -0.000004077               0.000000237               0.000083867               0.000084105               0.000000000               0.000000000               0.000000000               0.000000000               0.000115318               0.000321573              -0.000003267               0.000003048               0.000106174               0.000109222               0.000000000               0.000000000               0.000000000               0.000000000               0.000128865               0.000388370               0.000000729              -0.000000222               0.000129529               0.000129308               0.000000000               0.000000000               0.000000000               0.000000000               0.000148852               0.000456096               0.000002906              -0.000001192               0.000152428               0.000151236               0.000000000               0.000000000               0.000000000               0.000000000               0.000168397               0.000522694               0.000006870              -0.000002188               0.000174959               0.000172771               0.000000000               0.000000000               0.000000000               0.000000000               0.000180796               0.000585465               0.000013711              -0.000005385               0.000196948               0.000191563               0.000000000               0.000000000               0.000000000               0.000000000               0.000188753               0.000650971               0.000020277              -0.000010589               0.000220518               0.000209929               0.000000000               0.000000000               0.000000000               0.000000000               0.000189084               0.000721338               0.000026139              -0.000019261               0.000246864               0.000227603               0.000000000               0.000000000               0.000000000               0.000000000               0.000182066               0.000794524               0.000029848              -0.000031041               0.000275186               0.000244145               0.000000000               0.000000000               0.000000000               0.000000000               0.000170107               0.000870664               0.000030050              -0.000045043               0.000305233               0.000260190               0.000000000               0.000000000               0.000000000               0.000000000               0.000154993               0.000947080               0.000026839              -0.000060263               0.000335778               0.000275515               0.000000000               0.000000000               0.000000000               0.000000000               0.000137943               0.001022952               0.000020555              -0.000076140               0.000366361               0.000290220               0.000000000               0.000000000               0.000000000               0.000000000               0.000120215               0.001098097               0.000012999              -0.000092181               0.000396756               0.000304574               0.000000000               0.000000000               0.000000000               0.000000000               0.000103902               0.001172334               0.000005235              -0.000107578               0.000426634               0.000319055               0.000000000               0.000000000               0.000000000               0.000000000               0.000089879               0.001205605              -0.000000935              -0.000116996               0.000440863               0.000323867               0.000000000               0.000000000               0.000000000               0.000000000               0.000040629               0.000111067               0.000019323               0.000001353               0.000036571               0.000037924               0.000000000               0.000000000               0.000000000               0.000000000               0.000049414               0.000171629               0.000009977              -0.000002923               0.000058184               0.000055260               0.000000000               0.000000000               0.000000000               0.000000000               0.000085282               0.000269397              -0.000001968              -0.000001694               0.000090363               0.000088669               0.000000000               0.000000000               0.000000000               0.000000000               0.000122285               0.000342881              -0.000004865               0.000002997               0.000113294               0.000116290               0.000000000               0.000000000               0.000000000               0.000000000               0.000138055               0.000406901              -0.000001452               0.000000908               0.000135330               0.000136238               0.000000000               0.000000000               0.000000000               0.000000000               0.000154120               0.000472360               0.000002015              -0.000001250               0.000157868               0.000156618               0.000000000               0.000000000               0.000000000               0.000000000               0.000175717               0.000541071               0.000003388              -0.000001740               0.000180935               0.000179195               0.000000000               0.000000000               0.000000000               0.000000000               0.000192275               0.000606214               0.000007586              -0.000003673               0.000203294               0.000199620               0.000000000               0.000000000               0.000000000               0.000000000               0.000204597               0.000669567               0.000013240              -0.000006972               0.000225511               0.000218539               0.000000000               0.000000000               0.000000000               0.000000000               0.000212899               0.000737124               0.000018017              -0.000012303               0.000249806               0.000237503               0.000000000               0.000000000               0.000000000               0.000000000               0.000214841               0.000806998               0.000022494              -0.000020309               0.000275766               0.000255457               0.000000000               0.000000000               0.000000000               0.000000000               0.000211844               0.000879641               0.000024923              -0.000030514               0.000303382               0.000272868               0.000000000               0.000000000               0.000000000               0.000000000               0.000204991               0.000953658               0.000024610              -0.000042336               0.000331995               0.000289659               0.000000000               0.000000000               0.000000000               0.000000000               0.000196095               0.001028553               0.000021168              -0.000055033               0.000361192               0.000306159               0.000000000               0.000000000               0.000000000               0.000000000               0.000185107               0.001102591               0.000015118              -0.000068409               0.000390329               0.000321921               0.000000000               0.000000000               0.000000000               0.000000000               0.000172667               0.001176490               0.000007600              -0.000082311               0.000419597               0.000337286               0.000000000               0.000000000               0.000000000               0.000000000               0.000158685               0.001208994               0.000000458              -0.000091617               0.000433533               0.000341916               0.000000000               0.000000000               0.000000000               0.000000000               0.000044734               0.000110774               0.000021216               0.000002928               0.000035948               0.000038877               0.000000000               0.000000000               0.000000000               0.000000000               0.000052092               0.000174804               0.000014833              -0.000002316               0.000059039               0.000056723               0.000000000               0.000000000               0.000000000               0.000000000               0.000085135               0.000280605               0.000002483              -0.000003150               0.000094584               0.000091434               0.000000000               0.000000000               0.000000000               0.000000000               0.000125173               0.000360160              -0.000004876               0.000001920               0.000119412               0.000121332               0.000000000               0.000000000               0.000000000               0.000000000               0.000147048               0.000424746              -0.000003716               0.000002050               0.000140897               0.000142947               0.000000000               0.000000000               0.000000000               0.000000000               0.000161676               0.000488030               0.000000888              -0.000000375               0.000162800               0.000162425               0.000000000               0.000000000               0.000000000               0.000000000               0.000181623               0.000555329               0.000001957              -0.000001308               0.000185544               0.000184236               0.000000000               0.000000000               0.000000000               0.000000000               0.000202032               0.000624508               0.000002990              -0.000002302               0.000208935               0.000206633               0.000000000               0.000000000               0.000000000               0.000000000               0.000217751               0.000687794               0.000006753              -0.000004318               0.000230702               0.000226384               0.000000000               0.000000000               0.000000000               0.000000000               0.000231412               0.000752657               0.000010427              -0.000007303               0.000253317               0.000246015               0.000000000               0.000000000               0.000000000               0.000000000               0.000241546               0.000820439               0.000013730              -0.000011975               0.000277469               0.000265494               0.000000000               0.000000000               0.000000000               0.000000000               0.000247067               0.000889559               0.000016747              -0.000018545               0.000302698               0.000284154               0.000000000               0.000000000               0.000000000               0.000000000               0.000249020               0.000960376               0.000018117              -0.000026664               0.000329010               0.000302346               0.000000000               0.000000000               0.000000000               0.000000000               0.000248557               0.001032989               0.000017431              -0.000035914               0.000356298               0.000320383               0.000000000               0.000000000               0.000000000               0.000000000               0.000246069               0.001104978               0.000014101              -0.000045846               0.000383604               0.000337758               0.000000000               0.000000000               0.000000000               0.000000000               0.000241883               0.001177971               0.000008344              -0.000056540               0.000411500               0.000354960               0.000000000               0.000000000               0.000000000               0.000000000               0.000232664               0.001210971               0.000002282              -0.000064122               0.000425027               0.000360905               0.000000000               0.000000000               0.000000000               0.000000000               0.000042080               0.000103623               0.000020554               0.000002827               0.000033598               0.000036425               0.000000000               0.000000000               0.000000000               0.000000000               0.000054339               0.000170708               0.000017817              -0.000000961               0.000057223               0.000056261               0.000000000               0.000000000               0.000000000               0.000000000               0.000085699               0.000285784               0.000007682              -0.000003586               0.000096456               0.000092870               0.000000000               0.000000000               0.000000000               0.000000000               0.000124782               0.000372984              -0.000003046               0.000000170               0.000124270               0.000124440               0.000000000               0.000000000               0.000000000               0.000000000               0.000152717               0.000441046              -0.000004486               0.000002138               0.000146301               0.000148439               0.000000000               0.000000000               0.000000000               0.000000000               0.000169392               0.000503034              -0.000000486               0.000000643               0.000167462               0.000168105               0.000000000               0.000000000               0.000000000               0.000000000               0.000187238               0.000566085               0.000001365              -0.000000546               0.000188875               0.000188329               0.000000000               0.000000000               0.000000000               0.000000000               0.000208950               0.000636008               0.000000817              -0.000001145               0.000212382               0.000211237               0.000000000               0.000000000               0.000000000               0.000000000               0.000228686               0.000703291               0.000001835              -0.000002154               0.000235146               0.000232992               0.000000000               0.000000000               0.000000000               0.000000000               0.000245459               0.000765932               0.000004339              -0.000003694               0.000256539               0.000252845               0.000000000               0.000000000               0.000000000               0.000000000               0.000261390               0.000831823               0.000006004              -0.000005957               0.000279257               0.000273300               0.000000000               0.000000000               0.000000000               0.000000000               0.000274728               0.000899834               0.000007930              -0.000009456               0.000303094               0.000293638               0.000000000               0.000000000               0.000000000               0.000000000               0.000284718               0.000967628               0.000009503              -0.000014184               0.000327268               0.000313083               0.000000000               0.000000000               0.000000000               0.000000000               0.000293003               0.001038019               0.000010045              -0.000019876               0.000352628               0.000332752               0.000000000               0.000000000               0.000000000               0.000000000               0.000299618               0.001108609               0.000008952              -0.000026219               0.000378272               0.000352053               0.000000000               0.000000000               0.000000000               0.000000000               0.000305538               0.001179442               0.000005823              -0.000032853               0.000404094               0.000371241               0.000000000               0.000000000               0.000000000               0.000000000               0.000304408               0.001212046               0.000002204              -0.000037353               0.000416462               0.000379110               0.000000000               0.000000000               0.000000000               0.000000000               0.000036536               0.000088998               0.000016337               0.000002576               0.000028807               0.000031383               0.000000000               0.000000000               0.000000000               0.000000000               0.000056449               0.000160709               0.000016539               0.000001080               0.000053209               0.000054289               0.000000000               0.000000000               0.000000000               0.000000000               0.000088579               0.000283369               0.000010413              -0.000002204               0.000095190               0.000092986               0.000000000               0.000000000               0.000000000               0.000000000               0.000123515               0.000379613              -0.000000760              -0.000001134               0.000126914               0.000125781               0.000000000               0.000000000               0.000000000               0.000000000               0.000154148               0.000453241              -0.000004538               0.000001151               0.000150695               0.000151846               0.000000000               0.000000000               0.000000000               0.000000000               0.000174533               0.000515044              -0.000001630               0.000001069               0.000171323               0.000172393               0.000000000               0.000000000               0.000000000               0.000000000               0.000192431               0.000574907               0.000000771               0.000000298               0.000191534               0.000191833               0.000000000               0.000000000               0.000000000               0.000000000               0.000213352               0.000641576               0.000000451              -0.000000190               0.000213920               0.000213730               0.000000000               0.000000000               0.000000000               0.000000000               0.000235931               0.000713505              -0.000000376              -0.000000714               0.000238071               0.000237357               0.000000000               0.000000000               0.000000000               0.000000000               0.000255461               0.000778118               0.000000674              -0.000001467               0.000259859               0.000258392               0.000000000               0.000000000               0.000000000               0.000000000               0.000274233               0.000841327               0.000001633              -0.000002328               0.000281216               0.000278887               0.000000000               0.000000000               0.000000000               0.000000000               0.000293491               0.000908878               0.000002035              -0.000003551               0.000304140               0.000300589               0.000000000               0.000000000               0.000000000               0.000000000               0.000310358               0.000975288               0.000002782              -0.000005527               0.000326935               0.000321408               0.000000000               0.000000000               0.000000000               0.000000000               0.000325702               0.001042470               0.000003287              -0.000008171               0.000350210               0.000342039               0.000000000               0.000000000               0.000000000               0.000000000               0.000340287               0.001111405               0.000003033              -0.000011318               0.000374237               0.000362919               0.000000000               0.000000000               0.000000000               0.000000000               0.000354458               0.001180431               0.000002069              -0.000014632               0.000398350               0.000383718               0.000000000               0.000000000               0.000000000               0.000000000               0.000359566               0.001212529               0.000000735              -0.000016729               0.000409749               0.000393020               0.000000000               0.000000000               0.000000000               0.000000000               0.000031377               0.000077149               0.000011774               0.000002123               0.000025008               0.000027131               0.000000000               0.000000000               0.000000000               0.000000000               0.000057138               0.000152628               0.000013318               0.000002348               0.000050093               0.000052441               0.000000000               0.000000000               0.000000000               0.000000000               0.000091584               0.000278845               0.000010221              -0.000000512               0.000093118               0.000092606               0.000000000               0.000000000               0.000000000               0.000000000               0.000122848               0.000381506               0.000001063              -0.000001620               0.000127707               0.000126087               0.000000000               0.000000000               0.000000000               0.000000000               0.000153078               0.000461454              -0.000003607              -0.000000277               0.000153909               0.000153632               0.000000000               0.000000000               0.000000000               0.000000000               0.000176885               0.000524379              -0.000001866               0.000000784               0.000174530               0.000175314               0.000000000               0.000000000               0.000000000               0.000000000               0.000195715               0.000582286               0.000000269               0.000000607               0.000193891               0.000194498               0.000000000               0.000000000               0.000000000               0.000000000               0.000215585               0.000644796               0.000000498               0.000000245               0.000214848               0.000215093               0.000000000               0.000000000               0.000000000               0.000000000               0.000239131               0.000717818              -0.000000499              -0.000000053               0.000239288               0.000239235               0.000000000               0.000000000               0.000000000               0.000000000               0.000261299               0.000786436              -0.000000705              -0.000000317               0.000262249               0.000261931               0.000000000               0.000000000               0.000000000               0.000000000               0.000281219               0.000848133              -0.000000127              -0.000000559               0.000282895               0.000282335               0.000000000               0.000000000               0.000000000               0.000000000               0.000302808               0.000914016              -0.000000318              -0.000000699               0.000304902               0.000304203               0.000000000               0.000000000               0.000000000               0.000000000               0.000324189               0.000980747              -0.000000474              -0.000001022               0.000327253               0.000326231               0.000000000               0.000000000               0.000000000               0.000000000               0.000343973               0.001045922              -0.000000268              -0.000001750               0.000349221               0.000347470               0.000000000               0.000000000               0.000000000               0.000000000               0.000363462               0.001113069              -0.000000208              -0.000002835               0.000371965               0.000369129               0.000000000               0.000000000               0.000000000               0.000000000               0.000382572               0.001181141              -0.000000128              -0.000004178               0.000395103               0.000390924               0.000000000               0.000000000               0.000000000               0.000000000               0.000390697               0.001212986              -0.000000317              -0.000005112               0.000406029               0.000400917               0.000000000               0.000000000               0.000000000               0.000000000               0.000028288               0.000070846               0.000006488               0.000001752               0.000023031               0.000024783               0.000000000               0.000000000               0.000000000               0.000000000               0.000058358               0.000147223               0.000007684               0.000003481               0.000047913               0.000051395               0.000000000               0.000000000               0.000000000               0.000000000               0.000094054               0.000272924               0.000006163               0.000001155               0.000090589               0.000091744               0.000000000               0.000000000               0.000000000               0.000000000               0.000123655               0.000379548               0.000001017              -0.000001073               0.000126873               0.000125799               0.000000000               0.000000000               0.000000000               0.000000000               0.000153113               0.000465943              -0.000001823              -0.000000825               0.000155588               0.000154763               0.000000000               0.000000000               0.000000000               0.000000000               0.000177219               0.000531039              -0.000001217               0.000000077               0.000176985               0.000177063               0.000000000               0.000000000               0.000000000               0.000000000               0.000196848               0.000588062              -0.000000144               0.000000310               0.000195915               0.000196226               0.000000000               0.000000000               0.000000000               0.000000000               0.000216523               0.000647079               0.000000238               0.000000311               0.000215587               0.000215898               0.000000000               0.000000000               0.000000000               0.000000000               0.000240143               0.000717758              -0.000000314               0.000000334               0.000239139               0.000239473               0.000000000               0.000000000               0.000000000               0.000000000               0.000264064               0.000789079              -0.000000803               0.000000389               0.000262894               0.000263283               0.000000000               0.000000000               0.000000000               0.000000000               0.000284937               0.000851776              -0.000000567               0.000000380               0.000283796               0.000284176               0.000000000               0.000000000               0.000000000               0.000000000               0.000306645               0.000916838              -0.000000587               0.000000387               0.000305481               0.000305868               0.000000000               0.000000000               0.000000000               0.000000000               0.000329732               0.000985025              -0.000000767               0.000000522               0.000328164               0.000328686               0.000000000               0.000000000               0.000000000               0.000000000               0.000351808               0.001050203              -0.000000688               0.000000653               0.000349846               0.000350499               0.000000000               0.000000000               0.000000000               0.000000000               0.000373782               0.001115930              -0.000000514               0.000000677               0.000371747               0.000372424               0.000000000               0.000000000               0.000000000               0.000000000               0.000395654               0.001182790              -0.000000269               0.000000521               0.000394085               0.000394607               0.000000000               0.000000000               0.000000000               0.000000000               0.000405540               0.001214265              -0.000000211               0.000000295               0.000404653               0.000404947               0.000000000               0.000000000               0.000000000               0.000000000               0.000000000               0.000000000               0.000000000               0.000000000               0.000000000               0.000000000               0.000000000               0.000000000               0.000000000               0.000000000               0.000000000               0.000000000               0.000000000               0.000000000               0.000000000               0.000000000               0.000000000               0.000000000               0.000000000               0.000000000               0.000000000               0.000000000               0.000000000               0.000000000               0.000000000               0.000000000               0.000000000               0.000000000               0.000000000               0.000000000               0.000000000               0.000000000               0.000000000               0.000000000               0.000000000               0.000000000               0.000000000               0.000000000               0.000000000               0.000000000               0.000000000               0.000000000               0.000000000               0.000000000               0.000000000               0.000000000               0.000000000               0.000000000               0.000000000               0.000000000               0.000000000               0.000000000               0.000000000               0.000000000               0.000000000               0.000000000               0.000000000               0.000000000               0.000000000               0.000000000               0.000000000               0.000000000               0.000000000               0.000000000               0.000000000               0.000000000               0.000000000               0.000000000               0.000000000               0.000000000               0.000000000               0.000000000               0.000000000               0.000000000               0.000000000               0.000000000               0.000000000               0.000000000               0.000000000               0.000000000               0.000000000               0.000000000               0.000000000               0.000000000               0.000000000               0.000000000               0.000000000               0.000000000               0.000000000               0.000000000               0.000000000               0.000000000               0.000000000               0.000000000               0.000000000               0.000000000               0.000000000               0.000000000               0.000000000               0.000000000               0.000000000               0.000000000               0.000000000               0.000000000               0.000000000               0.000000000               0.000000000               0.000000000               0.000000000               0.000000000               0.000000000               0.000000000               0.000000000               0.000000000               0.000000000               0.000000000               0.000000000               0.000000000               0.000000000               0.000000000               0.000000000               0.000000000               0.000000000               0.000000000               0.000000000               0.000000000               0.000000000               0.000000000               0.000000000               0.000000000               0.000000000               0.000000000               0.000000000               0.000000000               0.000000000               0.000000000               0.000000000               0.000000000               0.000000000               0.000000000               0.000000000               0.000000000               0.000000000               0.000000000               0.000000000               0.000000000               0.000000000               0.000000000               0.000000000               0.000000000               0.000000000               0.000000000               0.000000000               0.000000000               0.000000000               0.000000000               0.000000000               0.000000000               0.000000000               0.000000000               0.000000000               0.000000000               0.000000000               0.000000000               0.000000000               0.000000000               0.000000000               0.000000000               0.000000000               0.000000000 </DataArray>
</PointData>
</Piece>
</UnstructuredGrid> </VTKFile>
